 Entering Gaussian System, Link 0=g09
 Input=geom.com
 Output=geom.log
 Initial command:
 /software/cinetica/g09d1/g09d01/d01/build-node-6-2-59348/src/main/l1.exe "/scratch/mdt/200551/Gau-20483.inp" -scrdir="/scratch/mdt/200551/"
 Entering Link 1 = /software/cinetica/g09d1/g09d01/d01/build-node-6-2-59348/src/main/l1.exe PID=     20484.
  
 Copyright (c) 1988,1990,1992,1993,1995,1998,2003,2009,2013,
            Gaussian, Inc.  All Rights Reserved.
  
 This is part of the Gaussian(R) 09 program.  It is based on
 the Gaussian(R) 03 system (copyright 2003, Gaussian, Inc.),
 the Gaussian(R) 98 system (copyright 1998, Gaussian, Inc.),
 the Gaussian(R) 94 system (copyright 1995, Gaussian, Inc.),
 the Gaussian 92(TM) system (copyright 1992, Gaussian, Inc.),
 the Gaussian 90(TM) system (copyright 1990, Gaussian, Inc.),
 the Gaussian 88(TM) system (copyright 1988, Gaussian, Inc.),
 the Gaussian 86(TM) system (copyright 1986, Carnegie Mellon
 University), and the Gaussian 82(TM) system (copyright 1983,
 Carnegie Mellon University). Gaussian is a federally registered
 trademark of Gaussian, Inc.
  
 This software contains proprietary and confidential information,
 including trade secrets, belonging to Gaussian, Inc.
  
 This software is provided under written license and may be
 used, copied, transmitted, or stored only in accord with that
 written license.
  
 The following legend is applicable only to US Government
 contracts under FAR:
  
                    RESTRICTED RIGHTS LEGEND
  
 Use, reproduction and disclosure by the US Government is
 subject to restrictions as set forth in subparagraphs (a)
 and (c) of the Commercial Computer Software - Restricted
 Rights clause in FAR 52.227-19.
  
 Gaussian, Inc.
 340 Quinnipiac St., Bldg. 40, Wallingford CT 06492
  
  
 ---------------------------------------------------------------
 Warning -- This program may not be used in any manner that
 competes with the business of Gaussian, Inc. or will provide
 assistance to any competitor of Gaussian, Inc.  The licensee
 of this program is prohibited from giving any competitor of
 Gaussian, Inc. access to this program.  By using this program,
 the user acknowledges that Gaussian, Inc. is engaged in the
 business of creating and licensing software in the field of
 computational chemistry and represents and warrants to the
 licensee that it is not a competitor of Gaussian, Inc. and that
 it will not use this program in any manner prohibited above.
 ---------------------------------------------------------------
  

 Cite this work as:
 Gaussian 09, Revision D.01,
 M. J. Frisch, G. W. Trucks, H. B. Schlegel, G. E. Scuseria, 
 M. A. Robb, J. R. Cheeseman, G. Scalmani, V. Barone, B. Mennucci, 
 G. A. Petersson, H. Nakatsuji, M. Caricato, X. Li, H. P. Hratchian, 
 A. F. Izmaylov, J. Bloino, G. Zheng, J. L. Sonnenberg, M. Hada, 
 M. Ehara, K. Toyota, R. Fukuda, J. Hasegawa, M. Ishida, T. Nakajima, 
 Y. Honda, O. Kitao, H. Nakai, T. Vreven, J. A. Montgomery, Jr., 
 J. E. Peralta, F. Ogliaro, M. Bearpark, J. J. Heyd, E. Brothers, 
 K. N. Kudin, V. N. Staroverov, T. Keith, R. Kobayashi, J. Normand, 
 K. Raghavachari, A. Rendell, J. C. Burant, S. S. Iyengar, J. Tomasi, 
 M. Cossi, N. Rega, J. M. Millam, M. Klene, J. E. Knox, J. B. Cross, 
 V. Bakken, C. Adamo, J. Jaramillo, R. Gomperts, R. E. Stratmann, 
 O. Yazyev, A. J. Austin, R. Cammi, C. Pomelli, J. W. Ochterski, 
 R. L. Martin, K. Morokuma, V. G. Zakrzewski, G. A. Voth, 
 P. Salvador, J. J. Dannenberg, S. Dapprich, A. D. Daniels, 
 O. Farkas, J. B. Foresman, J. V. Ortiz, J. Cioslowski, 
 and D. J. Fox, Gaussian, Inc., Wallingford CT, 2013.
 
 ******************************************
 Gaussian 09:  EM64L-G09RevD.01 24-Apr-2013
                12-Jun-2024 
 ******************************************
 %mem=400MW
 %chk=tmp
 %NProcShared= 32
 Will use up to   32 processors via shared memory.
 ----------------------------------------------------------------------
 # uwb97xd/jun-cc-pvtz opt=(noeig,intern,maxcyc=50) # int=ultrafine nos
 ym iop(7/33=1) guess=(mix,always)
 ----------------------------------------------------------------------
 1/6=50,10=7,11=1,14=-1,18=40,26=4,38=1/1,3;
 2/12=2,15=1,17=6,18=5,29=3,40=1/2;
 3/5=16,6=1,7=60,11=2,16=1,25=1,30=1,71=1,74=-58,75=-5,116=2/1,2,3;
 4/13=-1/1;
 5/5=2,38=5/2;
 6/7=2,8=2,9=2,10=2,28=1/1;
 7/29=1,30=1,33=1/1,2,3,16;
 1/6=50,10=7,11=1,14=-1,18=40,26=4/3(2);
 2/15=1,29=3/2;
 99//99;
 2/15=1,29=3/2;
 3/5=16,6=1,7=60,11=2,16=1,25=1,30=1,71=1,74=-58,75=-5,116=2/1,2,3;
 4/13=-1/1;
 5/5=2,38=5/2;
 7/30=1,33=1/1,2,3,16;
 1/6=50,11=1,14=-1,18=40,26=4/3(-5);
 2/15=1,29=3/2;
 6/7=2,8=2,9=2,10=2,19=2,28=1/1;
 99/9=1/99;
 ------
 geom 0
 ------
 Symbolic Z-matrix:
 Charge =  0 Multiplicity = 1
 C1
 O2                   C1   R1
 H3                   C1   R2       O2   A2
 H4                   C1   R3       O2   A3       H3   D3       0
 H5                   O2   R4       C1   A4       H3   D4       0
 C21                  C1   BB       O2   ANG1     H3   DH1      0
 C22                  C21  R21      C1   ANG2     O2   DH2      0
 H23                  C21  R22      C22  A22      C1   DH3      0
 H24                  C21  R23      C22  A23      H23  D23      0
 H25                  C22  R24      C21  A24      H23  D24      0
 H26                  C22  R25      C21  A25      H25  D25      0
 H27                  C22  R26      C21  A26      H25  D26      0
       Variables:
  R1                    1.382                    
  R2                    1.0845                   
  R3                    1.0903                   
  R4                    0.9567                   
  A2                  109.2431                   
  A3                  114.5015                   
  A4                  109.1834                   
  D3                  233.3977                   
  R21                   1.5061                   
  R22                   1.0877                   
  R23                   1.0861                   
  R24                   1.0929                   
  R25                   1.0911                   
  R26                   1.0907                   
  A22                 114.0339                   
  A23                 114.5449                   
  A24                 111.4628                   
  A25                 111.3741                   
  A26                 111.2776                   
  D23                 129.0671                   
  D25                 119.8384                   
  D26                 240.1736                   
  ANG2                108.952                    
  DH2                 181.4589                   
  DH3                 115.7136                   
  D4                  176.3932                   
  D24                 296.2034                   
  DH1                 115.0564                   
  ANG1                112.3661                   
       Constants:
  BB                    2.2                      
 

 GradGradGradGradGradGradGradGradGradGradGradGradGradGradGradGradGradGrad
 Berny optimization.
 Initialization pass.
                       ----------------------------
                       !    Initial Parameters    !
                       ! (Angstroms and Degrees)  !
 ----------------------                            ----------------------
 !      Name          Value   Derivative information (Atomic Units)     !
 ------------------------------------------------------------------------
 !       R1          1.382    estimate D2E/DX2                          !
 !       R2          1.0845   estimate D2E/DX2                          !
 !       R3          1.0903   estimate D2E/DX2                          !
 !       R4          0.9567   estimate D2E/DX2                          !
 !       A2        109.2431   estimate D2E/DX2                          !
 !       A3        114.5015   estimate D2E/DX2                          !
 !       A4        109.1834   estimate D2E/DX2                          !
 !       D3        233.3977   estimate D2E/DX2                          !
 !       R21         1.5061   estimate D2E/DX2                          !
 !       R22         1.0877   estimate D2E/DX2                          !
 !       R23         1.0861   estimate D2E/DX2                          !
 !       R24         1.0929   estimate D2E/DX2                          !
 !       R25         1.0911   estimate D2E/DX2                          !
 !       R26         1.0907   estimate D2E/DX2                          !
 !       A22       114.0339   estimate D2E/DX2                          !
 !       A23       114.5449   estimate D2E/DX2                          !
 !       A24       111.4628   estimate D2E/DX2                          !
 !       A25       111.3741   estimate D2E/DX2                          !
 !       A26       111.2776   estimate D2E/DX2                          !
 !       D23       129.0671   estimate D2E/DX2                          !
 !       D25       119.8384   estimate D2E/DX2                          !
 !       D26       240.1736   estimate D2E/DX2                          !
 !      ANG2       108.952    estimate D2E/DX2                          !
 !       DH2       181.4589   estimate D2E/DX2                          !
 !       DH3       115.7136   estimate D2E/DX2                          !
 !       D4        176.3932   estimate D2E/DX2                          !
 !       D24       296.2034   estimate D2E/DX2                          !
 !       DH1       115.0564   estimate D2E/DX2                          !
 !      ANG1       112.3661   estimate D2E/DX2                          !
 !       BB          2.2      Frozen                                    !
 ------------------------------------------------------------------------
 Trust Radius=3.00D-01 FncErr=1.00D-07 GrdErr=1.00D-06
 Number of steps in this run=     50 maximum allowed number of steps=    100.
 GradGradGradGradGradGradGradGradGradGradGradGradGradGradGradGradGradGrad

 ---------------------------------------------------------------------------------------------------
                            Z-MATRIX (ANGSTROMS AND DEGREES)
   CD    Cent   Atom    N1       Length/X        N2       Alpha/Y        N3        Beta/Z          J
 ---------------------------------------------------------------------------------------------------
      1      1  C 
      2      2  O        1   1.382000(     1)
      3      3  H        1   1.084500(     2)      2  109.243(    12)
      4      4  H        1   1.090300(     3)      2  114.501(    13)      3  233.398(    22)      0
      5      5  H        2   0.956700(     4)      1  109.183(    14)      3  176.393(    23)      0
      6      6  C        1   2.200000(     5)      2  112.366(    15)      3  115.056(    24)      0
      7      7  C        6   1.506100(     6)      1  108.952(    16)      2  181.459(    25)      0
      8      8  H        6   1.087700(     7)      7  114.034(    17)      1  115.714(    26)      0
      9      9  H        6   1.086100(     8)      7  114.545(    18)      8  129.067(    27)      0
     10     10  H        7   1.092900(     9)      6  111.463(    19)      8  296.203(    28)      0
     11     11  H        7   1.091100(    10)      6  111.374(    20)     10  119.838(    29)      0
     12     12  H        7   1.090700(    11)      6  111.278(    21)     10  240.174(    30)      0
 ---------------------------------------------------------------------------------------------------
                         Z-Matrix orientation:                         
 ---------------------------------------------------------------------
 Center     Atomic      Atomic             Coordinates (Angstroms)
 Number     Number       Type             X           Y           Z
 ---------------------------------------------------------------------
      1          6           0        0.000000    0.000000    0.000000
      2          8           0        0.000000    0.000000    1.382000
      3          1           0        1.023908    0.000000   -0.357426
      4          1           0       -0.591558    0.796467   -0.452166
      5          1           0       -0.901786    0.056843    1.696365
      6          6           0       -0.861630   -1.843033   -0.837151
      7          6           0       -0.790866   -1.777301   -2.340151
      8          1           0       -1.874743   -1.863811   -0.441850
      9          1           0       -0.258191   -2.628144   -0.390973
     10          1           0       -1.217494   -2.672217   -2.800090
     11          1           0       -1.342063   -0.918813   -2.727035
     12          1           0        0.240698   -1.694389   -2.684574
 ---------------------------------------------------------------------
                    Distance matrix (angstroms):
                    1          2          3          4          5
     1  C    0.000000
     2  O    1.382000   0.000000
     3  H    1.084500   2.018413   0.000000
     4  H    1.090300   2.085297   1.803625   0.000000
     5  H    1.922005   0.956700   2.815952   2.293353   0.000000
     6  C    2.200000   3.010616   2.679955   2.681065   3.166993
     7  C    3.043119   4.199843   3.222328   3.198201   4.435070
     8  H    2.680240   3.211679   3.447186   2.953599   3.034390
     9  H    2.669581   3.180761   2.924388   3.441343   3.461264
    10  H    4.057529   5.110079   4.258079   4.235128   5.269302
    11  H    3.175228   4.419222   3.472331   2.946264   4.551068
    12  H    3.183682   4.412019   2.983285   3.446833   4.854350
                    6          7          8          9         10
     6  C    0.000000
     7  C    1.506100   0.000000
     8  H    1.087700   2.187651   0.000000
     9  H    1.086100   2.192481   1.788863   0.000000
    10  H    2.160396   1.092900   2.578137   2.593463   0.000000
    11  H    2.157930   1.091100   2.529593   3.090919   1.759341
    12  H    2.156431   1.090700   3.087654   2.526143   1.759494
                   11         12
    11  H    0.000000
    12  H    1.763081   0.000000
 Symmetry turned off by external request.
 Stoichiometry    C3H8O
 Framework group  C1[X(C3H8O)]
 Deg. of freedom    30
 Full point group                 C1      NOp   1
 Rotational constants (GHZ):     20.9768095      2.9243988      2.7172270
 Standard basis: Jun-CC-pVTZ (5D, 7F)
   268 basis functions,   384 primitive gaussians,   300 cartesian basis functions
    17 alpha electrons       17 beta electrons
       nuclear repulsion energy       120.2853799832 Hartrees.
 NAtoms=   12 NActive=   12 NUniq=   12 SFac= 1.00D+00 NAtFMM=   60 NAOKFM=F Big=F
 Integral buffers will be    131072 words long.
 Raffenetti 2 integral format.
 Two-electron integral symmetry is turned off.
 Nuclear repulsion after empirical dispersion term =      120.2809148143 Hartrees.
 One-electron integrals computed using PRISM.
 NBasis=   268 RedAO= T EigKep=  1.08D-04  NBF=   268
 NBsUse=   268 1.00D-06 EigRej= -1.00D+00 NBFU=   268
 ExpMin= 3.57D-02 ExpMax= 1.53D+04 ExpMxC= 5.22D+02 IAcc=3 IRadAn=         5 AccDes= 0.00D+00
 Harris functional with IExCor= 4639 and IRadAn=       5 diagonalized for initial guess.
 HarFok:  IExCor= 4639 AccDes= 0.00D+00 IRadAn=         5 IDoV= 1 UseB2=F ITyADJ=14
 ICtDFT=  3500011 ScaDFX=  1.000000  1.000000  1.000000  1.000000
 FoFCou: FMM=F IPFlag=           0 FMFlag=      100000 FMFlg1=           0
         NFxFlg=           0 DoJE=T BraDBF=F KetDBF=T FulRan=T
         wScrn=  0.000000 ICntrl=     500 IOpCl=  0 I1Cent=   200000004 NGrid=           0
         NMat0=    1 NMatS0=      1 NMatT0=    0 NMatD0=    1 NMtDS0=    0 NMtDT0=    0
 Symmetry not used in FoFCou.
 Mixing orbitals, IMix= 1 IMixAn=  0 NRI=1 NE=   17 Coef=  7.07106781D-01  7.07106781D-01
 Mixing orbitals, IMix= 1 IMixAn=  0 NRI=1 NE=   17 Coef= -7.07106781D-01  7.07106781D-01
 Initial guess <Sx>= 0.0000 <Sy>= 0.0000 <Sz>= 0.0000 <S**2>= 1.0000 S= 0.6180
 Requested convergence on RMS density matrix=1.00D-08 within 128 cycles.
 Requested convergence on MAX density matrix=1.00D-06.
 Requested convergence on             energy=1.00D-06.
 No special actions if energy rises.
 SCF Done:  E(UwB97XD) =  -194.291842443     A.U. after   16 cycles
            NFock= 16  Conv=0.73D-08     -V/T= 2.0082
 <Sx>= 0.0000 <Sy>= 0.0000 <Sz>= 0.0000 <S**2>= 0.0000 S= 0.0000
 <L.S>=  0.00000000000    
 Annihilation of the first spin contaminant:
 S**2 before annihilation     0.0000,   after    -0.0000

 **********************************************************************

            Population analysis using the SCF density.

 **********************************************************************

 Alpha  occ. eigenvalues --  -19.27126 -10.35343 -10.29635 -10.27332  -1.14508
 Alpha  occ. eigenvalues --   -0.84650  -0.76178  -0.68984  -0.60442  -0.53532
 Alpha  occ. eigenvalues --   -0.51957  -0.49616  -0.47645  -0.45147  -0.42716
 Alpha  occ. eigenvalues --   -0.41642  -0.29716
 Alpha virt. eigenvalues --    0.05519   0.05927   0.06042   0.07616   0.08533
 Alpha virt. eigenvalues --    0.09085   0.10200   0.10500   0.11229   0.11795
 Alpha virt. eigenvalues --    0.14824   0.16430   0.17279   0.18581   0.20176
 Alpha virt. eigenvalues --    0.21082   0.22097   0.23739   0.24882   0.25607
 Alpha virt. eigenvalues --    0.25874   0.26751   0.28036   0.28922   0.30339
 Alpha virt. eigenvalues --    0.30565   0.31478   0.32079   0.33067   0.34226
 Alpha virt. eigenvalues --    0.34971   0.35342   0.36643   0.37926   0.41276
 Alpha virt. eigenvalues --    0.41919   0.45046   0.45710   0.45992   0.48149
 Alpha virt. eigenvalues --    0.50884   0.52371   0.55020   0.55666   0.58483
 Alpha virt. eigenvalues --    0.59607   0.60762   0.62625   0.64122   0.66348
 Alpha virt. eigenvalues --    0.66383   0.67140   0.70333   0.71108   0.71504
 Alpha virt. eigenvalues --    0.71865   0.73988   0.74889   0.76336   0.78161
 Alpha virt. eigenvalues --    0.79876   0.81162   0.83108   0.87117   0.88144
 Alpha virt. eigenvalues --    0.89268   0.90942   0.93094   0.95366   0.98311
 Alpha virt. eigenvalues --    0.99037   1.01298   1.02709   1.03651   1.07259
 Alpha virt. eigenvalues --    1.12531   1.13896   1.15849   1.17310   1.19942
 Alpha virt. eigenvalues --    1.21936   1.22775   1.24008   1.25006   1.26539
 Alpha virt. eigenvalues --    1.28250   1.29517   1.33662   1.36170   1.39136
 Alpha virt. eigenvalues --    1.39802   1.41453   1.41673   1.46397   1.49219
 Alpha virt. eigenvalues --    1.49393   1.51587   1.51892   1.53038   1.54612
 Alpha virt. eigenvalues --    1.55865   1.60239   1.62616   1.66677   1.67867
 Alpha virt. eigenvalues --    1.73524   1.74916   1.75888   1.83932   1.88441
 Alpha virt. eigenvalues --    2.04094   2.13388   2.15604   2.24621   2.25195
 Alpha virt. eigenvalues --    2.37660   2.51950   2.53591   2.54492   2.57697
 Alpha virt. eigenvalues --    2.59274   2.60990   2.65459   2.66544   2.69697
 Alpha virt. eigenvalues --    2.73568   2.75011   2.77142   2.85208   2.87789
 Alpha virt. eigenvalues --    2.88916   2.93769   2.95057   2.96133   2.97946
 Alpha virt. eigenvalues --    3.01093   3.04122   3.04931   3.07416   3.11305
 Alpha virt. eigenvalues --    3.12311   3.13115   3.13310   3.16042   3.17052
 Alpha virt. eigenvalues --    3.18065   3.20975   3.22175   3.24982   3.28570
 Alpha virt. eigenvalues --    3.28926   3.30438   3.35151   3.36429   3.40406
 Alpha virt. eigenvalues --    3.42213   3.43666   3.45783   3.47573   3.50745
 Alpha virt. eigenvalues --    3.51227   3.54181   3.58138   3.60895   3.63950
 Alpha virt. eigenvalues --    3.67056   3.67814   3.69852   3.74464   3.77296
 Alpha virt. eigenvalues --    3.80581   3.81383   3.84976   3.86099   3.90006
 Alpha virt. eigenvalues --    3.96320   3.97658   3.99519   4.00904   4.02893
 Alpha virt. eigenvalues --    4.04327   4.04714   4.06150   4.07692   4.09861
 Alpha virt. eigenvalues --    4.12365   4.13906   4.17532   4.20904   4.21423
 Alpha virt. eigenvalues --    4.24441   4.24705   4.29629   4.31841   4.33478
 Alpha virt. eigenvalues --    4.34603   4.39345   4.41301   4.42279   4.45545
 Alpha virt. eigenvalues --    4.50737   4.52687   4.59067   4.64254   4.69907
 Alpha virt. eigenvalues --    4.75958   4.82989   4.85284   4.92613   4.94526
 Alpha virt. eigenvalues --    4.94936   4.97782   4.98555   5.01113   5.04005
 Alpha virt. eigenvalues --    5.08539   5.08650   5.16611   5.20925   5.21973
 Alpha virt. eigenvalues --    5.23605   5.32366   5.35392   5.39437   5.44470
 Alpha virt. eigenvalues --    5.46761   5.48983   5.49905   5.58814   5.63279
 Alpha virt. eigenvalues --    5.68137   5.71373   5.95611   6.07464   6.09913
 Alpha virt. eigenvalues --    6.15855   6.17693   6.20968   6.54103   6.67367
 Alpha virt. eigenvalues --    6.78946   6.83250   6.89141   6.99418   7.13355
 Alpha virt. eigenvalues --    7.37034   7.65375  12.60949  12.85121  13.05624
 Alpha virt. eigenvalues --   13.79569
  Beta  occ. eigenvalues --  -19.27126 -10.35343 -10.29635 -10.27332  -1.14508
  Beta  occ. eigenvalues --   -0.84650  -0.76178  -0.68984  -0.60442  -0.53532
  Beta  occ. eigenvalues --   -0.51957  -0.49616  -0.47645  -0.45147  -0.42716
  Beta  occ. eigenvalues --   -0.41642  -0.29716
  Beta virt. eigenvalues --    0.05519   0.05927   0.06042   0.07616   0.08533
  Beta virt. eigenvalues --    0.09085   0.10200   0.10500   0.11229   0.11795
  Beta virt. eigenvalues --    0.14824   0.16430   0.17279   0.18581   0.20176
  Beta virt. eigenvalues --    0.21082   0.22097   0.23739   0.24882   0.25607
  Beta virt. eigenvalues --    0.25874   0.26751   0.28036   0.28922   0.30339
  Beta virt. eigenvalues --    0.30565   0.31478   0.32079   0.33067   0.34226
  Beta virt. eigenvalues --    0.34971   0.35342   0.36643   0.37926   0.41276
  Beta virt. eigenvalues --    0.41919   0.45046   0.45710   0.45992   0.48149
  Beta virt. eigenvalues --    0.50884   0.52371   0.55020   0.55666   0.58483
  Beta virt. eigenvalues --    0.59607   0.60762   0.62625   0.64122   0.66348
  Beta virt. eigenvalues --    0.66383   0.67140   0.70333   0.71108   0.71504
  Beta virt. eigenvalues --    0.71865   0.73988   0.74889   0.76336   0.78161
  Beta virt. eigenvalues --    0.79876   0.81162   0.83108   0.87117   0.88144
  Beta virt. eigenvalues --    0.89268   0.90942   0.93094   0.95366   0.98311
  Beta virt. eigenvalues --    0.99037   1.01298   1.02709   1.03651   1.07259
  Beta virt. eigenvalues --    1.12531   1.13896   1.15849   1.17310   1.19942
  Beta virt. eigenvalues --    1.21936   1.22775   1.24008   1.25006   1.26539
  Beta virt. eigenvalues --    1.28250   1.29517   1.33662   1.36170   1.39136
  Beta virt. eigenvalues --    1.39802   1.41453   1.41673   1.46397   1.49219
  Beta virt. eigenvalues --    1.49393   1.51587   1.51892   1.53038   1.54612
  Beta virt. eigenvalues --    1.55865   1.60239   1.62616   1.66677   1.67867
  Beta virt. eigenvalues --    1.73524   1.74916   1.75888   1.83932   1.88441
  Beta virt. eigenvalues --    2.04094   2.13388   2.15604   2.24621   2.25195
  Beta virt. eigenvalues --    2.37660   2.51950   2.53591   2.54492   2.57697
  Beta virt. eigenvalues --    2.59274   2.60990   2.65459   2.66544   2.69697
  Beta virt. eigenvalues --    2.73568   2.75011   2.77142   2.85208   2.87789
  Beta virt. eigenvalues --    2.88916   2.93769   2.95057   2.96133   2.97946
  Beta virt. eigenvalues --    3.01093   3.04122   3.04931   3.07416   3.11305
  Beta virt. eigenvalues --    3.12311   3.13115   3.13310   3.16042   3.17052
  Beta virt. eigenvalues --    3.18065   3.20975   3.22175   3.24982   3.28570
  Beta virt. eigenvalues --    3.28926   3.30438   3.35151   3.36429   3.40406
  Beta virt. eigenvalues --    3.42213   3.43666   3.45783   3.47573   3.50745
  Beta virt. eigenvalues --    3.51227   3.54181   3.58138   3.60895   3.63950
  Beta virt. eigenvalues --    3.67056   3.67814   3.69852   3.74464   3.77296
  Beta virt. eigenvalues --    3.80581   3.81383   3.84976   3.86099   3.90006
  Beta virt. eigenvalues --    3.96320   3.97658   3.99519   4.00904   4.02893
  Beta virt. eigenvalues --    4.04327   4.04714   4.06150   4.07692   4.09861
  Beta virt. eigenvalues --    4.12365   4.13906   4.17532   4.20904   4.21423
  Beta virt. eigenvalues --    4.24441   4.24705   4.29629   4.31841   4.33478
  Beta virt. eigenvalues --    4.34603   4.39345   4.41301   4.42279   4.45545
  Beta virt. eigenvalues --    4.50737   4.52687   4.59067   4.64254   4.69907
  Beta virt. eigenvalues --    4.75958   4.82989   4.85284   4.92613   4.94526
  Beta virt. eigenvalues --    4.94936   4.97782   4.98555   5.01113   5.04005
  Beta virt. eigenvalues --    5.08539   5.08650   5.16611   5.20925   5.21973
  Beta virt. eigenvalues --    5.23605   5.32366   5.35392   5.39437   5.44470
  Beta virt. eigenvalues --    5.46761   5.48983   5.49905   5.58814   5.63279
  Beta virt. eigenvalues --    5.68137   5.71373   5.95611   6.07464   6.09913
  Beta virt. eigenvalues --    6.15855   6.17693   6.20968   6.54103   6.67367
  Beta virt. eigenvalues --    6.78946   6.83250   6.89141   6.99418   7.13355
  Beta virt. eigenvalues --    7.37034   7.65375  12.60949  12.85121  13.05624
  Beta virt. eigenvalues --   13.79569
          Condensed to atoms (all electrons):
               1          2          3          4          5          6
     1  C    4.911908   0.157325   0.419729   0.412358   0.012518   0.327397
     2  O    0.157325   8.047376  -0.054143  -0.038482   0.201211  -0.017174
     3  H    0.419729  -0.054143   0.499131  -0.021117   0.007563  -0.017197
     4  H    0.412358  -0.038482  -0.021117   0.498734  -0.008569  -0.017462
     5  H    0.012518   0.201211   0.007563  -0.008569   0.625393  -0.009254
     6  C    0.327397  -0.017174  -0.017197  -0.017462  -0.009254   5.166830
     7  C   -0.031666   0.001152   0.004799   0.003465   0.001607   0.264368
     8  H   -0.010600   0.001012   0.001108  -0.000355   0.000486   0.408081
     9  H   -0.009956   0.002705  -0.000021   0.001187   0.000950   0.421524
    10  H    0.007237  -0.000348  -0.000195  -0.000209  -0.000032  -0.040105
    11  H   -0.005480  -0.000097   0.000527   0.000500   0.000046  -0.025428
    12  H   -0.004871   0.000085   0.000310   0.000427   0.000006  -0.028640
               7          8          9         10         11         12
     1  C   -0.031666  -0.010600  -0.009956   0.007237  -0.005480  -0.004871
     2  O    0.001152   0.001012   0.002705  -0.000348  -0.000097   0.000085
     3  H    0.004799   0.001108  -0.000021  -0.000195   0.000527   0.000310
     4  H    0.003465  -0.000355   0.001187  -0.000209   0.000500   0.000427
     5  H    0.001607   0.000486   0.000950  -0.000032   0.000046   0.000006
     6  C    0.264368   0.408081   0.421524  -0.040105  -0.025428  -0.028640
     7  C    5.011933  -0.024090  -0.029404   0.403729   0.411007   0.413458
     8  H   -0.024090   0.472381  -0.020181  -0.005506  -0.004070   0.004151
     9  H   -0.029404  -0.020181   0.462341  -0.004444   0.003687  -0.004472
    10  H    0.403729  -0.005506  -0.004444   0.494662  -0.015729  -0.016059
    11  H    0.411007  -0.004070   0.003687  -0.015729   0.494156  -0.019189
    12  H    0.413458   0.004151  -0.004472  -0.016059  -0.019189   0.492814
          Atomic-Atomic Spin Densities.
               1          2          3          4          5          6
     1  C   -0.000001   0.000000   0.000000   0.000000  -0.000000  -0.000000
     2  O    0.000000  -0.000000   0.000000  -0.000000   0.000000   0.000000
     3  H    0.000000   0.000000   0.000000  -0.000000  -0.000000   0.000000
     4  H    0.000000  -0.000000  -0.000000   0.000000   0.000000  -0.000000
     5  H   -0.000000   0.000000  -0.000000   0.000000  -0.000000   0.000000
     6  C   -0.000000   0.000000   0.000000  -0.000000   0.000000  -0.000000
     7  C    0.000000  -0.000000  -0.000000   0.000000  -0.000000  -0.000000
     8  H    0.000000  -0.000000  -0.000000   0.000000   0.000000   0.000000
     9  H    0.000000  -0.000000  -0.000000   0.000000  -0.000000   0.000000
    10  H   -0.000000   0.000000   0.000000  -0.000000   0.000000  -0.000000
    11  H    0.000000  -0.000000   0.000000  -0.000000   0.000000   0.000000
    12  H    0.000000  -0.000000  -0.000000  -0.000000   0.000000   0.000000
               7          8          9         10         11         12
     1  C    0.000000   0.000000   0.000000  -0.000000   0.000000   0.000000
     2  O   -0.000000  -0.000000  -0.000000   0.000000  -0.000000  -0.000000
     3  H   -0.000000  -0.000000  -0.000000   0.000000   0.000000  -0.000000
     4  H    0.000000   0.000000   0.000000  -0.000000  -0.000000  -0.000000
     5  H   -0.000000   0.000000  -0.000000   0.000000   0.000000   0.000000
     6  C   -0.000000   0.000000   0.000000  -0.000000   0.000000   0.000000
     7  C    0.000000  -0.000000  -0.000000   0.000000  -0.000000  -0.000000
     8  H   -0.000000   0.000000  -0.000000  -0.000000  -0.000000   0.000000
     9  H   -0.000000  -0.000000   0.000000   0.000000   0.000000  -0.000000
    10  H    0.000000  -0.000000   0.000000  -0.000000   0.000000   0.000000
    11  H   -0.000000  -0.000000   0.000000   0.000000   0.000000  -0.000000
    12  H   -0.000000   0.000000  -0.000000   0.000000  -0.000000   0.000000
 Mulliken charges and spin densities:
               1          2
     1  C   -0.185899  -0.000000
     2  O   -0.300622   0.000000
     3  H    0.159507   0.000000
     4  H    0.169523   0.000000
     5  H    0.168073  -0.000000
     6  C   -0.432941  -0.000000
     7  C   -0.430357   0.000000
     8  H    0.177583   0.000000
     9  H    0.176083   0.000000
    10  H    0.176999  -0.000000
    11  H    0.160070   0.000000
    12  H    0.161982   0.000000
 Sum of Mulliken charges =  -0.00000   0.00000
 Mulliken charges and spin densities with hydrogens summed into heavy atoms:
               1          2
     1  C    0.143131  -0.000000
     2  O   -0.132550   0.000000
     6  C   -0.079275   0.000000
     7  C    0.068694   0.000000
 Electronic spatial extent (au):  <R**2>=            619.2629
 Charge=             -0.0000 electrons
 Dipole moment (field-independent basis, Debye):
    X=             -1.2400    Y=              0.2984    Z=             -0.5304  Tot=              1.3813
 Quadrupole moment (field-independent basis, Debye-Ang):
   XX=            -24.7488   YY=            -26.9682   ZZ=            -27.4285
   XY=             -0.4503   XZ=             -2.9713   YZ=              0.2847
 Traceless Quadrupole moment (field-independent basis, Debye-Ang):
   XX=              1.6330   YY=             -0.5864   ZZ=             -1.0467
   XY=             -0.4503   XZ=             -2.9713   YZ=              0.2847
 Octapole moment (field-independent basis, Debye-Ang**2):
  XXX=             35.3719  YYY=             75.7432  ZZZ=             48.9599  XYY=             11.9520
  XXY=             25.6992  XXZ=             17.6951  XZZ=              6.7858  YZZ=             26.0584
  YYZ=             13.9683  XYZ=             -0.2757
 Hexadecapole moment (field-independent basis, Debye-Ang**3):
 XXXX=           -106.6684 YYYY=           -330.9206 ZZZZ=           -406.4994 XXXY=            -64.8326
 XXXZ=            -58.7986 YYYX=            -65.9005 YYYZ=           -123.3326 ZZZX=            -65.5733
 ZZZY=           -127.1705 XXYY=            -73.8023 XXZZ=            -79.6163 YYZZ=           -122.3959
 XXYZ=            -41.5241 YYXZ=            -16.1255 ZZXY=            -21.9954
 N-N= 1.202809148143D+02 E-N=-6.933218688493D+02  KE= 1.927102636444D+02
                          Isotropic Fermi Contact Couplings
        Atom                 a.u.       MegaHertz       Gauss      10(-4) cm-1
     1  C(13)             -0.00000      -0.00001      -0.00000      -0.00000
     2  O(17)             -0.00000       0.00006       0.00002       0.00002
     3  H(1)               0.00000       0.00006       0.00002       0.00002
     4  H(1)               0.00000       0.00001       0.00000       0.00000
     5  H(1)              -0.00000      -0.00016      -0.00006      -0.00005
     6  C(13)             -0.00000      -0.00003      -0.00001      -0.00001
     7  C(13)             -0.00000      -0.00002      -0.00001      -0.00001
     8  H(1)               0.00000       0.00012       0.00004       0.00004
     9  H(1)               0.00000       0.00014       0.00005       0.00005
    10  H(1)              -0.00000      -0.00014      -0.00005      -0.00005
    11  H(1)               0.00000       0.00005       0.00002       0.00002
    12  H(1)               0.00000       0.00005       0.00002       0.00002
 --------------------------------------------------------
       Center         ----  Spin Dipole Couplings  ----
                      3XX-RR        3YY-RR        3ZZ-RR
 --------------------------------------------------------
     1   Atom        0.000000     -0.000000      0.000000
     2   Atom        0.000001     -0.000001     -0.000000
     3   Atom       -0.000000      0.000000      0.000000
     4   Atom       -0.000000      0.000000      0.000000
     5   Atom        0.000000     -0.000000     -0.000000
     6   Atom       -0.000000      0.000000      0.000000
     7   Atom       -0.000000      0.000000      0.000000
     8   Atom       -0.000000      0.000000      0.000000
     9   Atom       -0.000000      0.000000      0.000000
    10   Atom       -0.000000     -0.000000      0.000000
    11   Atom        0.000000     -0.000000      0.000000
    12   Atom       -0.000000      0.000000      0.000000
 --------------------------------------------------------
                        XY            XZ            YZ
 --------------------------------------------------------
     1   Atom       -0.000000     -0.000000     -0.000000
     2   Atom        0.000000      0.000000      0.000000
     3   Atom        0.000000      0.000000     -0.000000
     4   Atom        0.000000     -0.000000      0.000000
     5   Atom       -0.000000     -0.000000      0.000000
     6   Atom        0.000000      0.000000      0.000000
     7   Atom        0.000000      0.000000      0.000000
     8   Atom        0.000000      0.000000     -0.000000
     9   Atom        0.000000     -0.000000      0.000000
    10   Atom       -0.000000     -0.000000      0.000000
    11   Atom        0.000000      0.000000      0.000000
    12   Atom       -0.000000      0.000000      0.000000
 --------------------------------------------------------


 ---------------------------------------------------------------------------------
              Anisotropic Spin Dipole Couplings in Principal Axis System
 ---------------------------------------------------------------------------------

       Atom             a.u.   MegaHertz   Gauss  10(-4) cm-1        Axes

              Baa    -0.0000    -0.000    -0.000    -0.000  0.0146  0.9987  0.0484
     1 C(13)  Bbb     0.0000     0.000     0.000     0.000  0.0326 -0.0488  0.9983
              Bcc     0.0000     0.000     0.000     0.000  0.9994 -0.0130 -0.0333
 
              Baa    -0.0000     0.000     0.000     0.000 -0.0242  0.9378 -0.3463
     2 O(17)  Bbb    -0.0000     0.000     0.000     0.000 -0.0631  0.3443  0.9367
              Bcc     0.0000    -0.000    -0.000    -0.000  0.9977  0.0445  0.0508
 
              Baa    -0.0000    -0.000    -0.000    -0.000  0.9177 -0.1351 -0.3736
     3 H(1)   Bbb     0.0000     0.000     0.000     0.000  0.2040  0.9672  0.1514
              Bcc     0.0000     0.000     0.000     0.000  0.3408 -0.2152  0.9152
 
              Baa    -0.0000    -0.000    -0.000    -0.000  0.8189 -0.3944  0.4170
     4 H(1)   Bbb     0.0000     0.000     0.000     0.000 -0.0524  0.6722  0.7385
              Bcc     0.0000     0.000     0.000     0.000  0.5716  0.6266 -0.5298
 
              Baa    -0.0000    -0.000    -0.000    -0.000  0.3051 -0.6290  0.7150
     5 H(1)   Bbb    -0.0000    -0.000    -0.000    -0.000  0.3359  0.7736  0.5373
              Bcc     0.0000     0.000     0.000     0.000  0.8911 -0.0763 -0.4474
 
              Baa    -0.0000    -0.000    -0.000    -0.000  0.9446 -0.3278  0.0169
     6 C(13)  Bbb    -0.0000    -0.000    -0.000    -0.000 -0.2275 -0.6167  0.7536
              Bcc     0.0000     0.000     0.000     0.000  0.2366  0.7157  0.6571
 
              Baa    -0.0000    -0.000    -0.000    -0.000  0.8803 -0.4744  0.0009
     7 C(13)  Bbb     0.0000     0.000     0.000     0.000 -0.2348 -0.4343  0.8696
              Bcc     0.0000     0.000     0.000     0.000  0.4121  0.7658  0.4937
 
              Baa    -0.0000    -0.000    -0.000    -0.000  0.8124 -0.2133 -0.5427
     8 H(1)   Bbb     0.0000     0.000     0.000     0.000  0.3067 -0.6353  0.7088
              Bcc     0.0000     0.000     0.000     0.000  0.4959  0.7423  0.4507
 
              Baa    -0.0000    -0.000    -0.000    -0.000  0.6298 -0.5376  0.5606
     9 H(1)   Bbb     0.0000     0.000     0.000     0.000  0.7503  0.2345 -0.6181
              Bcc     0.0000     0.000     0.000     0.000  0.2008  0.8099  0.5511
 
              Baa    -0.0000    -0.000    -0.000    -0.000  0.6158  0.7862 -0.0518
    10 H(1)   Bbb    -0.0000    -0.000    -0.000    -0.000  0.7873 -0.6114  0.0793
              Bcc     0.0000     0.000     0.000     0.000 -0.0307  0.0896  0.9955
 
              Baa    -0.0000    -0.000    -0.000    -0.000 -0.3752  0.8934 -0.2473
    11 H(1)   Bbb     0.0000     0.000     0.000     0.000 -0.6453 -0.0602  0.7616
              Bcc     0.0000     0.000     0.000     0.000  0.6655  0.4453  0.5990
 
              Baa    -0.0000    -0.000    -0.000    -0.000  0.9486  0.2611 -0.1788
    12 H(1)   Bbb     0.0000     0.000     0.000     0.000  0.2977 -0.5447  0.7840
              Bcc     0.0000     0.000     0.000     0.000 -0.1073  0.7970  0.5944
 

 ---------------------------------------------------------------------------------

 DipInt: DoE/N= T T RetVal/Mat= T F Init=T NMatP=  1 IDeriv=0 Min/MaxMlt=  1  1
 Entering OneElI...
 Multipole integrals L=1 to 1 MinM= 0 MaxM= 0.
 Requested accuracy = 0.1000D-12
 PrsmSu:  NPrtUS=   1 ThrOK=F IAlg=1 NPAlg=1 LenDen=           0.
 Prism:   IPart=     0 DynPar=F LinDyn=F Incr=          49.
 PRISM was handed   419015648 working-precision words and  4947 shell-pairs
 IPart=  0 NShTot=        4947 NBatch=          64 AvBLen=        77.3
 PrSmSu:  NxtVal=             50.
 Entering OneElI...
 Calculate overlap and kinetic energy integrals
    NBasis = 300  MinDer = 1  MaxDer = 1
 Requested accuracy = 0.1000D-12
 PrsmSu:  NPrtUS=  32 ThrOK=T IAlg=1 NPAlg=1 LenDen=           0.
 PRISM was handed    12993900 working-precision words and  5025 shell-pairs
 PRISM was handed    12993900 working-precision words and  5025 shell-pairs
 PRISM was handed    12993900 working-precision words and  5025 shell-pairs
 Prism:   IPart=     0 DynPar=F LinDyn=F Incr=           1.
 PRISM was handed    12993900 working-precision words and  5025 shell-pairs
 PRISM was handed    12993900 working-precision words and  5025 shell-pairs
 PRISM was handed    12993900 working-precision words and  5025 shell-pairs
 PRISM was handed    12993900 working-precision words and  5025 shell-pairs
 PRISM was handed    12993900 working-precision words and  5025 shell-pairs
 PRISM was handed    12993900 working-precision words and  5025 shell-pairs
 PRISM was handed    12993900 working-precision words and  5025 shell-pairs
 PRISM was handed    12993900 working-precision words and  5025 shell-pairs
 PRISM was handed    12993900 working-precision words and  5025 shell-pairs
 PRISM was handed    12993900 working-precision words and  5025 shell-pairs
 PRISM was handed    12993900 working-precision words and  5025 shell-pairs
 PRISM was handed    12993900 working-precision words and  5025 shell-pairs
 PRISM was handed    12993900 working-precision words and  5025 shell-pairs
 IPart= 28 NShTot=         141 NBatch=          21 AvBLen=         6.7
 IPart=  8 NShTot=         165 NBatch=          29 AvBLen=         5.7
 IPart= 15 NShTot=         154 NBatch=          22 AvBLen=         7.0
 IPart= 14 NShTot=         157 NBatch=          25 AvBLen=         6.3
 IPart=  3 NShTot=         183 NBatch=          46 AvBLen=         4.0
 PRISM was handed    12993900 working-precision words and  5025 shell-pairs
 PRISM was handed    12993900 working-precision words and  5025 shell-pairs
 PRISM was handed    12993900 working-precision words and  5025 shell-pairs
 PRISM was handed    12993900 working-precision words and  5025 shell-pairs
 PRISM was handed    12993900 working-precision words and  5025 shell-pairs
 IPart=  9 NShTot=         164 NBatch=          29 AvBLen=         5.7
 PRISM was handed    12993900 working-precision words and  5025 shell-pairs
 PRISM was handed    12993900 working-precision words and  5025 shell-pairs
 PRISM was handed    12993900 working-precision words and  5025 shell-pairs
 PRISM was handed    12993900 working-precision words and  5025 shell-pairs
 PRISM was handed    12993900 working-precision words and  5025 shell-pairs
 PRISM was handed    12993900 working-precision words and  5025 shell-pairs
 PRISM was handed    12993900 working-precision words and  5025 shell-pairs
 PRISM was handed    12993900 working-precision words and  5025 shell-pairs
 PRISM was handed    12993900 working-precision words and  5025 shell-pairs
 PRISM was handed    12993900 working-precision words and  5025 shell-pairs
 PRISM was handed    12993900 working-precision words and  5025 shell-pairs
 IPart= 13 NShTot=         158 NBatch=          26 AvBLen=         6.1
 IPart= 22 NShTot=         144 NBatch=          21 AvBLen=         6.9
 IPart=  5 NShTot=         173 NBatch=          36 AvBLen=         4.8
 IPart= 29 NShTot=         140 NBatch=          20 AvBLen=         7.0
 IPart=  1 NShTot=         192 NBatch=          54 AvBLen=         3.6
 IPart=  0 NShTot=         202 NBatch=          64 AvBLen=         3.2
 IPart= 18 NShTot=         147 NBatch=          21 AvBLen=         7.0
 IPart= 19 NShTot=         147 NBatch=          21 AvBLen=         7.0
 IPart= 30 NShTot=         139 NBatch=          20 AvBLen=         7.0
 IPart= 12 NShTot=         159 NBatch=          27 AvBLen=         5.9
 IPart=  4 NShTot=         174 NBatch=          37 AvBLen=         4.7
 IPart=  2 NShTot=         185 NBatch=          48 AvBLen=         3.9
 IPart= 10 NShTot=         161 NBatch=          27 AvBLen=         6.0
 IPart=  7 NShTot=         168 NBatch=          32 AvBLen=         5.3
 IPart= 24 NShTot=         143 NBatch=          21 AvBLen=         6.8
 IPart= 16 NShTot=         150 NBatch=          22 AvBLen=         6.8
 IPart=  6 NShTot=         172 NBatch=          35 AvBLen=         4.9
 IPart= 27 NShTot=         141 NBatch=          21 AvBLen=         6.7
 IPart= 11 NShTot=         159 NBatch=          27 AvBLen=         5.9
 IPart= 20 NShTot=         145 NBatch=          21 AvBLen=         6.9
 IPart= 25 NShTot=         143 NBatch=          21 AvBLen=         6.8
 IPart= 17 NShTot=         149 NBatch=          22 AvBLen=         6.8
 IPart= 31 NShTot=         139 NBatch=          20 AvBLen=         7.0
 IPart= 21 NShTot=         145 NBatch=          21 AvBLen=         6.9
 IPart= 23 NShTot=         144 NBatch=          21 AvBLen=         6.9
 IPart= 26 NShTot=         142 NBatch=          21 AvBLen=         6.8
 PrSmSu:  NxtVal=             33.
 Entering OneElI...
 Calculate potential energy integrals
    NBasis = 300  MinDer = 1  MaxDer = 1
 Requested accuracy = 0.1000D-12
 PrsmSu:  NPrtUS=  32 ThrOK=T IAlg=1 NPAlg=1 LenDen=           0.
 Prism:   IPart=     0 DynPar=F LinDyn=F Incr=          18.
 PRISM was handed    13008370 working-precision words and  4829 shell-pairs
 PRISM was handed    13008370 working-precision words and  4829 shell-pairs
 PRISM was handed    13008370 working-precision words and  4829 shell-pairs
 PRISM was handed    13008370 working-precision words and  4829 shell-pairs
 PRISM was handed    13008370 working-precision words and  4829 shell-pairs
 PRISM was handed    13008370 working-precision words and  4829 shell-pairs
 PRISM was handed    13008370 working-precision words and  4829 shell-pairs
 PRISM was handed    13008370 working-precision words and  4829 shell-pairs
 PRISM was handed    13008370 working-precision words and  4829 shell-pairs
 PRISM was handed    13008370 working-precision words and  4829 shell-pairs
 PRISM was handed    13008370 working-precision words and  4829 shell-pairs
 PRISM was handed    13008370 working-precision words and  4829 shell-pairs
 PRISM was handed    13008370 working-precision words and  4829 shell-pairs
 PRISM was handed    13008370 working-precision words and  4829 shell-pairs
 PRISM was handed    13008370 working-precision words and  4829 shell-pairs
 PRISM was handed    13008370 working-precision words and  4829 shell-pairs
 PRISM was handed    13008370 working-precision words and  4829 shell-pairs
 PRISM was handed    13008370 working-precision words and  4829 shell-pairs
 PRISM was handed    13008370 working-precision words and  4829 shell-pairs
 PRISM was handed    13008370 working-precision words and  4829 shell-pairs
 PRISM was handed    13008370 working-precision words and  4829 shell-pairs
 PRISM was handed    13008370 working-precision words and  4829 shell-pairs
 PRISM was handed    13008370 working-precision words and  4829 shell-pairs
 PRISM was handed    13008370 working-precision words and  4829 shell-pairs
 PRISM was handed    13008370 working-precision words and  4829 shell-pairs
 PRISM was handed    13008370 working-precision words and  4829 shell-pairs
 PRISM was handed    13008370 working-precision words and  4829 shell-pairs
 PRISM was handed    13008370 working-precision words and  4829 shell-pairs
 PRISM was handed    13008370 working-precision words and  4829 shell-pairs
 PRISM was handed    13008370 working-precision words and  4829 shell-pairs
 PRISM was handed    13008370 working-precision words and  4829 shell-pairs
 PRISM was handed    13008370 working-precision words and  4829 shell-pairs
 IPart= 15 NShTot=        1728 NBatch=         144 AvBLen=        12.0
 IPart= 17 NShTot=        1728 NBatch=         144 AvBLen=        12.0
 IPart= 29 NShTot=        1596 NBatch=         133 AvBLen=        12.0
 IPart= 20 NShTot=        1704 NBatch=         142 AvBLen=        12.0
 IPart= 22 NShTot=        1704 NBatch=         142 AvBLen=        12.0
 IPart= 23 NShTot=        1692 NBatch=         141 AvBLen=        12.0
 IPart= 25 NShTot=        1668 NBatch=         139 AvBLen=        12.0
 IPart=  1 NShTot=        2148 NBatch=         179 AvBLen=        12.0
 IPart= 14 NShTot=        1764 NBatch=         147 AvBLen=        12.0
 IPart=  3 NShTot=        2112 NBatch=         176 AvBLen=        12.0
 IPart= 16 NShTot=        1728 NBatch=         144 AvBLen=        12.0
 IPart= 27 NShTot=        1620 NBatch=         135 AvBLen=        12.0
 IPart= 10 NShTot=        1872 NBatch=         156 AvBLen=        12.0
 IPart= 26 NShTot=        1632 NBatch=         136 AvBLen=        12.0
 IPart=  0 NShTot=        2268 NBatch=         189 AvBLen=        12.0
 IPart= 12 NShTot=        1836 NBatch=         153 AvBLen=        12.0
 IPart= 11 NShTot=        1848 NBatch=         154 AvBLen=        12.0
 IPart= 13 NShTot=        1788 NBatch=         149 AvBLen=        12.0
 IPart= 19 NShTot=        1728 NBatch=         144 AvBLen=        12.0
 IPart= 28 NShTot=        1620 NBatch=         135 AvBLen=        12.0
 IPart=  9 NShTot=        1896 NBatch=         158 AvBLen=        12.0
 IPart=  8 NShTot=        1944 NBatch=         162 AvBLen=        12.0
 IPart= 18 NShTot=        1728 NBatch=         144 AvBLen=        12.0
 IPart=  7 NShTot=        1968 NBatch=         164 AvBLen=        12.0
 IPart= 30 NShTot=        1572 NBatch=         131 AvBLen=        12.0
 IPart= 31 NShTot=        1560 NBatch=         130 AvBLen=        12.0
 IPart=  5 NShTot=        1992 NBatch=         166 AvBLen=        12.0
 IPart=  2 NShTot=        2124 NBatch=         177 AvBLen=        12.0
 IPart= 24 NShTot=        1692 NBatch=         141 AvBLen=        12.0
 IPart=  4 NShTot=        2016 NBatch=         168 AvBLen=        12.0
 IPart= 21 NShTot=        1704 NBatch=         142 AvBLen=        12.0
 IPart=  6 NShTot=        1968 NBatch=         164 AvBLen=        12.0
 PrSmSu:  NxtVal=            577.
 l701 out
 I=    0 X=  -4.878382118287D-01 Y=   1.174131367036D-01 Z=  -2.086689873755D-01
 I=    1 X=   1.259658535507D+00 Y=   2.029982306807D+00 Z=  -2.994198983673D+00
 I=    2 X=   3.297436726174D+00 Y=   1.236220073138D+00 Z=   8.873909485601D+00
 I=    3 X=   3.509837549201D+00 Y=   3.074206233278D-01 Z=  -1.255428347321D+00
 I=    4 X=  -1.662493545121D+00 Y=   2.994043349774D+00 Z=  -1.488591584053D+00
 I=    5 X=  -3.143237843260D+00 Y=   4.923205649569D-01 Z=   2.561532487776D+00
 I=    6 X=  -1.320369921986D+00 Y=  -2.274734070914D+00 Z=  -8.188472629104D-02
 I=    7 X=  -4.558529566603D-01 Y=  -1.260582401012D+00 Z=  -3.700820235766D+00
 I=    8 X=  -3.392270231550D+00 Y=  -5.007834644298D-01 Z=   1.335881362882D+00
 I=    9 X=   1.761507477176D+00 Y=  -3.028481262810D+00 Z=   1.442270511251D+00
 I=   10 X=  -1.218829492790D+00 Y=  -2.586298566834D+00 Z=  -1.622591194782D+00
 I=   11 X=  -1.631426171497D+00 Y=   2.430296788345D+00 Z=  -1.603406026137D+00
 I=   12 X=   2.996039874806D+00 Y=   1.605960596504D-01 Z=  -1.466672749487D+00
 ICntrl=      2127.
 Calling FoFJK, ICntrl=      2127 FMM=F ISym2X=0 I1Cent= 0 IOpClX= 1 NMat=1 NMatS=1 NMatT=0.
 FoFJK:  IHMeth= 1 ICntrl=    2127 DoSepK=T KAlg= 0 I1Cent=   0 FoldK=F
 IRaf=         1 NMat=   1 IRICut=       1 DoRegI=T DoRafI=F ISym2E= 0.
 FoFCou: FMM=F IPFlag=           0 FMFlag=      100000 FMFlg1=         800
         NFxFlg=           0 DoJE=F BraDBF=F KetDBF=F FulRan=T
         wScrn=  0.000000 ICntrl=    2527 IOpCl=  0 I1Cent=           0 NGrid=           0
         NMat0=    1 NMatS0=      1 NMatT0=    0 NMatD0=    1 NMtDS0=    0 NMtDT0=    0
 Symmetry not used in FoFCou.
 FoFCou:  KetSym=F NOpSet=  1 NOpAb=1 NOp=  1.
 FoFCou:  CnvScl= 1.00D+00 Thresh= 1.00D-10 IAcrcy=      10.
 PrismS was handed   418922385 working-precision words and  4911 shell-pairs
 FoFCou: LinMIO=F DoNuc=F BraDBF=F KetDBF=F HaveP=T PDBF=F HaveZ=T HaveW=F
         NIJTC =      10 NIJTAt=       0 NIJTCD=       0 NIJTT =      10
         IJTBeg=       1 IJTEnd=      10 KLTBeg=       1 KLTEnd=      10
         IPTBeg=       1 IPTEnd=      10 IPTBCv=       1 IPTECv=      10
         IZTBeg=       1 IZTEnd=      10 IZTBCv=       1 IZTECv=      10
         IWTBeg=      11 IWTEnd=      10 IWTBCv=      11 IWTECv=      10
         INTBeg=       1 INTEnd=       0 IFTBCv=       1 IFTECv=      10
 NCel replicated for PrismC:     1
 CoulSu:  IncDef=  1024 NBBP=       12061416 NTPThr=   100 NPartT=   32 Incr=        1024 LDynOK=F.
 CoulSu:  NPrtUS=  32 ThrOK=T IAlg=1 NPAlg=1 LenDen=           0 LWGrdD=           0 DoCopy=F.
 Enter PrismC: JobTyp=21 DoJE=F Cont=F.
 Enter PrismC: JobTyp=21 DoJE=F Cont=F.
 Enter PrismC: JobTyp=21 DoJE=F Cont=F.
 Enter PrismC: JobTyp=21 DoJE=F Cont=F.
 Enter PrismC: JobTyp=21 DoJE=F Cont=F.
 Enter PrismC: JobTyp=21 DoJE=F Cont=F.
 PrismC was handed    13001479 working-precision words and  4911 shell-pairs
 Enter PrismC: JobTyp=21 DoJE=F Cont=F.
 PrismC was handed    13001479 working-precision words and  4911 shell-pairs
 Enter PrismC: JobTyp=21 DoJE=F Cont=F.
 Enter PrismC: JobTyp=21 DoJE=F Cont=F.
 PrismC was handed    13001479 working-precision words and  4911 shell-pairs
 Enter PrismC: JobTyp=21 DoJE=F Cont=F.
 PrismC was handed    13001479 working-precision words and  4911 shell-pairs
 Enter PrismC: JobTyp=21 DoJE=F Cont=F.
 Enter PrismC: JobTyp=21 DoJE=F Cont=F.
 PrismC was handed    13001479 working-precision words and  4911 shell-pairs
 Enter PrismC: JobTyp=21 DoJE=F Cont=F.
 PrismC was handed    13001479 working-precision words and  4911 shell-pairs
 Enter PrismC: JobTyp=21 DoJE=F Cont=F.
 PrismC was handed    13001479 working-precision words and  4911 shell-pairs
 Enter PrismC: JobTyp=21 DoJE=F Cont=F.
 Enter PrismC: JobTyp=21 DoJE=F Cont=F.
 Enter PrismC: JobTyp=21 DoJE=F Cont=F.
 Enter PrismC: JobTyp=21 DoJE=F Cont=F.
 PrismC was handed    13001479 working-precision words and  4911 shell-pairs
 Enter PrismC: JobTyp=21 DoJE=F Cont=F.
 PrismC was handed    13001479 working-precision words and  4911 shell-pairs
 Enter PrismC: JobTyp=21 DoJE=F Cont=F.
 PrismC was handed    13001479 working-precision words and  4911 shell-pairs
 Enter PrismC: JobTyp=21 DoJE=F Cont=F.
 Enter PrismC: JobTyp=21 DoJE=F Cont=F.
 Enter PrismC: JobTyp=21 DoJE=F Cont=F.
 Enter PrismC: JobTyp=21 DoJE=F Cont=F.
 Enter PrismC: JobTyp=21 DoJE=F Cont=F.
 PrismC was handed    13001479 working-precision words and  4911 shell-pairs
 PrismC was handed    13001479 working-precision words and  4911 shell-pairs
 PrismC was handed    13001479 working-precision words and  4911 shell-pairs
 PrismC was handed    13001479 working-precision words and  4911 shell-pairs
 PrismC was handed    13001479 working-precision words and  4911 shell-pairs
 Enter PrismC: JobTyp=21 DoJE=F Cont=F.
 PrismC was handed    13001479 working-precision words and  4911 shell-pairs
 Enter PrismC: JobTyp=21 DoJE=F Cont=F.
 Enter PrismC: JobTyp=21 DoJE=F Cont=F.
 PrismC was handed    13001479 working-precision words and  4911 shell-pairs
 Enter PrismC: JobTyp=21 DoJE=F Cont=F.
 Enter PrismC: JobTyp=21 DoJE=F Cont=F.
 PrismC:  IPart=     0 DynPar=T LinDyn=F Incr=        1024 UseFst=F UseS4=T IGathr=2.
 PrismC was handed    13001479 working-precision words and  4911 shell-pairs
 PrismC was handed    13001479 working-precision words and  4911 shell-pairs
 Enter PrismC: JobTyp=21 DoJE=F Cont=F.
 Enter PrismC: JobTyp=21 DoJE=F Cont=F.
 PrismC was handed    13001479 working-precision words and  4911 shell-pairs
 PrismC was handed    13001479 working-precision words and  4911 shell-pairs
 PrismC was handed    13001479 working-precision words and  4911 shell-pairs
 PrismC was handed    13001479 working-precision words and  4911 shell-pairs
 PrismC was handed    13001479 working-precision words and  4911 shell-pairs
 PrismC was handed    13001479 working-precision words and  4911 shell-pairs
 PrismC was handed    13001479 working-precision words and  4911 shell-pairs
 PrismC was handed    13001479 working-precision words and  4911 shell-pairs
 PrismC was handed    13001479 working-precision words and  4911 shell-pairs
 PrismC was handed    13001479 working-precision words and  4911 shell-pairs
 PrismC was handed    13001479 working-precision words and  4911 shell-pairs
 PrismC was handed    13001479 working-precision words and  4911 shell-pairs
 PrismC was handed    13001479 working-precision words and  4911 shell-pairs
 IPart=  5 NShTot=      287084 NShNF=      287084 NShFF=           0 NBatch=        2182 AvBLen=       131.6
 IPart= 23 NShTot=      286570 NShNF=      286570 NShFF=           0 NBatch=        2221 AvBLen=       129.0
 IPart= 30 NShTot=      318205 NShNF=      318205 NShFF=           0 NBatch=        2232 AvBLen=       142.6
 IPart= 19 NShTot=      300351 NShNF=      300351 NShFF=           0 NBatch=        2396 AvBLen=       125.4
 IPart= 25 NShTot=      311450 NShNF=      311450 NShFF=           0 NBatch=        2277 AvBLen=       136.8
 IPart= 14 NShTot=      301960 NShNF=      301960 NShFF=           0 NBatch=        2047 AvBLen=       147.5
 IPart=  6 NShTot=      310227 NShNF=      310227 NShFF=           0 NBatch=        2257 AvBLen=       137.5
 IPart=  4 NShTot=      317887 NShNF=      317887 NShFF=           0 NBatch=        2181 AvBLen=       145.8
 IPart=  7 NShTot=      312303 NShNF=      312303 NShFF=           0 NBatch=        2291 AvBLen=       136.3
 IPart=  8 NShTot=      320449 NShNF=      320449 NShFF=           0 NBatch=        2312 AvBLen=       138.6
 IPart= 27 NShTot=      326676 NShNF=      326676 NShFF=           0 NBatch=        2562 AvBLen=       127.5
 IPart= 15 NShTot=      279023 NShNF=      279023 NShFF=           0 NBatch=        2269 AvBLen=       123.0
 IPart= 24 NShTot=      281416 NShNF=      281416 NShFF=           0 NBatch=        2266 AvBLen=       124.2
 IPart=  9 NShTot=      319966 NShNF=      319966 NShFF=           0 NBatch=        2308 AvBLen=       138.6
 IPart=  3 NShTot=      297328 NShNF=      297328 NShFF=           0 NBatch=        2250 AvBLen=       132.1
 IPart=  0 NShTot=      272188 NShNF=      272188 NShFF=           0 NBatch=        2198 AvBLen=       123.8
 IPart=  1 NShTot=      319485 NShNF=      319485 NShFF=           0 NBatch=        2584 AvBLen=       123.6
 IPart= 10 NShTot=      325338 NShNF=      325338 NShFF=           0 NBatch=        2321 AvBLen=       140.2
 IPart= 21 NShTot=      288619 NShNF=      288619 NShFF=           0 NBatch=        2331 AvBLen=       123.8
 IPart= 18 NShTot=      328298 NShNF=      328298 NShFF=           0 NBatch=        2445 AvBLen=       134.3
 IPart= 22 NShTot=      328149 NShNF=      328149 NShFF=           0 NBatch=        2294 AvBLen=       143.0
 IPart= 28 NShTot=      330488 NShNF=      330488 NShFF=           0 NBatch=        2434 AvBLen=       135.8
 IPart= 17 NShTot=      302901 NShNF=      302901 NShFF=           0 NBatch=        2304 AvBLen=       131.5
 IPart= 12 NShTot=      306486 NShNF=      306486 NShFF=           0 NBatch=        2314 AvBLen=       132.4
 IPart= 16 NShTot=      311257 NShNF=      311257 NShFF=           0 NBatch=        2334 AvBLen=       133.4
 IPart= 31 NShTot=      286867 NShNF=      286867 NShFF=           0 NBatch=        2325 AvBLen=       123.4
 IPart= 20 NShTot=      318449 NShNF=      318449 NShFF=           0 NBatch=        2402 AvBLen=       132.6
 IPart= 26 NShTot=      274430 NShNF=      274430 NShFF=           0 NBatch=        2316 AvBLen=       118.5
 IPart=  2 NShTot=      301138 NShNF=      301138 NShFF=           0 NBatch=        2377 AvBLen=       126.7
 IPart= 13 NShTot=      323188 NShNF=      323188 NShFF=           0 NBatch=        2396 AvBLen=       134.9
 IPart= 29 NShTot=      302841 NShNF=      302841 NShFF=           0 NBatch=        2345 AvBLen=       129.1
 IPart= 11 NShTot=      305407 NShNF=      305407 NShFF=           0 NBatch=        2282 AvBLen=       133.8
 CoulSu:  NxtVal=       13065217.
 FoFCou: FMM=F IPFlag=           0 FMFlag=      100000 FMFlg1=         800
         NFxFlg=           0 DoJE=F BraDBF=F KetDBF=F FulRan=T
         wScrn=  0.000000 ICntrl=    2127 IOpCl=  1 I1Cent=           0 NGrid=           0
         NMat0=    1 NMatS0=      0 NMatT0=    1 NMatD0=    1 NMtDS0=    0 NMtDT0=    0
         CW=    0.222036    0.777964
         WU=    0.000000   12.500000
 Symmetry not used in FoFCou.
 FoFCou:  KetSym=F NOpSet=  1 NOpAb=1 NOp=  1.
 FoFCou:  CnvScl= 1.00D+00 Thresh= 1.00D-10 IAcrcy=      10.
 PrismS was handed   418917419 working-precision words and  4911 shell-pairs
 FoFCou: LinMIO=F DoNuc=F BraDBF=F KetDBF=F HaveP=T PDBF=F HaveZ=T HaveW=F
         NIJTC =      10 NIJTAt=       0 NIJTCD=       0 NIJTT =      10
         IJTBeg=       1 IJTEnd=      10 KLTBeg=       1 KLTEnd=      10
         IPTBeg=       1 IPTEnd=      10 IPTBCv=       1 IPTECv=      10
         IZTBeg=       1 IZTEnd=      10 IZTBCv=       1 IZTECv=      10
         IWTBeg=      11 IWTEnd=      10 IWTBCv=      11 IWTECv=      10
         INTBeg=       1 INTEnd=       0 IFTBCv=       1 IFTECv=      10
 NCel replicated for PrismC:     1
 CoulSu:  IncDef=  1024 NBBP=       12061416 NTPThr=   100 NPartT=   32 Incr=        1024 LDynOK=F.
 CoulSu:  NPrtUS=  32 ThrOK=T IAlg=1 NPAlg=1 LenDen=           0 LWGrdD=           0 DoCopy=F.
 Enter PrismC: JobTyp=21 DoJE=F Cont=F.
 Linear combination for Coulomb/exchange, wScrn=  0.000000
 Enter PrismC: JobTyp=21 DoJE=F Cont=F.
 Enter PrismC: JobTyp=21 DoJE=F Cont=F.
 Linear combination for Coulomb/exchange, wScrn=  0.000000
 CW=    0.222036    0.777964
 WU=    0.000000   12.500000
 Enter PrismC: JobTyp=21 DoJE=F Cont=F.
 Enter PrismC: JobTyp=21 DoJE=F Cont=F.
 Linear combination for Coulomb/exchange, wScrn=  0.000000
 Enter PrismC: JobTyp=21 DoJE=F Cont=F.
 Linear combination for Coulomb/exchange, wScrn=  0.000000
 Enter PrismC: JobTyp=21 DoJE=F Cont=F.
 Linear combination for Coulomb/exchange, wScrn=  0.000000
 CW=    0.222036    0.777964
 WU=    0.000000   12.500000
 Enter PrismC: JobTyp=21 DoJE=F Cont=F.
 Enter PrismC: JobTyp=21 DoJE=F Cont=F.
 Enter PrismC: JobTyp=21 DoJE=F Cont=F.
 Linear combination for Coulomb/exchange, wScrn=  0.000000
 CW=    0.222036    0.777964
 WU=    0.000000   12.500000
 Enter PrismC: JobTyp=21 DoJE=F Cont=F.
 Enter PrismC: JobTyp=21 DoJE=F Cont=F.
 Linear combination for Coulomb/exchange, wScrn=  0.000000
 CW=    0.222036    0.777964
 WU=    0.000000   12.500000
 Enter PrismC: JobTyp=21 DoJE=F Cont=F.
 Linear combination for Coulomb/exchange, wScrn=  0.000000
 CW=    0.222036    0.777964
 WU=    0.000000   12.500000
 Enter PrismC: JobTyp=21 DoJE=F Cont=F.
 Linear combination for Coulomb/exchange, wScrn=  0.000000
 CW=    0.222036    0.777964
 WU=    0.000000   12.500000
 PrismC was handed    13001324 working-precision words and  4911 shell-pairs
 Enter PrismC: JobTyp=21 DoJE=F Cont=F.
 Enter PrismC: JobTyp=21 DoJE=F Cont=F.
 Linear combination for Coulomb/exchange, wScrn=  0.000000
 CW=    0.222036    0.777964
 WU=    0.000000   12.500000
 Enter PrismC: JobTyp=21 DoJE=F Cont=F.
 Linear combination for Coulomb/exchange, wScrn=  0.000000
 CW=    0.222036    0.777964
 WU=    0.000000   12.500000
 PrismC was handed    13001324 working-precision words and  4911 shell-pairs
 Enter PrismC: JobTyp=21 DoJE=F Cont=F.
 Linear combination for Coulomb/exchange, wScrn=  0.000000
 CW=    0.222036    0.777964
 WU=    0.000000   12.500000
 PrismC was handed    13001324 working-precision words and  4911 shell-pairs
 Linear combination for Coulomb/exchange, wScrn=  0.000000
 CW=    0.222036    0.777964
 WU=    0.000000   12.500000
 Enter PrismC: JobTyp=21 DoJE=F Cont=F.
 Linear combination for Coulomb/exchange, wScrn=  0.000000
 CW=    0.222036    0.777964
 WU=    0.000000   12.500000
 Linear combination for Coulomb/exchange, wScrn=  0.000000
 CW=    0.222036    0.777964
 WU=    0.000000   12.500000
 Enter PrismC: JobTyp=21 DoJE=F Cont=F.
 Linear combination for Coulomb/exchange, wScrn=  0.000000
 CW=    0.222036    0.777964
 WU=    0.000000   12.500000
 Enter PrismC: JobTyp=21 DoJE=F Cont=F.
 Linear combination for Coulomb/exchange, wScrn=  0.000000
 CW=    0.222036    0.777964
 WU=    0.000000   12.500000
 CW=    0.222036    0.777964
 WU=    0.000000   12.500000
 PrismC was handed    13001324 working-precision words and  4911 shell-pairs
 Enter PrismC: JobTyp=21 DoJE=F Cont=F.
 Linear combination for Coulomb/exchange, wScrn=  0.000000
 CW=    0.222036    0.777964
 WU=    0.000000   12.500000
 PrismC was handed    13001324 working-precision words and  4911 shell-pairs
 Linear combination for Coulomb/exchange, wScrn=  0.000000
 CW=    0.222036    0.777964
 WU=    0.000000   12.500000
 Enter PrismC: JobTyp=21 DoJE=F Cont=F.
 Linear combination for Coulomb/exchange, wScrn=  0.000000
 CW=    0.222036    0.777964
 WU=    0.000000   12.500000
 PrismC was handed    13001324 working-precision words and  4911 shell-pairs
 Enter PrismC: JobTyp=21 DoJE=F Cont=F.
 Linear combination for Coulomb/exchange, wScrn=  0.000000
 CW=    0.222036    0.777964
 WU=    0.000000   12.500000
 Enter PrismC: JobTyp=21 DoJE=F Cont=F.
 Linear combination for Coulomb/exchange, wScrn=  0.000000
 PrismC was handed    13001324 working-precision words and  4911 shell-pairs
 Linear combination for Coulomb/exchange, wScrn=  0.000000
 CW=    0.222036    0.777964
 WU=    0.000000   12.500000
 PrismC was handed    13001324 working-precision words and  4911 shell-pairs
 Enter PrismC: JobTyp=21 DoJE=F Cont=F.
 Linear combination for Coulomb/exchange, wScrn=  0.000000
 CW=    0.222036    0.777964
 WU=    0.000000   12.500000
 PrismC was handed    13001324 working-precision words and  4911 shell-pairs
 CW=    0.222036    0.777964
 WU=    0.000000   12.500000
 PrismC was handed    13001324 working-precision words and  4911 shell-pairs
 PrismC was handed    13001324 working-precision words and  4911 shell-pairs
 Enter PrismC: JobTyp=21 DoJE=F Cont=F.
 Linear combination for Coulomb/exchange, wScrn=  0.000000
 CW=    0.222036    0.777964
 WU=    0.000000   12.500000
 PrismC was handed    13001324 working-precision words and  4911 shell-pairs
 PrismC was handed    13001324 working-precision words and  4911 shell-pairs
 Linear combination for Coulomb/exchange, wScrn=  0.000000
 CW=    0.222036    0.777964
 WU=    0.000000   12.500000
 PrismC:  IPart=     0 DynPar=T LinDyn=F Incr=        1024 UseFst=F UseS4=T IGathr=2.
 PrismC was handed    13001324 working-precision words and  4911 shell-pairs
 PrismC was handed    13001324 working-precision words and  4911 shell-pairs
 PrismC was handed    13001324 working-precision words and  4911 shell-pairs
 Enter PrismC: JobTyp=21 DoJE=F Cont=F.
 Linear combination for Coulomb/exchange, wScrn=  0.000000
 CW=    0.222036    0.777964
 WU=    0.000000   12.500000
 Linear combination for Coulomb/exchange, wScrn=  0.000000
 CW=    0.222036    0.777964
 WU=    0.000000   12.500000
 PrismC was handed    13001324 working-precision words and  4911 shell-pairs
 CW=    0.222036    0.777964
 WU=    0.000000   12.500000
 Enter PrismC: JobTyp=21 DoJE=F Cont=F.
 Linear combination for Coulomb/exchange, wScrn=  0.000000
 CW=    0.222036    0.777964
 WU=    0.000000   12.500000
 PrismC was handed    13001324 working-precision words and  4911 shell-pairs
 PrismC was handed    13001324 working-precision words and  4911 shell-pairs
 Enter PrismC: JobTyp=21 DoJE=F Cont=F.
 Linear combination for Coulomb/exchange, wScrn=  0.000000
 CW=    0.222036    0.777964
 WU=    0.000000   12.500000
 PrismC was handed    13001324 working-precision words and  4911 shell-pairs
 PrismC was handed    13001324 working-precision words and  4911 shell-pairs
 Enter PrismC: JobTyp=21 DoJE=F Cont=F.
 Linear combination for Coulomb/exchange, wScrn=  0.000000
 CW=    0.222036    0.777964
 WU=    0.000000   12.500000
 PrismC was handed    13001324 working-precision words and  4911 shell-pairs
 PrismC was handed    13001324 working-precision words and  4911 shell-pairs
 PrismC was handed    13001324 working-precision words and  4911 shell-pairs
 PrismC was handed    13001324 working-precision words and  4911 shell-pairs
 PrismC was handed    13001324 working-precision words and  4911 shell-pairs
 PrismC was handed    13001324 working-precision words and  4911 shell-pairs
 CW=    0.222036    0.777964
 WU=    0.000000   12.500000
 PrismC was handed    13001324 working-precision words and  4911 shell-pairs
 Enter PrismC: JobTyp=21 DoJE=F Cont=F.
 Linear combination for Coulomb/exchange, wScrn=  0.000000
 CW=    0.222036    0.777964
 WU=    0.000000   12.500000
 PrismC was handed    13001324 working-precision words and  4911 shell-pairs
 PrismC was handed    13001324 working-precision words and  4911 shell-pairs
 PrismC was handed    13001324 working-precision words and  4911 shell-pairs
 PrismC was handed    13001324 working-precision words and  4911 shell-pairs
 IPart= 31 NShTot=      382490 NShNF=      382490 NShFF=           0 NBatch=        3093 AvBLen=       123.7
 IPart= 30 NShTot=      254706 NShNF=      254706 NShFF=           0 NBatch=        2640 AvBLen=        96.5
 IPart= 21 NShTot=      243594 NShNF=      243594 NShFF=           0 NBatch=        2204 AvBLen=       110.5
 IPart=  6 NShTot=      240038 NShNF=      240038 NShFF=           0 NBatch=        2306 AvBLen=       104.1
 IPart= 27 NShTot=      310809 NShNF=      310809 NShFF=           0 NBatch=        2582 AvBLen=       120.4
 IPart=  2 NShTot=      324538 NShNF=      324538 NShFF=           0 NBatch=        3011 AvBLen=       107.8
 IPart= 10 NShTot=      352425 NShNF=      352425 NShFF=           0 NBatch=        3497 AvBLen=       100.8
 IPart= 23 NShTot=      295710 NShNF=      295710 NShFF=           0 NBatch=        2994 AvBLen=        98.8
 IPart= 29 NShTot=      257363 NShNF=      257363 NShFF=           0 NBatch=        2273 AvBLen=       113.2
 IPart= 20 NShTot=      300048 NShNF=      300048 NShFF=           0 NBatch=        3047 AvBLen=        98.5
 IPart= 22 NShTot=      454713 NShNF=      454713 NShFF=           0 NBatch=        3152 AvBLen=       144.3
 IPart= 15 NShTot=      272707 NShNF=      272707 NShFF=           0 NBatch=        3255 AvBLen=        83.8
 IPart= 17 NShTot=      327761 NShNF=      327761 NShFF=           0 NBatch=        3214 AvBLen=       102.0
 IPart= 28 NShTot=      290432 NShNF=      290432 NShFF=           0 NBatch=        3055 AvBLen=        95.1
 IPart=  9 NShTot=      352963 NShNF=      352963 NShFF=           0 NBatch=        3193 AvBLen=       110.5
 IPart=  8 NShTot=      350140 NShNF=      350140 NShFF=           0 NBatch=        3282 AvBLen=       106.7
 IPart= 26 NShTot=      432140 NShNF=      432140 NShFF=           0 NBatch=        3307 AvBLen=       130.7
 IPart= 18 NShTot=      313197 NShNF=      313197 NShFF=           0 NBatch=        3139 AvBLen=        99.8
 IPart= 19 NShTot=      317454 NShNF=      317454 NShFF=           0 NBatch=        2728 AvBLen=       116.4
 IPart= 24 NShTot=      313095 NShNF=      313095 NShFF=           0 NBatch=        2786 AvBLen=       112.4
 IPart=  3 NShTot=      315874 NShNF=      315874 NShFF=           0 NBatch=        3082 AvBLen=       102.5
 IPart=  5 NShTot=      195191 NShNF=      195191 NShFF=           0 NBatch=        2108 AvBLen=        92.6
 IPart=  0 NShTot=      288626 NShNF=      288626 NShFF=           0 NBatch=        2754 AvBLen=       104.8
 IPart=  4 NShTot=      181391 NShNF=      181391 NShFF=           0 NBatch=        2113 AvBLen=        85.8
 IPart= 12 NShTot=      209069 NShNF=      209069 NShFF=           0 NBatch=        2083 AvBLen=       100.4
 IPart= 13 NShTot=      347547 NShNF=      347547 NShFF=           0 NBatch=        3080 AvBLen=       112.8
 IPart= 11 NShTot=      351815 NShNF=      351815 NShFF=           0 NBatch=        2898 AvBLen=       121.4
 IPart= 14 NShTot=      301724 NShNF=      301724 NShFF=           0 NBatch=        3128 AvBLen=        96.5
 IPart=  1 NShTot=      297231 NShNF=      297231 NShFF=           0 NBatch=        3599 AvBLen=        82.6
 IPart= 16 NShTot=      302958 NShNF=      302958 NShFF=           0 NBatch=        2460 AvBLen=       123.2
 IPart=  7 NShTot=      313840 NShNF=      313840 NShFF=           0 NBatch=        2823 AvBLen=       111.2
 IPart= 25 NShTot=      274407 NShNF=      274407 NShFF=           0 NBatch=        2174 AvBLen=       126.2
 CoulSu:  NxtVal=       13065217.
 ReadGW:  IGet=0 IStart=           1 Next=           1 LGW=           0.
 Remaining memory in FofDFT      399.83 Mw
 CkSvGd:  ISavGI=        -1 IRadAn=       5 IRASav=       5 ISavGd=        -1.
 CalDSu:  NPrtUS=  32 ThrOK=T IAlg=1 NPAlg=2 DoDPD=T LenP=       45150 LenD1P=             0.
 IPart=  0 IRanGd=          0 ScrnBf=T ScrnGd=T RCrit=4.00D+00 DoMicB=T.
 IPart= 22        11951 of        14312 points in      23 batches and       82 microbatches, Max-NSigAt=      12 Max-NSgAt2=      12
 IPart= 10         6116 of         7142 points in      12 batches and       48 microbatches, Max-NSigAt=      12 Max-NSgAt2=      12
 IPart=  7         7625 of         8830 points in      12 batches and       20 microbatches, Max-NSigAt=      12 Max-NSgAt2=      12
 IPart= 30        11839 of        12936 points in      18 batches and       44 microbatches, Max-NSigAt=      12 Max-NSgAt2=      12
 IPart=  5         9419 of        11142 points in      17 batches and       53 microbatches, Max-NSigAt=      12 Max-NSgAt2=      12
 IPart= 14        10096 of        12092 points in      20 batches and       79 microbatches, Max-NSigAt=      12 Max-NSgAt2=      12
 IPart=  1         7676 of         8000 points in      13 batches and       25 microbatches, Max-NSigAt=      12 Max-NSgAt2=      12
 IPart= 19         8414 of        10164 points in      16 batches and       49 microbatches, Max-NSigAt=      12 Max-NSgAt2=      12
 IPart=  6         8932 of         9576 points in      14 batches and       54 microbatches, Max-NSigAt=      12 Max-NSgAt2=      12
 IPart= 29         4091 of         4948 points in       8 batches and       32 microbatches, Max-NSigAt=      12 Max-NSgAt2=      12
 IPart= 11         8506 of         9064 points in      15 batches and       50 microbatches, Max-NSigAt=      12 Max-NSgAt2=      12
 IPart= 15        10429 of        11960 points in      17 batches and       65 microbatches, Max-NSigAt=      12 Max-NSgAt2=      12
 IPart= 25         7962 of         9362 points in      15 batches and       48 microbatches, Max-NSigAt=      12 Max-NSgAt2=      12
 IPart=  2         6310 of         7822 points in      12 batches and       63 microbatches, Max-NSigAt=      12 Max-NSgAt2=      12
 IPart= 17         9439 of        10496 points in      17 batches and       62 microbatches, Max-NSigAt=      12 Max-NSgAt2=      12
 IPart= 18         6192 of         6834 points in      11 batches and       46 microbatches, Max-NSigAt=      12 Max-NSgAt2=      12
 IPart= 12         9910 of        10858 points in      17 batches and       71 microbatches, Max-NSigAt=      12 Max-NSgAt2=      12
 IPart= 24        11458 of        13994 points in      21 batches and       77 microbatches, Max-NSigAt=      12 Max-NSgAt2=      12
 IPart=  3         6339 of         7544 points in      12 batches and       84 microbatches, Max-NSigAt=      12 Max-NSgAt2=      12
 IPart=  8         8259 of         8676 points in      12 batches and       45 microbatches, Max-NSigAt=      12 Max-NSgAt2=      12
 IPart= 27         4897 of         5732 points in       9 batches and       34 microbatches, Max-NSigAt=      12 Max-NSgAt2=      12
 IPart= 20         5620 of         6092 points in      10 batches and       37 microbatches, Max-NSigAt=      12 Max-NSgAt2=      12
 IPart= 26         6522 of         6918 points in      11 batches and       28 microbatches, Max-NSigAt=      12 Max-NSgAt2=      12
 IPart=  9         4079 of         4140 points in       6 batches and       16 microbatches, Max-NSigAt=      12 Max-NSgAt2=      12
 IPart= 23         6744 of         7006 points in      11 batches and       34 microbatches, Max-NSigAt=      12 Max-NSgAt2=      12
 IPart= 28         5842 of         7186 points in      11 batches and       59 microbatches, Max-NSigAt=      12 Max-NSgAt2=      12
 IPart=  4         6803 of         7186 points in      12 batches and       37 microbatches, Max-NSigAt=      12 Max-NSgAt2=      12
 IPart= 16         7484 of         8442 points in      13 batches and       49 microbatches, Max-NSigAt=      12 Max-NSgAt2=      12
 IPart= 13         4526 of         4920 points in       8 batches and       31 microbatches, Max-NSigAt=      12 Max-NSgAt2=      12
 IPart=  0         7621 of         9632 points in      14 batches and       60 microbatches, Max-NSigAt=      12 Max-NSgAt2=      12
 IPart= 31         5296 of         6284 points in      10 batches and       33 microbatches, Max-NSigAt=      12 Max-NSgAt2=      12
 IPart= 21         4838 of         5156 points in       7 batches and       28 microbatches, Max-NSigAt=      12 Max-NSgAt2=      12
 Forces at end of L703
 I=    0 X=  -4.878382118287D-01 Y=   1.174131367036D-01 Z=  -2.086689873755D-01
 I=    1 X=   2.461670482589D-02 Y=   5.298618746953D-02 Z=   1.896749339884D-02
 I=    2 X=   4.076750755182D-04 Y=   1.787780062612D-03 Z=   6.169588443884D-03
 I=    3 X=   9.735832657625D-04 Y=   3.160127402502D-03 Z=   7.309229259460D-04
 I=    4 X=   2.070873254213D-03 Y=   3.149899736897D-03 Z=   7.163658225520D-04
 I=    5 X=   2.781872038473D-04 Y=  -2.818802075864D-04 Z=   9.567279275657D-05
 I=    6 X=  -2.485742048307D-02 Y=  -5.393632407274D-02 Z=  -2.265481442742D-02
 I=    7 X=  -1.559498906748D-03 Y=  -3.160533360804D-03 Z=  -2.001493456470D-03
 I=    8 X=  -1.010674643219D-03 Y=  -2.545545034255D-03 Z=  -1.010498137717D-03
 I=    9 X=  -1.487990920362D-03 Y=  -2.366989366000D-03 Z=  -1.032353684607D-03
 I=   10 X=   4.011177403764D-04 Y=   7.898862062654D-04 Z=  -1.788425652378D-04
 I=   11 X=  -1.875826220421D-05 Y=   2.820373627705D-04 Z=   7.095131053436D-05
 I=   12 X=   1.862018500089D-04 Y=   1.353538008171D-04 Z=   1.270075769964D-04
 FrcOut:
 IF    =    61 IFX   =    97 IFXYZ =   133
 IFFX  =   169 IFFFX =   835 IFLen =    36
 IFFLen=   666 IFFFLn=     0 IEDerv=   835
 LEDerv=  1781 IFroze=  3022 ICStrt=147347
 FCEst1:  Generated internal coordinate force constants:
                1             2             3             4             5 
      1  0.599217D+00
      2 -0.960697D-01  0.419472D+00
      3 -0.295782D-01 -0.915038D-01  0.778691D+00
      4 -0.936987D-01  0.988556D-03 -0.310616D-02  0.590703D+00
      5 -0.165295D-02 -0.699218D-01 -0.278057D-02 -0.302048D-01  0.795470D-01
      6 -0.319423D-01  0.201345D-02 -0.487385D+00 -0.126932D+00  0.800101D-02
      7 -0.324104D+00  0.236077D-02  0.849606D-01  0.990863D-02  0.485460D-04
      8 -0.929032D-02 -0.720317D-01  0.107682D-01 -0.284682D-03 -0.519350D-02
      9  0.872484D-01  0.676283D-02 -0.111177D+00  0.283849D-01  0.139068D-03
     10 -0.151353D+00  0.998849D-01 -0.508146D-01  0.635757D-02  0.122329D-02
     11  0.113582D+00 -0.225121D+00  0.866313D-01 -0.448376D-02  0.133734D-01
     12 -0.569115D-01  0.853807D-01 -0.128704D+00 -0.162154D-01  0.219562D-01
     13  0.112440D-01 -0.452146D-03  0.000000D+00 -0.515690D+00  0.309432D-01
     14  0.172697D-02  0.396210D-02  0.000000D+00  0.309993D-01 -0.267454D-01
     15  0.319423D-01 -0.201345D-02  0.000000D+00  0.126932D+00 -0.800101D-02
     16 -0.478899D-01 -0.446429D-02  0.366045D-03  0.254526D-02 -0.415799D-03
     17 -0.608223D-02 -0.590266D-01  0.477210D-03  0.292481D-02  0.896859D-02
     18  0.757836D-03  0.234951D-02 -0.595677D-01 -0.905880D-02 -0.193169D-01
     19  0.252504D-02  0.262102D-02 -0.836918D-02  0.288920D-03 -0.135072D-03
     20  0.310415D-02  0.656145D-02 -0.176403D-01 -0.138500D-03  0.647495D-04
     21  0.254641D-03  0.410361D-03 -0.116552D-02  0.754580D-05 -0.352771D-05
     22 -0.273866D-02  0.568570D-03  0.156700D-02 -0.139012D-03  0.649891D-04
     23 -0.139377D-01  0.313669D-02  0.743966D-02  0.221528D-03 -0.103566D-03
     24 -0.775149D-02  0.162206D-02  0.440710D-02 -0.344629D-03  0.161116D-03
     25  0.679497D-02 -0.543620D-02  0.497442D-02 -0.275039D-03  0.128583D-03
     26  0.862117D-02 -0.703209D-02  0.660826D-02 -0.224423D-04  0.104919D-04
     27  0.598017D-02 -0.502167D-02  0.490043D-02  0.332490D-03 -0.155441D-03
     28  0.733843D-03 -0.351782D-03  0.191659D-04  0.000000D+00  0.000000D+00
     29 -0.359517D-03  0.172342D-03 -0.938959D-05  0.000000D+00  0.000000D+00
     30  0.188277D-04 -0.902541D-05  0.000000D+00  0.000000D+00  0.000000D+00
     31 -0.676333D-03  0.324214D-03 -0.176640D-04  0.000000D+00  0.000000D+00
     32 -0.457612D-03  0.219366D-03 -0.119516D-04  0.000000D+00  0.000000D+00
     33 -0.518563D-04  0.248584D-04 -0.135434D-05  0.000000D+00  0.000000D+00
     34 -0.544957D-04  0.261236D-04 -0.142328D-05  0.000000D+00  0.000000D+00
     35  0.815518D-03 -0.390935D-03  0.212991D-04  0.000000D+00  0.000000D+00
     36  0.331001D-04 -0.158672D-04  0.000000D+00  0.000000D+00  0.000000D+00
                6             7             8             9            10 
      6  0.591721D+00
      7  0.000000D+00  0.322975D+00
      8  0.000000D+00 -0.820219D-03  0.585215D-01
      9  0.000000D+00 -0.904816D-01 -0.234965D-02  0.953609D-01
     10  0.000000D+00 -0.608763D-02  0.243213D-01 -0.174390D-01  0.144523D+00
     11  0.000000D+00 -0.219857D-02  0.934434D-02 -0.629818D-02 -0.115090D+00
     12  0.000000D+00  0.409163D-02 -0.153594D-01  0.117212D-01  0.631899D-01
     13  0.158874D+00  0.000000D+00  0.367469D-03  0.000000D+00 -0.304454D-03
     14 -0.100145D-01  0.000000D+00  0.582972D-02  0.000000D+00 -0.483001D-02
     15 -0.104336D+00  0.000000D+00  0.000000D+00  0.000000D+00  0.000000D+00
     16  0.000000D+00 -0.274017D-02 -0.142090D-01 -0.784968D-02  0.675651D-02
     17  0.000000D+00  0.632614D-03  0.348869D-02  0.181223D-02 -0.545701D-02
     18  0.000000D+00  0.142756D-02  0.694395D-02  0.408949D-02  0.505983D-02
     19  0.000000D+00 -0.110362D-03  0.195199D-03 -0.316151D-03 -0.248308D-03
     20  0.000000D+00  0.529043D-04 -0.935723D-04  0.151553D-03  0.119031D-03
     21  0.000000D+00 -0.288235D-05  0.509805D-05 -0.825699D-05 -0.648512D-05
     22  0.000000D+00  0.531001D-04 -0.939186D-04  0.152114D-03  0.119472D-03
     23  0.000000D+00 -0.846195D-04  0.149667D-03 -0.242407D-03 -0.190389D-03
     24  0.000000D+00  0.131642D-03 -0.232836D-03  0.377110D-03  0.296186D-03
     25  0.000000D+00  0.105060D-03 -0.185820D-03  0.300962D-03  0.236378D-03
     26  0.000000D+00  0.857255D-05 -0.151624D-04  0.245575D-04  0.192877D-04
     27  0.000000D+00 -0.127005D-03  0.224635D-03 -0.363827D-03 -0.285753D-03
     28  0.000000D+00  0.000000D+00  0.000000D+00  0.000000D+00  0.000000D+00
     29  0.000000D+00  0.000000D+00  0.000000D+00  0.000000D+00  0.000000D+00
     30  0.000000D+00  0.000000D+00  0.000000D+00  0.000000D+00  0.000000D+00
     31  0.000000D+00  0.000000D+00  0.000000D+00  0.000000D+00  0.000000D+00
     32  0.000000D+00  0.000000D+00  0.000000D+00  0.000000D+00  0.000000D+00
     33  0.000000D+00  0.000000D+00  0.000000D+00  0.000000D+00  0.000000D+00
     34  0.000000D+00  0.000000D+00  0.000000D+00  0.000000D+00  0.000000D+00
     35  0.000000D+00  0.000000D+00  0.000000D+00  0.000000D+00  0.000000D+00
     36  0.000000D+00  0.000000D+00  0.000000D+00  0.000000D+00  0.000000D+00
               11            12            13            14            15 
     11  0.212933D+00
     12 -0.869555D-01  0.111943D+00
     13 -0.226127D-03  0.000000D+00  0.504583D+00
     14 -0.358738D-02  0.000000D+00 -0.305541D-01  0.217835D-01
     15  0.000000D+00  0.000000D+00 -0.158874D+00  0.100145D-01  0.104336D+00
     16  0.840902D-02  0.597268D-02  0.167533D-03  0.265783D-02  0.000000D+00
     17 -0.693917D-02 -0.508371D-02 -0.783229D-04 -0.124255D-02  0.000000D+00
     18  0.662205D-02  0.504474D-02  0.000000D+00  0.000000D+00  0.000000D+00
     19 -0.174834D-04  0.294059D-03  0.000000D+00  0.000000D+00  0.000000D+00
     20  0.838101D-05 -0.140963D-03  0.000000D+00  0.000000D+00  0.000000D+00
     21  0.000000D+00  0.768002D-05  0.000000D+00  0.000000D+00  0.000000D+00
     22  0.841202D-05 -0.141485D-03  0.000000D+00  0.000000D+00  0.000000D+00
     23 -0.134053D-04  0.225468D-03  0.000000D+00  0.000000D+00  0.000000D+00
     24  0.208545D-04 -0.350758D-03  0.000000D+00  0.000000D+00  0.000000D+00
     25  0.166434D-04 -0.279931D-03  0.000000D+00  0.000000D+00  0.000000D+00
     26  0.135805D-05 -0.228415D-04  0.000000D+00  0.000000D+00  0.000000D+00
     27 -0.201199D-04  0.338404D-03  0.000000D+00  0.000000D+00  0.000000D+00
     28  0.000000D+00  0.000000D+00  0.000000D+00  0.000000D+00  0.000000D+00
     29  0.000000D+00  0.000000D+00  0.000000D+00  0.000000D+00  0.000000D+00
     30  0.000000D+00  0.000000D+00  0.000000D+00  0.000000D+00  0.000000D+00
     31  0.000000D+00  0.000000D+00  0.000000D+00  0.000000D+00  0.000000D+00
     32  0.000000D+00  0.000000D+00  0.000000D+00  0.000000D+00  0.000000D+00
     33  0.000000D+00  0.000000D+00  0.000000D+00  0.000000D+00  0.000000D+00
     34  0.000000D+00  0.000000D+00  0.000000D+00  0.000000D+00  0.000000D+00
     35  0.000000D+00  0.000000D+00  0.000000D+00  0.000000D+00  0.000000D+00
     36  0.000000D+00  0.000000D+00  0.000000D+00  0.000000D+00  0.000000D+00
               16            17            18            19            20 
     16  0.597682D+00
     17 -0.944004D-01  0.435695D+00
     18 -0.466659D-01 -0.105452D+00  0.616717D+00
     19 -0.103147D+00 -0.833707D-03  0.922780D-02  0.661970D+00
     20 -0.782223D-03 -0.103576D+00  0.750436D-02  0.464980D-03  0.661956D+00
     21  0.100571D-01  0.937094D-02 -0.316692D+00 -0.323874D-04 -0.240103D-03
     22 -0.313108D+00 -0.199028D-02  0.898403D-01  0.100227D-01  0.866374D-04
     23 -0.130158D-01 -0.738548D-01  0.134521D-01 -0.847122D-03  0.256299D-02
     24  0.959096D-01  0.945614D-02 -0.119840D+00  0.256426D-01  0.356761D-03
     25 -0.158043D+00  0.105338D+00 -0.514232D-01  0.672708D-02 -0.515354D-02
     26  0.116277D+00 -0.221301D+00  0.871214D-01 -0.369702D-02  0.723992D-02
     27 -0.586232D-01  0.886998D-01 -0.129823D+00 -0.156035D-01  0.197096D-01
     28  0.462249D-02  0.397264D-02  0.391375D-03 -0.117824D+00 -0.828402D-01
     29  0.334853D-02  0.955057D-02  0.575340D-03 -0.831475D-01 -0.252836D+00
     30 -0.108031D-01 -0.222678D-01 -0.148249D-02 -0.487513D-01 -0.102090D+00
     31  0.451410D-02 -0.448490D-02  0.163901D-04 -0.145293D+00  0.104056D+00
     32 -0.353442D-02  0.669305D-02  0.126306D-03  0.104869D+00 -0.241799D+00
     33 -0.142741D-01  0.212414D-01  0.256920D-03 -0.544693D-01  0.848751D-01
     34  0.864069D-02  0.458691D-03  0.426881D-03 -0.314910D+00 -0.189696D-01
     35  0.129470D-03  0.154386D-02  0.736147D-04 -0.194720D-01 -0.800900D-01
     36  0.259105D-01  0.174545D-02  0.129625D-02  0.923774D-01  0.751427D-02
               21            22            23            24            25 
     21  0.666454D+00
     22  0.475680D-03  0.312884D+00
     23  0.722056D-04  0.392705D-02  0.586378D-01
     24  0.122291D-02 -0.969622D-01 -0.529228D-02  0.102016D+00
     25  0.913392D-04 -0.709333D-02  0.239201D-01 -0.169221D-01  0.151554D+00
     26  0.142568D-03 -0.257147D-02  0.948840D-02 -0.609165D-02 -0.118631D+00
     27  0.127335D-03  0.506861D-02 -0.156549D-01  0.121674D-01  0.632587D-01
     28 -0.431579D-01 -0.597809D-05  0.170341D-02  0.742154D-04 -0.132583D-02
     29 -0.907035D-01  0.292873D-05 -0.834517D-03 -0.363589D-04  0.649539D-03
     30 -0.128280D+00  0.000000D+00  0.437030D-04  0.190409D-05 -0.340159D-04
     31 -0.473416D-01  0.550960D-05 -0.156991D-02 -0.683993D-04  0.122193D-02
     32  0.743107D-01  0.372784D-05 -0.106222D-02 -0.462795D-04  0.826768D-03
     33 -0.114516D+00  0.000000D+00 -0.120370D-03 -0.524436D-05  0.936888D-04
     34  0.796550D-01  0.000000D+00 -0.126496D-03 -0.551129D-05  0.984573D-04
     35  0.663570D-02 -0.664344D-05  0.189299D-02  0.824754D-04 -0.147340D-02
     36 -0.107151D+00  0.000000D+00  0.768325D-04  0.334750D-05 -0.598019D-04
               26            27            28            29            30 
     26  0.211606D+00
     27 -0.877822D-01  0.112653D+00
     28 -0.108139D-02 -0.109716D-03  0.103298D+00
     29  0.529785D-03  0.537512D-04  0.909804D-01  0.250822D+00
     30 -0.277444D-04 -0.281491D-05  0.469847D-01  0.984566D-01  0.109644D+00
     31  0.996645D-03  0.101118D-03  0.141511D-01 -0.121689D-01  0.105512D-01
     32  0.674338D-03  0.684174D-04  0.150997D-01 -0.131284D-01  0.115382D-01
     33  0.764155D-04  0.775301D-05  0.133448D-01 -0.117945D-01  0.105706D-01
     34  0.803049D-04  0.814762D-05 -0.364960D-02  0.694573D-03  0.203383D-02
     35 -0.120175D-02 -0.121928D-03 -0.274828D-01  0.572337D-02  0.143563D-01
     36 -0.487763D-04 -0.494878D-05 -0.175466D-01  0.345805D-02  0.954739D-02
               31            32            33            34            35 
     31  0.133157D+00
     32 -0.113997D+00  0.237528D+00
     33  0.515033D-01 -0.801881D-01  0.955455D-01
     34 -0.708047D-02 -0.280965D-02  0.385303D-02  0.316955D+00
     35  0.268438D-01  0.108743D-01 -0.141148D-01  0.206461D-01  0.616482D-01
     36 -0.147443D-01 -0.579732D-02  0.814220D-02 -0.859700D-01 -0.693265D-02
               36 
     36  0.881654D-01
 Quadrupole    = 1.21412005D+00-4.35941017D-01-7.78179031D-01
                -3.34796272D-01-2.20909354D+00 2.11681551D-01
 -------------------------------------------------------------------
 Center     Atomic                   Forces (Hartrees/Bohr)
 Number     Number              X              Y              Z
 -------------------------------------------------------------------
      1        6          -0.024616705   -0.052986187   -0.018967493
      2        8          -0.000407675   -0.001787780   -0.006169588
      3        1          -0.000973583   -0.003160127   -0.000730923
      4        1          -0.002070873   -0.003149900   -0.000716366
      5        1          -0.000278187    0.000281880   -0.000095673
      6        6           0.024857420    0.053936324    0.022654814
      7        6           0.001559499    0.003160533    0.002001493
      8        1           0.001010675    0.002545545    0.001010498
      9        1           0.001487991    0.002366989    0.001032354
     10        1          -0.000401118   -0.000789886    0.000178843
     11        1           0.000018758   -0.000282037   -0.000070951
     12        1          -0.000186202   -0.000135354   -0.000127008
 -------------------------------------------------------------------
 Cartesian Forces:  Max     0.053936324 RMS     0.014828773
 From PutF, contents of force:
   1   -0.6265261237D-02
   2   -0.6782925726D-03
   3   -0.8803378194D-03
   4    0.2475302067D-03
   5    0.2071861154D-02
   6    0.2448704537D-02
   7   -0.3388303386D-03
   8   -0.6638097299D-02
   9   -0.1846489620D-02
  10   -0.6227527896D-03
  11   -0.4602010461D-03
  12    0.7281120810D-03
  13   -0.2062279465D-03
  14   -0.1462889038D-03
  15    0.2483428156D-02
  16    0.2365033451D-02
  17   -0.1105609773D-02
  18    0.2978907497D-03
  19    0.3653541275D-03
  20    0.5059067317D-02
  21   -0.2817198473D-03
  22    0.2452185247D-03
  23    0.1179942482D-02
  24   -0.3388998861D-04
  25    0.2290783510D-03
  26   -0.4504780009D-03
  27   -0.2001150177D-04
  28    0.7466891766D-04
  29    0.2367494538D-02
  30   -0.7219099806D-01
 -----------------------------------------------------------------------------------------------
                       Internal Coordinate Forces (Hartree/Bohr or radian)
  Cent   Atom   N1       Length/X         N2         Alpha/Y        N3         Beta/Z          J
 -----------------------------------------------------------------------------------------------
      1  C 
      2  O        1  -0.006265(     1)
      3  H        1  -0.000678(     2)      2   0.002072(    12)
      4  H        1  -0.000880(     3)      2   0.002449(    13)      3  -0.006638(    22)     0
      5  H        2   0.000248(     4)      1  -0.000339(    14)      3  -0.000450(    23)     0
      6  C        1  -0.072191(     5)      2   0.002367(    15)      3   0.000075(    24)     0
      7  C        6  -0.001846(     6)      1   0.001180(    16)      2  -0.000034(    25)     0
      8  H        6  -0.000623(     7)      7   0.002483(    17)      1   0.000229(    26)     0
      9  H        6  -0.000460(     8)      7   0.002365(    18)      8   0.005059(    27)     0
     10  H        7   0.000728(     9)      6  -0.001106(    19)      8  -0.000020(    28)     0
     11  H        7  -0.000206(    10)      6   0.000298(    20)     10  -0.000282(    29)     0
     12  H        7  -0.000146(    11)      6   0.000365(    21)     10   0.000245(    30)     0
 -----------------------------------------------------------------------------------------------
 Internal  Forces:  Max     0.072190998 RMS     0.013363333
 Force constants in Cartesian coordinates: 
                1             2             3             4             5 
      1  0.599217D+00
      2 -0.960697D-01  0.419472D+00
      3 -0.295782D-01 -0.915038D-01  0.778691D+00
      4 -0.936987D-01  0.988556D-03 -0.310616D-02  0.590703D+00
      5 -0.165295D-02 -0.699218D-01 -0.278057D-02 -0.302048D-01  0.795470D-01
      6 -0.319423D-01  0.201345D-02 -0.487385D+00 -0.126932D+00  0.800101D-02
      7 -0.324104D+00  0.236077D-02  0.849606D-01  0.990863D-02  0.485460D-04
      8 -0.929032D-02 -0.720317D-01  0.107682D-01 -0.284682D-03 -0.519350D-02
      9  0.872484D-01  0.676283D-02 -0.111177D+00  0.283849D-01  0.139068D-03
     10 -0.151353D+00  0.998849D-01 -0.508146D-01  0.635757D-02  0.122329D-02
     11  0.113582D+00 -0.225121D+00  0.866313D-01 -0.448376D-02  0.133734D-01
     12 -0.569115D-01  0.853807D-01 -0.128704D+00 -0.162154D-01  0.219562D-01
     13  0.112440D-01 -0.452146D-03  0.000000D+00 -0.515690D+00  0.309432D-01
     14  0.172697D-02  0.396210D-02  0.000000D+00  0.309993D-01 -0.267454D-01
     15  0.319423D-01 -0.201345D-02  0.000000D+00  0.126932D+00 -0.800101D-02
     16 -0.478899D-01 -0.446429D-02  0.366045D-03  0.254526D-02 -0.415799D-03
     17 -0.608223D-02 -0.590266D-01  0.477210D-03  0.292481D-02  0.896859D-02
     18  0.757836D-03  0.234951D-02 -0.595677D-01 -0.905880D-02 -0.193169D-01
     19  0.252504D-02  0.262102D-02 -0.836918D-02  0.288920D-03 -0.135072D-03
     20  0.310415D-02  0.656145D-02 -0.176403D-01 -0.138500D-03  0.647495D-04
     21  0.254641D-03  0.410361D-03 -0.116552D-02  0.754580D-05 -0.352771D-05
     22 -0.273866D-02  0.568570D-03  0.156700D-02 -0.139012D-03  0.649891D-04
     23 -0.139377D-01  0.313669D-02  0.743966D-02  0.221528D-03 -0.103566D-03
     24 -0.775149D-02  0.162206D-02  0.440710D-02 -0.344629D-03  0.161116D-03
     25  0.679497D-02 -0.543620D-02  0.497442D-02 -0.275039D-03  0.128583D-03
     26  0.862117D-02 -0.703209D-02  0.660826D-02 -0.224423D-04  0.104919D-04
     27  0.598017D-02 -0.502167D-02  0.490043D-02  0.332490D-03 -0.155441D-03
     28  0.733843D-03 -0.351782D-03  0.191659D-04  0.000000D+00  0.000000D+00
     29 -0.359517D-03  0.172342D-03 -0.938959D-05  0.000000D+00  0.000000D+00
     30  0.188277D-04 -0.902541D-05  0.000000D+00  0.000000D+00  0.000000D+00
     31 -0.676333D-03  0.324214D-03 -0.176640D-04  0.000000D+00  0.000000D+00
     32 -0.457612D-03  0.219366D-03 -0.119516D-04  0.000000D+00  0.000000D+00
     33 -0.518563D-04  0.248584D-04 -0.135434D-05  0.000000D+00  0.000000D+00
     34 -0.544957D-04  0.261236D-04 -0.142328D-05  0.000000D+00  0.000000D+00
     35  0.815518D-03 -0.390935D-03  0.212991D-04  0.000000D+00  0.000000D+00
     36  0.331001D-04 -0.158672D-04  0.000000D+00  0.000000D+00  0.000000D+00
                6             7             8             9            10 
      6  0.591721D+00
      7  0.000000D+00  0.322975D+00
      8  0.000000D+00 -0.820219D-03  0.585215D-01
      9  0.000000D+00 -0.904816D-01 -0.234965D-02  0.953609D-01
     10  0.000000D+00 -0.608763D-02  0.243213D-01 -0.174390D-01  0.144523D+00
     11  0.000000D+00 -0.219857D-02  0.934434D-02 -0.629818D-02 -0.115090D+00
     12  0.000000D+00  0.409163D-02 -0.153594D-01  0.117212D-01  0.631899D-01
     13  0.158874D+00  0.000000D+00  0.367469D-03  0.000000D+00 -0.304454D-03
     14 -0.100145D-01  0.000000D+00  0.582972D-02  0.000000D+00 -0.483001D-02
     15 -0.104336D+00  0.000000D+00  0.000000D+00  0.000000D+00  0.000000D+00
     16  0.000000D+00 -0.274017D-02 -0.142090D-01 -0.784968D-02  0.675651D-02
     17  0.000000D+00  0.632614D-03  0.348869D-02  0.181223D-02 -0.545701D-02
     18  0.000000D+00  0.142756D-02  0.694395D-02  0.408949D-02  0.505983D-02
     19  0.000000D+00 -0.110362D-03  0.195199D-03 -0.316151D-03 -0.248308D-03
     20  0.000000D+00  0.529043D-04 -0.935723D-04  0.151553D-03  0.119031D-03
     21  0.000000D+00 -0.288235D-05  0.509805D-05 -0.825699D-05 -0.648512D-05
     22  0.000000D+00  0.531001D-04 -0.939186D-04  0.152114D-03  0.119472D-03
     23  0.000000D+00 -0.846195D-04  0.149667D-03 -0.242407D-03 -0.190389D-03
     24  0.000000D+00  0.131642D-03 -0.232836D-03  0.377110D-03  0.296186D-03
     25  0.000000D+00  0.105060D-03 -0.185820D-03  0.300962D-03  0.236378D-03
     26  0.000000D+00  0.857255D-05 -0.151624D-04  0.245575D-04  0.192877D-04
     27  0.000000D+00 -0.127005D-03  0.224635D-03 -0.363827D-03 -0.285753D-03
     28  0.000000D+00  0.000000D+00  0.000000D+00  0.000000D+00  0.000000D+00
     29  0.000000D+00  0.000000D+00  0.000000D+00  0.000000D+00  0.000000D+00
     30  0.000000D+00  0.000000D+00  0.000000D+00  0.000000D+00  0.000000D+00
     31  0.000000D+00  0.000000D+00  0.000000D+00  0.000000D+00  0.000000D+00
     32  0.000000D+00  0.000000D+00  0.000000D+00  0.000000D+00  0.000000D+00
     33  0.000000D+00  0.000000D+00  0.000000D+00  0.000000D+00  0.000000D+00
     34  0.000000D+00  0.000000D+00  0.000000D+00  0.000000D+00  0.000000D+00
     35  0.000000D+00  0.000000D+00  0.000000D+00  0.000000D+00  0.000000D+00
     36  0.000000D+00  0.000000D+00  0.000000D+00  0.000000D+00  0.000000D+00
               11            12            13            14            15 
     11  0.212933D+00
     12 -0.869555D-01  0.111943D+00
     13 -0.226127D-03  0.000000D+00  0.504583D+00
     14 -0.358738D-02  0.000000D+00 -0.305541D-01  0.217835D-01
     15  0.000000D+00  0.000000D+00 -0.158874D+00  0.100145D-01  0.104336D+00
     16  0.840902D-02  0.597268D-02  0.167533D-03  0.265783D-02  0.000000D+00
     17 -0.693917D-02 -0.508371D-02 -0.783229D-04 -0.124255D-02  0.000000D+00
     18  0.662205D-02  0.504474D-02  0.000000D+00  0.000000D+00  0.000000D+00
     19 -0.174834D-04  0.294059D-03  0.000000D+00  0.000000D+00  0.000000D+00
     20  0.838101D-05 -0.140963D-03  0.000000D+00  0.000000D+00  0.000000D+00
     21  0.000000D+00  0.768002D-05  0.000000D+00  0.000000D+00  0.000000D+00
     22  0.841202D-05 -0.141485D-03  0.000000D+00  0.000000D+00  0.000000D+00
     23 -0.134053D-04  0.225468D-03  0.000000D+00  0.000000D+00  0.000000D+00
     24  0.208545D-04 -0.350758D-03  0.000000D+00  0.000000D+00  0.000000D+00
     25  0.166434D-04 -0.279931D-03  0.000000D+00  0.000000D+00  0.000000D+00
     26  0.135805D-05 -0.228415D-04  0.000000D+00  0.000000D+00  0.000000D+00
     27 -0.201199D-04  0.338404D-03  0.000000D+00  0.000000D+00  0.000000D+00
     28  0.000000D+00  0.000000D+00  0.000000D+00  0.000000D+00  0.000000D+00
     29  0.000000D+00  0.000000D+00  0.000000D+00  0.000000D+00  0.000000D+00
     30  0.000000D+00  0.000000D+00  0.000000D+00  0.000000D+00  0.000000D+00
     31  0.000000D+00  0.000000D+00  0.000000D+00  0.000000D+00  0.000000D+00
     32  0.000000D+00  0.000000D+00  0.000000D+00  0.000000D+00  0.000000D+00
     33  0.000000D+00  0.000000D+00  0.000000D+00  0.000000D+00  0.000000D+00
     34  0.000000D+00  0.000000D+00  0.000000D+00  0.000000D+00  0.000000D+00
     35  0.000000D+00  0.000000D+00  0.000000D+00  0.000000D+00  0.000000D+00
     36  0.000000D+00  0.000000D+00  0.000000D+00  0.000000D+00  0.000000D+00
               16            17            18            19            20 
     16  0.597682D+00
     17 -0.944004D-01  0.435695D+00
     18 -0.466659D-01 -0.105452D+00  0.616717D+00
     19 -0.103147D+00 -0.833707D-03  0.922780D-02  0.661970D+00
     20 -0.782223D-03 -0.103576D+00  0.750436D-02  0.464980D-03  0.661956D+00
     21  0.100571D-01  0.937094D-02 -0.316692D+00 -0.323874D-04 -0.240103D-03
     22 -0.313108D+00 -0.199028D-02  0.898403D-01  0.100227D-01  0.866374D-04
     23 -0.130158D-01 -0.738548D-01  0.134521D-01 -0.847122D-03  0.256299D-02
     24  0.959096D-01  0.945614D-02 -0.119840D+00  0.256426D-01  0.356761D-03
     25 -0.158043D+00  0.105338D+00 -0.514232D-01  0.672708D-02 -0.515354D-02
     26  0.116277D+00 -0.221301D+00  0.871214D-01 -0.369702D-02  0.723992D-02
     27 -0.586232D-01  0.886998D-01 -0.129823D+00 -0.156035D-01  0.197096D-01
     28  0.462249D-02  0.397264D-02  0.391375D-03 -0.117824D+00 -0.828402D-01
     29  0.334853D-02  0.955057D-02  0.575340D-03 -0.831475D-01 -0.252836D+00
     30 -0.108031D-01 -0.222678D-01 -0.148249D-02 -0.487513D-01 -0.102090D+00
     31  0.451410D-02 -0.448490D-02  0.163901D-04 -0.145293D+00  0.104056D+00
     32 -0.353442D-02  0.669305D-02  0.126306D-03  0.104869D+00 -0.241799D+00
     33 -0.142741D-01  0.212414D-01  0.256920D-03 -0.544693D-01  0.848751D-01
     34  0.864069D-02  0.458691D-03  0.426881D-03 -0.314910D+00 -0.189696D-01
     35  0.129470D-03  0.154386D-02  0.736147D-04 -0.194720D-01 -0.800900D-01
     36  0.259105D-01  0.174545D-02  0.129625D-02  0.923774D-01  0.751427D-02
               21            22            23            24            25 
     21  0.666454D+00
     22  0.475680D-03  0.312884D+00
     23  0.722056D-04  0.392705D-02  0.586378D-01
     24  0.122291D-02 -0.969622D-01 -0.529228D-02  0.102016D+00
     25  0.913392D-04 -0.709333D-02  0.239201D-01 -0.169221D-01  0.151554D+00
     26  0.142568D-03 -0.257147D-02  0.948840D-02 -0.609165D-02 -0.118631D+00
     27  0.127335D-03  0.506861D-02 -0.156549D-01  0.121674D-01  0.632587D-01
     28 -0.431579D-01 -0.597809D-05  0.170341D-02  0.742154D-04 -0.132583D-02
     29 -0.907035D-01  0.292873D-05 -0.834517D-03 -0.363589D-04  0.649539D-03
     30 -0.128280D+00  0.000000D+00  0.437030D-04  0.190409D-05 -0.340159D-04
     31 -0.473416D-01  0.550960D-05 -0.156991D-02 -0.683993D-04  0.122193D-02
     32  0.743107D-01  0.372784D-05 -0.106222D-02 -0.462795D-04  0.826768D-03
     33 -0.114516D+00  0.000000D+00 -0.120370D-03 -0.524436D-05  0.936888D-04
     34  0.796550D-01  0.000000D+00 -0.126496D-03 -0.551129D-05  0.984573D-04
     35  0.663570D-02 -0.664344D-05  0.189299D-02  0.824754D-04 -0.147340D-02
     36 -0.107151D+00  0.000000D+00  0.768325D-04  0.334750D-05 -0.598019D-04
               26            27            28            29            30 
     26  0.211606D+00
     27 -0.877822D-01  0.112653D+00
     28 -0.108139D-02 -0.109716D-03  0.103298D+00
     29  0.529785D-03  0.537512D-04  0.909804D-01  0.250822D+00
     30 -0.277444D-04 -0.281491D-05  0.469847D-01  0.984566D-01  0.109644D+00
     31  0.996645D-03  0.101118D-03  0.141511D-01 -0.121689D-01  0.105512D-01
     32  0.674338D-03  0.684174D-04  0.150997D-01 -0.131284D-01  0.115382D-01
     33  0.764155D-04  0.775301D-05  0.133448D-01 -0.117945D-01  0.105706D-01
     34  0.803049D-04  0.814762D-05 -0.364960D-02  0.694573D-03  0.203383D-02
     35 -0.120175D-02 -0.121928D-03 -0.274828D-01  0.572337D-02  0.143563D-01
     36 -0.487763D-04 -0.494878D-05 -0.175466D-01  0.345805D-02  0.954739D-02
               31            32            33            34            35 
     31  0.133157D+00
     32 -0.113997D+00  0.237528D+00
     33  0.515033D-01 -0.801881D-01  0.955455D-01
     34 -0.708047D-02 -0.280965D-02  0.385303D-02  0.316955D+00
     35  0.268438D-01  0.108743D-01 -0.141148D-01  0.206461D-01  0.616482D-01
     36 -0.147443D-01 -0.579732D-02  0.814220D-02 -0.859700D-01 -0.693265D-02
               36 
     36  0.881654D-01
 FCInt: Cartesian first derivatives: 
                 1             2             3             4             5 
      1   0.000000D+00  0.000000D+00  0.000000D+00  0.000000D+00  0.000000D+00
      2   0.000000D+00  0.000000D+00  0.000000D+00  0.000000D+00  0.000000D+00
      3   0.000000D+00  0.000000D+00  0.000000D+00  0.000000D+00  0.000000D+00
                 6             7             8             9            10 
      1   0.000000D+00  0.000000D+00  0.000000D+00  0.000000D+00  0.000000D+00
      2   0.000000D+00  0.000000D+00  0.000000D+00  0.000000D+00  0.000000D+00
      3   0.000000D+00  0.000000D+00  0.000000D+00  0.000000D+00  0.000000D+00
                11            12 
      1   0.000000D+00  0.000000D+00
      2   0.000000D+00  0.000000D+00
      3   0.000000D+00  0.000000D+00
 FCInt: Cartesian force constants: 
                1             2             3             4             5 
      1  0.599217D+00
      2 -0.960697D-01  0.419472D+00
      3 -0.295782D-01 -0.915038D-01  0.778691D+00
      4 -0.936987D-01  0.988556D-03 -0.310616D-02  0.590703D+00
      5 -0.165295D-02 -0.699218D-01 -0.278057D-02 -0.302048D-01  0.795470D-01
      6 -0.319423D-01  0.201345D-02 -0.487385D+00 -0.126932D+00  0.800101D-02
      7 -0.324104D+00  0.236077D-02  0.849606D-01  0.990863D-02  0.485460D-04
      8 -0.929032D-02 -0.720317D-01  0.107682D-01 -0.284682D-03 -0.519350D-02
      9  0.872484D-01  0.676283D-02 -0.111177D+00  0.283849D-01  0.139068D-03
     10 -0.151353D+00  0.998849D-01 -0.508146D-01  0.635757D-02  0.122329D-02
     11  0.113582D+00 -0.225121D+00  0.866313D-01 -0.448376D-02  0.133734D-01
     12 -0.569115D-01  0.853807D-01 -0.128704D+00 -0.162154D-01  0.219562D-01
     13  0.112440D-01 -0.452146D-03  0.000000D+00 -0.515690D+00  0.309432D-01
     14  0.172697D-02  0.396210D-02  0.000000D+00  0.309993D-01 -0.267454D-01
     15  0.319423D-01 -0.201345D-02  0.000000D+00  0.126932D+00 -0.800101D-02
     16 -0.478899D-01 -0.446429D-02  0.366045D-03  0.254526D-02 -0.415799D-03
     17 -0.608223D-02 -0.590266D-01  0.477210D-03  0.292481D-02  0.896859D-02
     18  0.757836D-03  0.234951D-02 -0.595677D-01 -0.905880D-02 -0.193169D-01
     19  0.252504D-02  0.262102D-02 -0.836918D-02  0.288920D-03 -0.135072D-03
     20  0.310415D-02  0.656145D-02 -0.176403D-01 -0.138500D-03  0.647495D-04
     21  0.254641D-03  0.410361D-03 -0.116552D-02  0.754580D-05 -0.352771D-05
     22 -0.273866D-02  0.568570D-03  0.156700D-02 -0.139012D-03  0.649891D-04
     23 -0.139377D-01  0.313669D-02  0.743966D-02  0.221528D-03 -0.103566D-03
     24 -0.775149D-02  0.162206D-02  0.440710D-02 -0.344629D-03  0.161116D-03
     25  0.679497D-02 -0.543620D-02  0.497442D-02 -0.275039D-03  0.128583D-03
     26  0.862117D-02 -0.703209D-02  0.660826D-02 -0.224423D-04  0.104919D-04
     27  0.598017D-02 -0.502167D-02  0.490043D-02  0.332490D-03 -0.155441D-03
     28  0.733843D-03 -0.351782D-03  0.191659D-04  0.000000D+00  0.000000D+00
     29 -0.359517D-03  0.172342D-03 -0.938959D-05  0.000000D+00  0.000000D+00
     30  0.188277D-04 -0.902541D-05  0.000000D+00  0.000000D+00  0.000000D+00
     31 -0.676333D-03  0.324214D-03 -0.176640D-04  0.000000D+00  0.000000D+00
     32 -0.457612D-03  0.219366D-03 -0.119516D-04  0.000000D+00  0.000000D+00
     33 -0.518563D-04  0.248584D-04 -0.135434D-05  0.000000D+00  0.000000D+00
     34 -0.544957D-04  0.261236D-04 -0.142328D-05  0.000000D+00  0.000000D+00
     35  0.815518D-03 -0.390935D-03  0.212991D-04  0.000000D+00  0.000000D+00
     36  0.331001D-04 -0.158672D-04  0.000000D+00  0.000000D+00  0.000000D+00
                6             7             8             9            10 
      6  0.591721D+00
      7  0.000000D+00  0.322975D+00
      8  0.000000D+00 -0.820219D-03  0.585215D-01
      9  0.000000D+00 -0.904816D-01 -0.234965D-02  0.953609D-01
     10  0.000000D+00 -0.608763D-02  0.243213D-01 -0.174390D-01  0.144523D+00
     11  0.000000D+00 -0.219857D-02  0.934434D-02 -0.629818D-02 -0.115090D+00
     12  0.000000D+00  0.409163D-02 -0.153594D-01  0.117212D-01  0.631899D-01
     13  0.158874D+00  0.000000D+00  0.367469D-03  0.000000D+00 -0.304454D-03
     14 -0.100145D-01  0.000000D+00  0.582972D-02  0.000000D+00 -0.483001D-02
     15 -0.104336D+00  0.000000D+00  0.000000D+00  0.000000D+00  0.000000D+00
     16  0.000000D+00 -0.274017D-02 -0.142090D-01 -0.784968D-02  0.675651D-02
     17  0.000000D+00  0.632614D-03  0.348869D-02  0.181223D-02 -0.545701D-02
     18  0.000000D+00  0.142756D-02  0.694395D-02  0.408949D-02  0.505983D-02
     19  0.000000D+00 -0.110362D-03  0.195199D-03 -0.316151D-03 -0.248308D-03
     20  0.000000D+00  0.529043D-04 -0.935723D-04  0.151553D-03  0.119031D-03
     21  0.000000D+00 -0.288235D-05  0.509805D-05 -0.825699D-05 -0.648512D-05
     22  0.000000D+00  0.531001D-04 -0.939186D-04  0.152114D-03  0.119472D-03
     23  0.000000D+00 -0.846195D-04  0.149667D-03 -0.242407D-03 -0.190389D-03
     24  0.000000D+00  0.131642D-03 -0.232836D-03  0.377110D-03  0.296186D-03
     25  0.000000D+00  0.105060D-03 -0.185820D-03  0.300962D-03  0.236378D-03
     26  0.000000D+00  0.857255D-05 -0.151624D-04  0.245575D-04  0.192877D-04
     27  0.000000D+00 -0.127005D-03  0.224635D-03 -0.363827D-03 -0.285753D-03
     28  0.000000D+00  0.000000D+00  0.000000D+00  0.000000D+00  0.000000D+00
     29  0.000000D+00  0.000000D+00  0.000000D+00  0.000000D+00  0.000000D+00
     30  0.000000D+00  0.000000D+00  0.000000D+00  0.000000D+00  0.000000D+00
     31  0.000000D+00  0.000000D+00  0.000000D+00  0.000000D+00  0.000000D+00
     32  0.000000D+00  0.000000D+00  0.000000D+00  0.000000D+00  0.000000D+00
     33  0.000000D+00  0.000000D+00  0.000000D+00  0.000000D+00  0.000000D+00
     34  0.000000D+00  0.000000D+00  0.000000D+00  0.000000D+00  0.000000D+00
     35  0.000000D+00  0.000000D+00  0.000000D+00  0.000000D+00  0.000000D+00
     36  0.000000D+00  0.000000D+00  0.000000D+00  0.000000D+00  0.000000D+00
               11            12            13            14            15 
     11  0.212933D+00
     12 -0.869555D-01  0.111943D+00
     13 -0.226127D-03  0.000000D+00  0.504583D+00
     14 -0.358738D-02  0.000000D+00 -0.305541D-01  0.217835D-01
     15  0.000000D+00  0.000000D+00 -0.158874D+00  0.100145D-01  0.104336D+00
     16  0.840902D-02  0.597268D-02  0.167533D-03  0.265783D-02  0.000000D+00
     17 -0.693917D-02 -0.508371D-02 -0.783229D-04 -0.124255D-02  0.000000D+00
     18  0.662205D-02  0.504474D-02  0.000000D+00  0.000000D+00  0.000000D+00
     19 -0.174834D-04  0.294059D-03  0.000000D+00  0.000000D+00  0.000000D+00
     20  0.838101D-05 -0.140963D-03  0.000000D+00  0.000000D+00  0.000000D+00
     21  0.000000D+00  0.768002D-05  0.000000D+00  0.000000D+00  0.000000D+00
     22  0.841202D-05 -0.141485D-03  0.000000D+00  0.000000D+00  0.000000D+00
     23 -0.134053D-04  0.225468D-03  0.000000D+00  0.000000D+00  0.000000D+00
     24  0.208545D-04 -0.350758D-03  0.000000D+00  0.000000D+00  0.000000D+00
     25  0.166434D-04 -0.279931D-03  0.000000D+00  0.000000D+00  0.000000D+00
     26  0.135805D-05 -0.228415D-04  0.000000D+00  0.000000D+00  0.000000D+00
     27 -0.201199D-04  0.338404D-03  0.000000D+00  0.000000D+00  0.000000D+00
     28  0.000000D+00  0.000000D+00  0.000000D+00  0.000000D+00  0.000000D+00
     29  0.000000D+00  0.000000D+00  0.000000D+00  0.000000D+00  0.000000D+00
     30  0.000000D+00  0.000000D+00  0.000000D+00  0.000000D+00  0.000000D+00
     31  0.000000D+00  0.000000D+00  0.000000D+00  0.000000D+00  0.000000D+00
     32  0.000000D+00  0.000000D+00  0.000000D+00  0.000000D+00  0.000000D+00
     33  0.000000D+00  0.000000D+00  0.000000D+00  0.000000D+00  0.000000D+00
     34  0.000000D+00  0.000000D+00  0.000000D+00  0.000000D+00  0.000000D+00
     35  0.000000D+00  0.000000D+00  0.000000D+00  0.000000D+00  0.000000D+00
     36  0.000000D+00  0.000000D+00  0.000000D+00  0.000000D+00  0.000000D+00
               16            17            18            19            20 
     16  0.597682D+00
     17 -0.944004D-01  0.435695D+00
     18 -0.466659D-01 -0.105452D+00  0.616717D+00
     19 -0.103147D+00 -0.833707D-03  0.922780D-02  0.661970D+00
     20 -0.782223D-03 -0.103576D+00  0.750436D-02  0.464980D-03  0.661956D+00
     21  0.100571D-01  0.937094D-02 -0.316692D+00 -0.323874D-04 -0.240103D-03
     22 -0.313108D+00 -0.199028D-02  0.898403D-01  0.100227D-01  0.866374D-04
     23 -0.130158D-01 -0.738548D-01  0.134521D-01 -0.847122D-03  0.256299D-02
     24  0.959096D-01  0.945614D-02 -0.119840D+00  0.256426D-01  0.356761D-03
     25 -0.158043D+00  0.105338D+00 -0.514232D-01  0.672708D-02 -0.515354D-02
     26  0.116277D+00 -0.221301D+00  0.871214D-01 -0.369702D-02  0.723992D-02
     27 -0.586232D-01  0.886998D-01 -0.129823D+00 -0.156035D-01  0.197096D-01
     28  0.462249D-02  0.397264D-02  0.391375D-03 -0.117824D+00 -0.828402D-01
     29  0.334853D-02  0.955057D-02  0.575340D-03 -0.831475D-01 -0.252836D+00
     30 -0.108031D-01 -0.222678D-01 -0.148249D-02 -0.487513D-01 -0.102090D+00
     31  0.451410D-02 -0.448490D-02  0.163901D-04 -0.145293D+00  0.104056D+00
     32 -0.353442D-02  0.669305D-02  0.126306D-03  0.104869D+00 -0.241799D+00
     33 -0.142741D-01  0.212414D-01  0.256920D-03 -0.544693D-01  0.848751D-01
     34  0.864069D-02  0.458691D-03  0.426881D-03 -0.314910D+00 -0.189696D-01
     35  0.129470D-03  0.154386D-02  0.736147D-04 -0.194720D-01 -0.800900D-01
     36  0.259105D-01  0.174545D-02  0.129625D-02  0.923774D-01  0.751427D-02
               21            22            23            24            25 
     21  0.666454D+00
     22  0.475680D-03  0.312884D+00
     23  0.722056D-04  0.392705D-02  0.586378D-01
     24  0.122291D-02 -0.969622D-01 -0.529228D-02  0.102016D+00
     25  0.913392D-04 -0.709333D-02  0.239201D-01 -0.169221D-01  0.151554D+00
     26  0.142568D-03 -0.257147D-02  0.948840D-02 -0.609165D-02 -0.118631D+00
     27  0.127335D-03  0.506861D-02 -0.156549D-01  0.121674D-01  0.632587D-01
     28 -0.431579D-01 -0.597809D-05  0.170341D-02  0.742154D-04 -0.132583D-02
     29 -0.907035D-01  0.292873D-05 -0.834517D-03 -0.363589D-04  0.649539D-03
     30 -0.128280D+00  0.000000D+00  0.437030D-04  0.190409D-05 -0.340159D-04
     31 -0.473416D-01  0.550960D-05 -0.156991D-02 -0.683993D-04  0.122193D-02
     32  0.743107D-01  0.372784D-05 -0.106222D-02 -0.462795D-04  0.826768D-03
     33 -0.114516D+00  0.000000D+00 -0.120370D-03 -0.524436D-05  0.936888D-04
     34  0.796550D-01  0.000000D+00 -0.126496D-03 -0.551129D-05  0.984573D-04
     35  0.663570D-02 -0.664344D-05  0.189299D-02  0.824754D-04 -0.147340D-02
     36 -0.107151D+00  0.000000D+00  0.768325D-04  0.334750D-05 -0.598019D-04
               26            27            28            29            30 
     26  0.211606D+00
     27 -0.877822D-01  0.112653D+00
     28 -0.108139D-02 -0.109716D-03  0.103298D+00
     29  0.529785D-03  0.537512D-04  0.909804D-01  0.250822D+00
     30 -0.277444D-04 -0.281491D-05  0.469847D-01  0.984566D-01  0.109644D+00
     31  0.996645D-03  0.101118D-03  0.141511D-01 -0.121689D-01  0.105512D-01
     32  0.674338D-03  0.684174D-04  0.150997D-01 -0.131284D-01  0.115382D-01
     33  0.764155D-04  0.775301D-05  0.133448D-01 -0.117945D-01  0.105706D-01
     34  0.803049D-04  0.814762D-05 -0.364960D-02  0.694573D-03  0.203383D-02
     35 -0.120175D-02 -0.121928D-03 -0.274828D-01  0.572337D-02  0.143563D-01
     36 -0.487763D-04 -0.494878D-05 -0.175466D-01  0.345805D-02  0.954739D-02
               31            32            33            34            35 
     31  0.133157D+00
     32 -0.113997D+00  0.237528D+00
     33  0.515033D-01 -0.801881D-01  0.955455D-01
     34 -0.708047D-02 -0.280965D-02  0.385303D-02  0.316955D+00
     35  0.268438D-01  0.108743D-01 -0.141148D-01  0.206461D-01  0.616482D-01
     36 -0.147443D-01 -0.579732D-02  0.814220D-02 -0.859700D-01 -0.693265D-02
               36 
     36  0.881654D-01
 Internal force constants: 
                1             2             3             4             5 
      1  0.487385D+00
      2  0.000000D+00  0.354561D+00
      3  0.000000D+00  0.000000D+00  0.347780D+00
      4  0.000000D+00  0.000000D+00  0.000000D+00  0.561893D+00
      5  0.000000D+00  0.000000D+00  0.000000D+00  0.000000D+00  0.597884D-01
      6  0.000000D+00  0.000000D+00  0.000000D+00  0.000000D+00  0.000000D+00
      7  0.000000D+00  0.000000D+00  0.000000D+00  0.000000D+00  0.000000D+00
      8  0.000000D+00  0.000000D+00  0.000000D+00  0.000000D+00  0.000000D+00
      9  0.000000D+00  0.000000D+00  0.000000D+00  0.000000D+00  0.000000D+00
     10  0.000000D+00  0.000000D+00  0.000000D+00  0.000000D+00  0.000000D+00
     11  0.000000D+00  0.000000D+00  0.000000D+00  0.000000D+00  0.000000D+00
     12  0.000000D+00  0.000000D+00  0.000000D+00  0.000000D+00  0.000000D+00
     13  0.000000D+00  0.000000D+00  0.000000D+00  0.000000D+00  0.000000D+00
     14  0.000000D+00  0.000000D+00  0.000000D+00  0.000000D+00  0.000000D+00
     15  0.000000D+00  0.000000D+00  0.000000D+00  0.000000D+00  0.000000D+00
     16  0.000000D+00  0.000000D+00  0.000000D+00  0.000000D+00  0.000000D+00
     17  0.000000D+00  0.000000D+00  0.000000D+00  0.000000D+00  0.000000D+00
     18  0.000000D+00  0.000000D+00  0.000000D+00  0.000000D+00  0.000000D+00
     19  0.000000D+00  0.000000D+00  0.000000D+00  0.000000D+00  0.000000D+00
     20  0.000000D+00  0.000000D+00  0.000000D+00  0.000000D+00  0.000000D+00
     21  0.000000D+00  0.000000D+00  0.000000D+00  0.000000D+00  0.000000D+00
     22  0.000000D+00  0.000000D+00  0.000000D+00  0.000000D+00  0.000000D+00
     23  0.000000D+00  0.000000D+00  0.000000D+00  0.000000D+00  0.000000D+00
     24  0.000000D+00  0.000000D+00  0.000000D+00  0.000000D+00  0.000000D+00
     25  0.000000D+00  0.000000D+00  0.000000D+00  0.000000D+00  0.000000D+00
     26  0.000000D+00  0.000000D+00  0.000000D+00  0.000000D+00  0.000000D+00
     27  0.000000D+00  0.000000D+00  0.000000D+00  0.000000D+00  0.000000D+00
     28  0.000000D+00  0.000000D+00  0.000000D+00  0.000000D+00  0.000000D+00
     29  0.000000D+00  0.000000D+00  0.000000D+00  0.000000D+00  0.000000D+00
     30  0.000000D+00  0.000000D+00  0.000000D+00  0.000000D+00  0.000000D+00
                6             7             8             9            10 
      6  0.317457D+00
      7  0.000000D+00  0.350798D+00
      8  0.000000D+00  0.000000D+00  0.352673D+00
      9  0.000000D+00  0.000000D+00  0.000000D+00  0.344796D+00
     10  0.000000D+00  0.000000D+00  0.000000D+00  0.000000D+00  0.346858D+00
     11  0.000000D+00  0.000000D+00  0.000000D+00  0.000000D+00  0.000000D+00
     12  0.000000D+00  0.000000D+00  0.000000D+00  0.000000D+00  0.000000D+00
     13  0.000000D+00  0.000000D+00  0.000000D+00  0.000000D+00  0.000000D+00
     14  0.000000D+00  0.000000D+00  0.000000D+00  0.000000D+00  0.000000D+00
     15  0.000000D+00  0.000000D+00  0.000000D+00  0.000000D+00  0.000000D+00
     16  0.000000D+00  0.000000D+00  0.000000D+00  0.000000D+00  0.000000D+00
     17  0.000000D+00  0.000000D+00  0.000000D+00  0.000000D+00  0.000000D+00
     18  0.000000D+00  0.000000D+00  0.000000D+00  0.000000D+00  0.000000D+00
     19  0.000000D+00  0.000000D+00  0.000000D+00  0.000000D+00  0.000000D+00
     20  0.000000D+00  0.000000D+00  0.000000D+00  0.000000D+00  0.000000D+00
     21  0.000000D+00  0.000000D+00  0.000000D+00  0.000000D+00  0.000000D+00
     22  0.000000D+00  0.000000D+00  0.000000D+00  0.000000D+00  0.000000D+00
     23  0.000000D+00  0.000000D+00  0.000000D+00  0.000000D+00  0.000000D+00
     24  0.000000D+00  0.000000D+00  0.000000D+00  0.000000D+00  0.000000D+00
     25  0.000000D+00  0.000000D+00  0.000000D+00  0.000000D+00  0.000000D+00
     26  0.000000D+00  0.000000D+00  0.000000D+00  0.000000D+00  0.000000D+00
     27  0.000000D+00  0.000000D+00  0.000000D+00  0.000000D+00  0.000000D+00
     28  0.000000D+00  0.000000D+00  0.000000D+00  0.000000D+00  0.000000D+00
     29  0.000000D+00  0.000000D+00  0.000000D+00  0.000000D+00  0.000000D+00
     30  0.000000D+00  0.000000D+00  0.000000D+00  0.000000D+00  0.000000D+00
               11            12            13            14            15 
     11  0.347319D+00
     12  0.000000D+00  0.267862D+00
     13  0.000000D+00  0.576096D-01  0.267254D+00
     14  0.000000D+00  0.000000D+00  0.000000D+00  0.160000D+00
     15  0.000000D+00  0.399737D-01  0.512871D-01  0.000000D+00  0.338163D+00
     16  0.000000D+00 -0.216530D-04  0.210081D-04  0.000000D+00  0.106898D-03
     17  0.000000D+00 -0.185526D-02  0.180001D-02  0.000000D+00  0.492487D-04
     18  0.000000D+00  0.185278D-02 -0.179760D-02  0.000000D+00  0.117762D-03
     19  0.000000D+00  0.000000D+00  0.000000D+00  0.000000D+00  0.118323D-04
     20  0.000000D+00  0.000000D+00  0.000000D+00  0.000000D+00  0.307035D-05
     21  0.000000D+00  0.000000D+00  0.000000D+00  0.000000D+00  0.268238D-05
     22  0.000000D+00  0.722582D-01  0.475195D-02  0.000000D+00 -0.675539D-01
     23  0.000000D+00  0.000000D+00  0.000000D+00  0.000000D+00  0.000000D+00
     24  0.000000D+00 -0.623006D-01  0.624969D-01  0.000000D+00  0.712151D-02
     25  0.000000D+00  0.614749D-02 -0.596442D-02  0.000000D+00  0.115978D-03
     26  0.000000D+00 -0.183377D-02  0.177916D-02  0.000000D+00 -0.319764D-04
     27  0.000000D+00 -0.911636D-03  0.884488D-03  0.000000D+00 -0.154726D-03
     28  0.000000D+00  0.000000D+00  0.000000D+00  0.000000D+00  0.000000D+00
     29  0.000000D+00  0.000000D+00  0.000000D+00  0.000000D+00  0.171472D-04
     30  0.000000D+00  0.000000D+00  0.000000D+00  0.000000D+00 -0.164281D-04
               16            17            18            19            20 
     16  0.341416D+00
     17  0.423185D-01  0.272402D+00
     18  0.423306D-01  0.693986D-01  0.271335D+00
     19 -0.118613D-04  0.000000D+00  0.000000D+00  0.251793D+00
     20 -0.311122D-05  0.000000D+00  0.000000D+00  0.463359D-01  0.252550D+00
     21 -0.263371D-05  0.000000D+00  0.000000D+00  0.461776D-01  0.467274D-01
     22  0.124085D-04  0.106318D-02 -0.106176D-02  0.000000D+00  0.000000D+00
     23  0.000000D+00  0.000000D+00  0.000000D+00  0.000000D+00  0.000000D+00
     24 -0.283867D-04 -0.198288D-02  0.199000D-02  0.000000D+00  0.165311D-05
     25 -0.700578D-04 -0.625540D-02  0.625611D-02  0.000000D+00  0.834093D-05
     26  0.324276D-03 -0.580691D-01  0.576341D-01  0.000000D+00 -0.122799D-05
     27  0.674317D-01 -0.706860D-01 -0.126314D-01  0.000000D+00  0.000000D+00
     28  0.000000D+00  0.000000D+00  0.000000D+00  0.000000D+00  0.122799D-05
     29 -0.172926D-04  0.000000D+00  0.000000D+00 -0.665451D-01  0.870605D-04
     30  0.164063D-04  0.000000D+00  0.000000D+00  0.664460D-01 -0.667354D-01
               21            22            23            24            25 
     21  0.252616D+00
     22  0.000000D+00  0.206203D+00
     23  0.000000D+00  0.192989D-01  0.578966D-01
     24 -0.101564D-05 -0.961379D-01  0.192989D-01  0.224315D+00
     25 -0.723159D-05 -0.352290D-02  0.000000D+00  0.690054D-02  0.207012D-01
     26  0.000000D+00  0.105087D-02  0.000000D+00 -0.184380D-02 -0.620355D-02
     27  0.000000D+00  0.522426D-03  0.000000D+00 -0.888146D-03 -0.308293D-02
     28  0.000000D+00  0.000000D+00  0.000000D+00  0.000000D+00  0.000000D+00
     29  0.668481D-01  0.000000D+00  0.000000D+00  0.000000D+00  0.150064D-04
     30 -0.183657D-03  0.000000D+00  0.000000D+00  0.475905D-05  0.140861D-04
               26            27            28            29            30 
     26  0.229796D+00
     27  0.104303D+00  0.204699D+00
     28 -0.205577D-01  0.205577D-01  0.616731D-01
     29 -0.685224D-02  0.685256D-02  0.205574D-01  0.221082D+00
     30 -0.685613D-02  0.685256D-02  0.205612D-01 -0.100183D+00  0.221278D+00
 Frcnst in PutFF: 
                1             2             3             4             5 
      1  0.487385D+00
      2  0.000000D+00  0.354561D+00
      3  0.000000D+00  0.000000D+00  0.347780D+00
      4  0.000000D+00  0.000000D+00  0.000000D+00  0.561893D+00
      5  0.000000D+00  0.000000D+00  0.000000D+00  0.000000D+00  0.267862D+00
      6  0.000000D+00  0.000000D+00  0.000000D+00  0.000000D+00  0.576096D-01
      7  0.000000D+00  0.000000D+00  0.000000D+00  0.000000D+00  0.000000D+00
      8  0.000000D+00  0.000000D+00  0.000000D+00  0.000000D+00  0.722582D-01
      9  0.000000D+00  0.000000D+00  0.000000D+00  0.000000D+00  0.000000D+00
     10  0.000000D+00  0.000000D+00  0.000000D+00  0.000000D+00  0.000000D+00
     11  0.000000D+00  0.000000D+00  0.000000D+00  0.000000D+00  0.000000D+00
     12  0.000000D+00  0.000000D+00  0.000000D+00  0.000000D+00  0.000000D+00
     13  0.000000D+00  0.000000D+00  0.000000D+00  0.000000D+00  0.000000D+00
     14  0.000000D+00  0.000000D+00  0.000000D+00  0.000000D+00  0.000000D+00
     15  0.000000D+00  0.000000D+00  0.000000D+00  0.000000D+00 -0.185526D-02
     16  0.000000D+00  0.000000D+00  0.000000D+00  0.000000D+00  0.185278D-02
     17  0.000000D+00  0.000000D+00  0.000000D+00  0.000000D+00  0.000000D+00
     18  0.000000D+00  0.000000D+00  0.000000D+00  0.000000D+00  0.000000D+00
     19  0.000000D+00  0.000000D+00  0.000000D+00  0.000000D+00  0.000000D+00
     20  0.000000D+00  0.000000D+00  0.000000D+00  0.000000D+00 -0.911636D-03
     21  0.000000D+00  0.000000D+00  0.000000D+00  0.000000D+00  0.000000D+00
     22  0.000000D+00  0.000000D+00  0.000000D+00  0.000000D+00  0.000000D+00
     23  0.000000D+00  0.000000D+00  0.000000D+00  0.000000D+00 -0.216530D-04
     24  0.000000D+00  0.000000D+00  0.000000D+00  0.000000D+00  0.614749D-02
     25  0.000000D+00  0.000000D+00  0.000000D+00  0.000000D+00 -0.183377D-02
     26  0.000000D+00  0.000000D+00  0.000000D+00  0.000000D+00  0.000000D+00
     27  0.000000D+00  0.000000D+00  0.000000D+00  0.000000D+00  0.000000D+00
     28  0.000000D+00  0.000000D+00  0.000000D+00  0.000000D+00 -0.623006D-01
     29  0.000000D+00  0.000000D+00  0.000000D+00  0.000000D+00  0.399737D-01
     30  0.000000D+00  0.000000D+00  0.000000D+00  0.000000D+00  0.000000D+00
                6             7             8             9            10 
      6  0.267254D+00
      7  0.000000D+00  0.160000D+00
      8  0.475195D-02  0.000000D+00  0.206203D+00
      9  0.000000D+00  0.000000D+00  0.000000D+00  0.317457D+00
     10  0.000000D+00  0.000000D+00  0.000000D+00  0.000000D+00  0.350798D+00
     11  0.000000D+00  0.000000D+00  0.000000D+00  0.000000D+00  0.000000D+00
     12  0.000000D+00  0.000000D+00  0.000000D+00  0.000000D+00  0.000000D+00
     13  0.000000D+00  0.000000D+00  0.000000D+00  0.000000D+00  0.000000D+00
     14  0.000000D+00  0.000000D+00  0.000000D+00  0.000000D+00  0.000000D+00
     15  0.180001D-02  0.000000D+00  0.106318D-02  0.000000D+00  0.000000D+00
     16 -0.179760D-02  0.000000D+00 -0.106176D-02  0.000000D+00  0.000000D+00
     17  0.000000D+00  0.000000D+00  0.000000D+00  0.000000D+00  0.000000D+00
     18  0.000000D+00  0.000000D+00  0.000000D+00  0.000000D+00  0.000000D+00
     19  0.000000D+00  0.000000D+00  0.000000D+00  0.000000D+00  0.000000D+00
     20  0.884488D-03  0.000000D+00  0.522426D-03  0.000000D+00  0.000000D+00
     21  0.000000D+00  0.000000D+00  0.000000D+00  0.000000D+00  0.000000D+00
     22  0.000000D+00  0.000000D+00  0.000000D+00  0.000000D+00  0.000000D+00
     23  0.210081D-04  0.000000D+00  0.124085D-04  0.000000D+00  0.000000D+00
     24 -0.596442D-02  0.000000D+00 -0.352290D-02  0.000000D+00  0.000000D+00
     25  0.177916D-02  0.000000D+00  0.105087D-02  0.000000D+00  0.000000D+00
     26  0.000000D+00  0.000000D+00  0.192989D-01  0.000000D+00  0.000000D+00
     27  0.000000D+00  0.000000D+00  0.000000D+00  0.000000D+00  0.000000D+00
     28  0.624969D-01  0.000000D+00 -0.961379D-01  0.000000D+00  0.000000D+00
     29  0.512871D-01  0.000000D+00 -0.675539D-01  0.000000D+00  0.000000D+00
     30  0.000000D+00  0.000000D+00  0.000000D+00  0.000000D+00  0.000000D+00
               11            12            13            14            15 
     11  0.352673D+00
     12  0.000000D+00  0.344796D+00
     13  0.000000D+00  0.000000D+00  0.346858D+00
     14  0.000000D+00  0.000000D+00  0.000000D+00  0.347319D+00
     15  0.000000D+00  0.000000D+00  0.000000D+00  0.000000D+00  0.272402D+00
     16  0.000000D+00  0.000000D+00  0.000000D+00  0.000000D+00  0.693986D-01
     17  0.000000D+00  0.000000D+00  0.000000D+00  0.000000D+00  0.000000D+00
     18  0.000000D+00  0.000000D+00  0.000000D+00  0.000000D+00  0.000000D+00
     19  0.000000D+00  0.000000D+00  0.000000D+00  0.000000D+00  0.000000D+00
     20  0.000000D+00  0.000000D+00  0.000000D+00  0.000000D+00 -0.706860D-01
     21  0.000000D+00  0.000000D+00  0.000000D+00  0.000000D+00  0.000000D+00
     22  0.000000D+00  0.000000D+00  0.000000D+00  0.000000D+00  0.000000D+00
     23  0.000000D+00  0.000000D+00  0.000000D+00  0.000000D+00  0.423185D-01
     24  0.000000D+00  0.000000D+00  0.000000D+00  0.000000D+00 -0.625540D-02
     25  0.000000D+00  0.000000D+00  0.000000D+00  0.000000D+00 -0.580691D-01
     26  0.000000D+00  0.000000D+00  0.000000D+00  0.000000D+00  0.000000D+00
     27  0.000000D+00  0.000000D+00  0.000000D+00  0.000000D+00  0.000000D+00
     28  0.000000D+00  0.000000D+00  0.000000D+00  0.000000D+00 -0.198288D-02
     29  0.000000D+00  0.000000D+00  0.000000D+00  0.000000D+00  0.492487D-04
     30  0.000000D+00  0.000000D+00  0.000000D+00  0.000000D+00  0.000000D+00
               16            17            18            19            20 
     16  0.271335D+00
     17  0.000000D+00  0.251793D+00
     18  0.000000D+00  0.463359D-01  0.252550D+00
     19  0.000000D+00  0.461776D-01  0.467274D-01  0.252616D+00
     20 -0.126314D-01  0.000000D+00  0.000000D+00  0.000000D+00  0.204699D+00
     21  0.000000D+00 -0.665451D-01  0.870605D-04  0.668481D-01  0.685256D-02
     22  0.000000D+00  0.664460D-01 -0.667354D-01 -0.183657D-03  0.685256D-02
     23  0.423306D-01 -0.118613D-04 -0.311122D-05 -0.263371D-05  0.674317D-01
     24  0.625611D-02  0.000000D+00  0.834093D-05 -0.723159D-05 -0.308293D-02
     25  0.576341D-01  0.000000D+00 -0.122799D-05  0.000000D+00  0.104303D+00
     26  0.000000D+00  0.000000D+00  0.000000D+00  0.000000D+00  0.000000D+00
     27  0.000000D+00  0.000000D+00  0.122799D-05  0.000000D+00  0.205577D-01
     28  0.199000D-02  0.000000D+00  0.165311D-05 -0.101564D-05 -0.888146D-03
     29  0.117762D-03  0.118323D-04  0.307035D-05  0.268238D-05 -0.154726D-03
     30  0.000000D+00  0.000000D+00  0.000000D+00  0.000000D+00  0.000000D+00
               21            22            23            24            25 
     21  0.221082D+00
     22 -0.100183D+00  0.221278D+00
     23 -0.172926D-04  0.164063D-04  0.341416D+00
     24  0.150064D-04  0.140861D-04 -0.700578D-04  0.207012D-01
     25 -0.685224D-02 -0.685613D-02  0.324276D-03 -0.620355D-02  0.229796D+00
     26  0.000000D+00  0.000000D+00  0.000000D+00  0.000000D+00  0.000000D+00
     27  0.205574D-01  0.205612D-01  0.000000D+00  0.000000D+00 -0.205577D-01
     28  0.000000D+00  0.475905D-05 -0.283867D-04  0.690054D-02 -0.184380D-02
     29  0.171472D-04 -0.164281D-04  0.106898D-03  0.115978D-03 -0.319764D-04
     30  0.000000D+00  0.000000D+00  0.000000D+00  0.000000D+00  0.000000D+00
               26            27            28            29            30 
     26  0.578966D-01
     27  0.000000D+00  0.616731D-01
     28  0.192989D-01  0.000000D+00  0.224315D+00
     29  0.000000D+00  0.000000D+00  0.712151D-02  0.338163D+00
     30  0.000000D+00  0.000000D+00  0.000000D+00  0.000000D+00  0.597884D-01
 Force constants in internal coordinates: 
                1             2             3             4             5 
      1  0.487385D+00
      2  0.000000D+00  0.354561D+00
      3  0.000000D+00  0.000000D+00  0.347780D+00
      4  0.000000D+00  0.000000D+00  0.000000D+00  0.561893D+00
      5  0.000000D+00  0.000000D+00  0.000000D+00  0.000000D+00  0.597884D-01
      6  0.000000D+00  0.000000D+00  0.000000D+00  0.000000D+00  0.000000D+00
      7  0.000000D+00  0.000000D+00  0.000000D+00  0.000000D+00  0.000000D+00
      8  0.000000D+00  0.000000D+00  0.000000D+00  0.000000D+00  0.000000D+00
      9  0.000000D+00  0.000000D+00  0.000000D+00  0.000000D+00  0.000000D+00
     10  0.000000D+00  0.000000D+00  0.000000D+00  0.000000D+00  0.000000D+00
     11  0.000000D+00  0.000000D+00  0.000000D+00  0.000000D+00  0.000000D+00
     12  0.000000D+00  0.000000D+00  0.000000D+00  0.000000D+00  0.000000D+00
     13  0.000000D+00  0.000000D+00  0.000000D+00  0.000000D+00  0.000000D+00
     14  0.000000D+00  0.000000D+00  0.000000D+00  0.000000D+00  0.000000D+00
     15  0.000000D+00  0.000000D+00  0.000000D+00  0.000000D+00  0.000000D+00
     16  0.000000D+00  0.000000D+00  0.000000D+00  0.000000D+00  0.000000D+00
     17  0.000000D+00  0.000000D+00  0.000000D+00  0.000000D+00  0.000000D+00
     18  0.000000D+00  0.000000D+00  0.000000D+00  0.000000D+00  0.000000D+00
     19  0.000000D+00  0.000000D+00  0.000000D+00  0.000000D+00  0.000000D+00
     20  0.000000D+00  0.000000D+00  0.000000D+00  0.000000D+00  0.000000D+00
     21  0.000000D+00  0.000000D+00  0.000000D+00  0.000000D+00  0.000000D+00
     22  0.000000D+00  0.000000D+00  0.000000D+00  0.000000D+00  0.000000D+00
     23  0.000000D+00  0.000000D+00  0.000000D+00  0.000000D+00  0.000000D+00
     24  0.000000D+00  0.000000D+00  0.000000D+00  0.000000D+00  0.000000D+00
     25  0.000000D+00  0.000000D+00  0.000000D+00  0.000000D+00  0.000000D+00
     26  0.000000D+00  0.000000D+00  0.000000D+00  0.000000D+00  0.000000D+00
     27  0.000000D+00  0.000000D+00  0.000000D+00  0.000000D+00  0.000000D+00
     28  0.000000D+00  0.000000D+00  0.000000D+00  0.000000D+00  0.000000D+00
     29  0.000000D+00  0.000000D+00  0.000000D+00  0.000000D+00  0.000000D+00
     30  0.000000D+00  0.000000D+00  0.000000D+00  0.000000D+00  0.000000D+00
                6             7             8             9            10 
      6  0.317457D+00
      7  0.000000D+00  0.350798D+00
      8  0.000000D+00  0.000000D+00  0.352673D+00
      9  0.000000D+00  0.000000D+00  0.000000D+00  0.344796D+00
     10  0.000000D+00  0.000000D+00  0.000000D+00  0.000000D+00  0.346858D+00
     11  0.000000D+00  0.000000D+00  0.000000D+00  0.000000D+00  0.000000D+00
     12  0.000000D+00  0.000000D+00  0.000000D+00  0.000000D+00  0.000000D+00
     13  0.000000D+00  0.000000D+00  0.000000D+00  0.000000D+00  0.000000D+00
     14  0.000000D+00  0.000000D+00  0.000000D+00  0.000000D+00  0.000000D+00
     15  0.000000D+00  0.000000D+00  0.000000D+00  0.000000D+00  0.000000D+00
     16  0.000000D+00  0.000000D+00  0.000000D+00  0.000000D+00  0.000000D+00
     17  0.000000D+00  0.000000D+00  0.000000D+00  0.000000D+00  0.000000D+00
     18  0.000000D+00  0.000000D+00  0.000000D+00  0.000000D+00  0.000000D+00
     19  0.000000D+00  0.000000D+00  0.000000D+00  0.000000D+00  0.000000D+00
     20  0.000000D+00  0.000000D+00  0.000000D+00  0.000000D+00  0.000000D+00
     21  0.000000D+00  0.000000D+00  0.000000D+00  0.000000D+00  0.000000D+00
     22  0.000000D+00  0.000000D+00  0.000000D+00  0.000000D+00  0.000000D+00
     23  0.000000D+00  0.000000D+00  0.000000D+00  0.000000D+00  0.000000D+00
     24  0.000000D+00  0.000000D+00  0.000000D+00  0.000000D+00  0.000000D+00
     25  0.000000D+00  0.000000D+00  0.000000D+00  0.000000D+00  0.000000D+00
     26  0.000000D+00  0.000000D+00  0.000000D+00  0.000000D+00  0.000000D+00
     27  0.000000D+00  0.000000D+00  0.000000D+00  0.000000D+00  0.000000D+00
     28  0.000000D+00  0.000000D+00  0.000000D+00  0.000000D+00  0.000000D+00
     29  0.000000D+00  0.000000D+00  0.000000D+00  0.000000D+00  0.000000D+00
     30  0.000000D+00  0.000000D+00  0.000000D+00  0.000000D+00  0.000000D+00
               11            12            13            14            15 
     11  0.347319D+00
     12  0.000000D+00  0.267862D+00
     13  0.000000D+00  0.576096D-01  0.267254D+00
     14  0.000000D+00  0.000000D+00  0.000000D+00  0.160000D+00
     15  0.000000D+00  0.399737D-01  0.512871D-01  0.000000D+00  0.338163D+00
     16  0.000000D+00 -0.216530D-04  0.210081D-04  0.000000D+00  0.106898D-03
     17  0.000000D+00 -0.185526D-02  0.180001D-02  0.000000D+00  0.492487D-04
     18  0.000000D+00  0.185278D-02 -0.179760D-02  0.000000D+00  0.117762D-03
     19  0.000000D+00  0.000000D+00  0.000000D+00  0.000000D+00  0.118323D-04
     20  0.000000D+00  0.000000D+00  0.000000D+00  0.000000D+00  0.307035D-05
     21  0.000000D+00  0.000000D+00  0.000000D+00  0.000000D+00  0.268238D-05
     22  0.000000D+00  0.722582D-01  0.475195D-02  0.000000D+00 -0.675539D-01
     23  0.000000D+00  0.000000D+00  0.000000D+00  0.000000D+00  0.000000D+00
     24  0.000000D+00 -0.623006D-01  0.624969D-01  0.000000D+00  0.712151D-02
     25  0.000000D+00  0.614749D-02 -0.596442D-02  0.000000D+00  0.115978D-03
     26  0.000000D+00 -0.183377D-02  0.177916D-02  0.000000D+00 -0.319764D-04
     27  0.000000D+00 -0.911636D-03  0.884488D-03  0.000000D+00 -0.154726D-03
     28  0.000000D+00  0.000000D+00  0.000000D+00  0.000000D+00  0.000000D+00
     29  0.000000D+00  0.000000D+00  0.000000D+00  0.000000D+00  0.171472D-04
     30  0.000000D+00  0.000000D+00  0.000000D+00  0.000000D+00 -0.164281D-04
               16            17            18            19            20 
     16  0.341416D+00
     17  0.423185D-01  0.272402D+00
     18  0.423306D-01  0.693986D-01  0.271335D+00
     19 -0.118613D-04  0.000000D+00  0.000000D+00  0.251793D+00
     20 -0.311122D-05  0.000000D+00  0.000000D+00  0.463359D-01  0.252550D+00
     21 -0.263371D-05  0.000000D+00  0.000000D+00  0.461776D-01  0.467274D-01
     22  0.124085D-04  0.106318D-02 -0.106176D-02  0.000000D+00  0.000000D+00
     23  0.000000D+00  0.000000D+00  0.000000D+00  0.000000D+00  0.000000D+00
     24 -0.283867D-04 -0.198288D-02  0.199000D-02  0.000000D+00  0.165311D-05
     25 -0.700578D-04 -0.625540D-02  0.625611D-02  0.000000D+00  0.834093D-05
     26  0.324276D-03 -0.580691D-01  0.576341D-01  0.000000D+00 -0.122799D-05
     27  0.674317D-01 -0.706860D-01 -0.126314D-01  0.000000D+00  0.000000D+00
     28  0.000000D+00  0.000000D+00  0.000000D+00  0.000000D+00  0.122799D-05
     29 -0.172926D-04  0.000000D+00  0.000000D+00 -0.665451D-01  0.870605D-04
     30  0.164063D-04  0.000000D+00  0.000000D+00  0.664460D-01 -0.667354D-01
               21            22            23            24            25 
     21  0.252616D+00
     22  0.000000D+00  0.206203D+00
     23  0.000000D+00  0.192989D-01  0.578966D-01
     24 -0.101564D-05 -0.961379D-01  0.192989D-01  0.224315D+00
     25 -0.723159D-05 -0.352290D-02  0.000000D+00  0.690054D-02  0.207012D-01
     26  0.000000D+00  0.105087D-02  0.000000D+00 -0.184380D-02 -0.620355D-02
     27  0.000000D+00  0.522426D-03  0.000000D+00 -0.888146D-03 -0.308293D-02
     28  0.000000D+00  0.000000D+00  0.000000D+00  0.000000D+00  0.000000D+00
     29  0.668481D-01  0.000000D+00  0.000000D+00  0.000000D+00  0.150064D-04
     30 -0.183657D-03  0.000000D+00  0.000000D+00  0.475905D-05  0.140861D-04
               26            27            28            29            30 
     26  0.229796D+00
     27  0.104303D+00  0.204699D+00
     28 -0.205577D-01  0.205577D-01  0.616731D-01
     29 -0.685224D-02  0.685256D-02  0.205574D-01  0.221082D+00
     30 -0.685613D-02  0.685256D-02  0.205612D-01 -0.100183D+00  0.221278D+00
 Final forces over variables, Energy=-1.94291842D+02:
 -6.26526124D-03-6.78292573D-04-8.80337819D-04 2.47530207D-04
  2.07186115D-03 2.44870454D-03-3.38830339D-04-6.63809730D-03
 -1.84648962D-03-6.22752790D-04-4.60201046D-04 7.28112081D-04
 -2.06227946D-04-1.46288904D-04 2.48342816D-03 2.36503345D-03
 -1.10560977D-03 2.97890750D-04 3.65354127D-04 5.05906732D-03
 -2.81719847D-04 2.45218525D-04 1.17994248D-03-3.38899886D-05
  2.29078351D-04-4.50478001D-04-2.00115018D-05 7.46689177D-05
  2.36749454D-03-7.21909981D-02

 GradGradGradGradGradGradGradGradGradGradGradGradGradGradGradGradGradGrad
 Berny optimization.
 Search for a local minimum.
 Step number   1 out of a maximum of   50
 All quantities printed in internal units (Hartrees-Bohrs-Radians)
 Second derivative matrix not updated -- first step.
 ITU=  0
     Eigenvalues ---    0.01861   0.03727   0.04424   0.07335   0.10523
     Eigenvalues ---    0.11815   0.13462   0.14141   0.15457   0.16000
     Eigenvalues ---    0.24373   0.27499   0.28883   0.31746   0.34480
     Eigenvalues ---    0.34514   0.34686   0.34732   0.34778   0.35080
     Eigenvalues ---    0.35267   0.35456   0.38308   0.39271   0.39444
     Eigenvalues ---    0.40306   0.40961   0.48738   0.561891000.00000
 RFO step:  Lambda=-7.80718702D-04 EMin= 1.86078026D-02
 Linear search not attempted -- first point.
 Variable       Old X    -DE/DX   Delta X   Delta X   Delta X     New X
                                 (Linear)    (Quad)   (Total)
    R1        2.61160  -0.00627   0.00000  -0.01283  -0.01283   2.59877
    R2        2.04941  -0.00068   0.00000  -0.00191  -0.00191   2.04750
    R3        2.06037  -0.00088   0.00000  -0.00253  -0.00253   2.05784
    R4        1.80790   0.00025   0.00000   0.00044   0.00044   1.80834
    A2        1.90665   0.00207   0.00000   0.01457   0.01457   1.92122
    A3        1.99843   0.00245   0.00000   0.01337   0.01337   2.01180
    A4        1.90561  -0.00034   0.00000  -0.00211  -0.00211   1.90350
    D3        4.07356  -0.00664   0.00000  -0.05171  -0.05171   4.02185
   R21        2.84612  -0.00185   0.00000  -0.00580  -0.00580   2.84031
   R22        2.05546  -0.00062   0.00000  -0.00177  -0.00177   2.05368
   R23        2.05243  -0.00046   0.00000  -0.00130  -0.00130   2.05113
   R24        2.06528   0.00073   0.00000   0.00211   0.00211   2.06739
   R25        2.06188  -0.00021   0.00000  -0.00059  -0.00059   2.06129
   R26        2.06112  -0.00015   0.00000  -0.00042  -0.00042   2.06070
   A22        1.99027   0.00248   0.00000   0.01464   0.01464   2.00491
   A23        1.99919   0.00237   0.00000   0.01321   0.01321   2.01239
   A24        1.94539  -0.00111   0.00000  -0.00689  -0.00689   1.93851
   A25        1.94384   0.00030   0.00000   0.00253   0.00253   1.94637
   A26        1.94216   0.00037   0.00000   0.00306   0.00306   1.94522
   D23        2.25265   0.00506   0.00000   0.04689   0.04689   2.29953
   D25        2.09157  -0.00028   0.00000  -0.00315  -0.00315   2.08842
   D26        4.19182   0.00025   0.00000   0.00249   0.00249   4.19431
   ANG2       1.90157   0.00118   0.00000  -0.00921  -0.00921   1.89236
   DH2        3.16706  -0.00003   0.00000  -0.00243  -0.00243   3.16463
   DH3        2.01958   0.00023   0.00000  -0.02186  -0.02186   1.99772
    D4        3.07864  -0.00045   0.00000   0.01675   0.01675   3.09539
   D24        5.16972  -0.00002   0.00000  -0.02273  -0.02273   5.14699
   DH1        2.00811   0.00007   0.00000  -0.02257  -0.02257   1.98554
   ANG1       1.96116   0.00237   0.00000  -0.00657  -0.00657   1.95459
    BB        4.15740  -0.07219   0.00000   0.00000   0.00000   4.15740
         Item               Value     Threshold  Converged?
 Maximum Force            0.006638     0.000450     NO 
 RMS     Force            0.002242     0.000300     NO 
 Maximum Displacement     0.051710     0.001800     NO 
 RMS     Displacement     0.016200     0.001200     NO 
 Predicted change in Energy=-3.934324D-04
 GradGradGradGradGradGradGradGradGradGradGradGradGradGradGradGradGradGrad

 ---------------------------------------------------------------------------------------------------
                            Z-MATRIX (ANGSTROMS AND DEGREES)
   CD    Cent   Atom    N1       Length/X        N2       Alpha/Y        N3        Beta/Z          J
 ---------------------------------------------------------------------------------------------------
      1      1  C 
      2      2  O        1   1.375208(     1)
      3      3  H        1   1.083490(     2)      2  110.078(    12)
      4      4  H        1   1.088963(     3)      2  115.267(    13)      3  230.435(    22)      0
      5      5  H        2   0.956933(     4)      1  109.063(    14)      3  177.353(    23)      0
      6      6  C        1   2.200000(     5)      2  111.990(    15)      3  113.763(    24)      0
      7      7  C        6   1.503030(     6)      1  108.424(    16)      2  181.320(    25)      0
      8      8  H        6   1.086763(     7)      7  114.873(    17)      1  114.461(    26)      0
      9      9  H        6   1.085411(     8)      7  115.302(    18)      8  131.753(    27)      0
     10     10  H        7   1.094015(     9)      6  111.068(    19)      8  294.901(    28)      0
     11     11  H        7   1.090786(    10)      6  111.519(    20)     10  119.658(    29)      0
     12     12  H        7   1.090478(    11)      6  111.453(    21)     10  240.316(    30)      0
 ---------------------------------------------------------------------------------------------------
                         Z-Matrix orientation:                         
 ---------------------------------------------------------------------
 Center     Atomic      Atomic             Coordinates (Angstroms)
 Number     Number       Type             X           Y           Z
 ---------------------------------------------------------------------
      1          6           0        0.000000    0.000000    0.000000
      2          8           0        0.000000    0.000000    1.375208
      3          1           0        1.017641    0.000000   -0.371963
      4          1           0       -0.627258    0.759167   -0.464817
      5          1           0       -0.903492    0.041769    1.687744
      6          6           0       -0.822019   -1.867003   -0.823763
      7          6           0       -0.754352   -1.794819   -2.323533
      8          1           0       -1.827543   -1.892040   -0.412245
      9          1           0       -0.186234   -2.618445   -0.366348
     10          1           0       -1.161146   -2.702183   -2.779689
     11          1           0       -1.328535   -0.951672   -2.709838
     12          1           0        0.273508   -1.687974   -2.671714
 ---------------------------------------------------------------------
                    Distance matrix (angstroms):
                    1          2          3          4          5
     1  C    0.000000
     2  O    1.375208   0.000000
     3  H    1.083490   2.021930   0.000000
     4  H    1.088963   2.086978   1.814015   0.000000
     5  H    1.914817   0.956933   2.816894   2.285713   0.000000
     6  C    2.200000   2.999482   2.659732   2.657732   3.155585
     7  C    3.031374   4.179846   3.189038   3.161301   4.414255
     8  H    2.662645   3.180365   3.417092   2.910730   3.000574
     9  H    2.650499   3.150231   2.881944   3.407706   3.436640
    10  H    4.046816   5.090503   4.224459   4.198168   5.249154
    11  H    3.164475   4.399805   3.446140   2.908415   4.528390
    12  H    3.172084   4.393364   2.948194   3.416178   4.835516
                    6          7          8          9         10
     6  C    0.000000
     7  C    1.503030   0.000000
     8  H    1.086763   2.194132   0.000000
     9  H    1.085411   2.198110   1.795457   0.000000
    10  H    2.153643   1.094015   2.589441   2.604166   0.000000
    11  H    2.156772   1.090786   2.532239   3.094337   1.759882
    12  H    2.155725   1.090478   3.092129   2.528211   1.760259
                   11         12
    11  H    0.000000
    12  H    1.763557   0.000000
 Symmetry turned off by external request.
 Stoichiometry    C3H8O
 Framework group  C1[X(C3H8O)]
 Deg. of freedom    30
 Full point group                 C1      NOp   1
 Rotational constants (GHZ):     20.9532439      2.9511355      2.7410142
 Standard basis: Jun-CC-pVTZ (5D, 7F)
   268 basis functions,   384 primitive gaussians,   300 cartesian basis functions
    17 alpha electrons       17 beta electrons
       nuclear repulsion energy       120.6212982341 Hartrees.
 NAtoms=   12 NActive=   12 NUniq=   12 SFac= 1.00D+00 NAtFMM=   60 NAOKFM=F Big=F
 Integral buffers will be    131072 words long.
 Raffenetti 2 integral format.
 Two-electron integral symmetry is turned off.
 Nuclear repulsion after empirical dispersion term =      120.6167843814 Hartrees.
 One-electron integrals computed using PRISM.
 NBasis=   268 RedAO= T EigKep=  1.07D-04  NBF=   268
 NBsUse=   268 1.00D-06 EigRej= -1.00D+00 NBFU=   268
 ExpMin= 3.57D-02 ExpMax= 1.53D+04 ExpMxC= 5.22D+02 IAcc=3 IRadAn=         5 AccDes= 0.00D+00
 Harris functional with IExCor= 4639 and IRadAn=       5 diagonalized for initial guess.
 HarFok:  IExCor= 4639 AccDes= 0.00D+00 IRadAn=         5 IDoV= 1 UseB2=F ITyADJ=14
 ICtDFT=  3500011 ScaDFX=  1.000000  1.000000  1.000000  1.000000
 FoFCou: FMM=F IPFlag=           0 FMFlag=      100000 FMFlg1=           0
         NFxFlg=           0 DoJE=T BraDBF=F KetDBF=T FulRan=T
         wScrn=  0.000000 ICntrl=     500 IOpCl=  0 I1Cent=   200000004 NGrid=           0
         NMat0=    1 NMatS0=      1 NMatT0=    0 NMatD0=    1 NMtDS0=    0 NMtDT0=    0
 Symmetry not used in FoFCou.
 Mixing orbitals, IMix= 1 IMixAn=  0 NRI=1 NE=   17 Coef=  7.07106781D-01  7.07106781D-01
 Mixing orbitals, IMix= 1 IMixAn=  0 NRI=1 NE=   17 Coef= -7.07106781D-01  7.07106781D-01
 Initial guess <Sx>= 0.0000 <Sy>= 0.0000 <Sz>= 0.0000 <S**2>= 1.0000 S= 0.6180
 Requested convergence on RMS density matrix=1.00D-08 within 128 cycles.
 Requested convergence on MAX density matrix=1.00D-06.
 Requested convergence on             energy=1.00D-06.
 No special actions if energy rises.
 SCF Done:  E(UwB97XD) =  -194.292358996     A.U. after   16 cycles
            NFock= 16  Conv=0.86D-08     -V/T= 2.0081
 <Sx>= 0.0000 <Sy>= 0.0000 <Sz>= 0.0000 <S**2>= 0.0000 S= 0.0000
 <L.S>=  0.00000000000    
 Annihilation of the first spin contaminant:
 S**2 before annihilation     0.0000,   after     0.0000
 DipInt: DoE/N= T T RetVal/Mat= T F Init=T NMatP=  1 IDeriv=0 Min/MaxMlt=  1  1
 Entering OneElI...
 Multipole integrals L=1 to 1 MinM= 0 MaxM= 0.
 Requested accuracy = 0.1000D-12
 PrsmSu:  NPrtUS=   1 ThrOK=F IAlg=1 NPAlg=1 LenDen=           0.
 Prism:   IPart=     0 DynPar=F LinDyn=F Incr=          49.
 PRISM was handed   419015356 working-precision words and  4948 shell-pairs
 IPart=  0 NShTot=        4948 NBatch=          63 AvBLen=        78.5
 PrSmSu:  NxtVal=             50.
 Entering OneElI...
 Calculate overlap and kinetic energy integrals
    NBasis = 300  MinDer = 1  MaxDer = 1
 Requested accuracy = 0.1000D-12
 PrsmSu:  NPrtUS=  32 ThrOK=T IAlg=1 NPAlg=1 LenDen=           0.
 PRISM was handed    12993843 working-precision words and  5025 shell-pairs
 PRISM was handed    12993843 working-precision words and  5025 shell-pairs
 PRISM was handed    12993843 working-precision words and  5025 shell-pairs
 PRISM was handed    12993843 working-precision words and  5025 shell-pairs
 Prism:   IPart=     0 DynPar=F LinDyn=F Incr=           1.
 PRISM was handed    12993843 working-precision words and  5025 shell-pairs
 PRISM was handed    12993843 working-precision words and  5025 shell-pairs
 PRISM was handed    12993843 working-precision words and  5025 shell-pairs
 PRISM was handed    12993843 working-precision words and  5025 shell-pairs
 PRISM was handed    12993843 working-precision words and  5025 shell-pairs
 PRISM was handed    12993843 working-precision words and  5025 shell-pairs
 PRISM was handed    12993843 working-precision words and  5025 shell-pairs
 PRISM was handed    12993843 working-precision words and  5025 shell-pairs
 PRISM was handed    12993843 working-precision words and  5025 shell-pairs
 PRISM was handed    12993843 working-precision words and  5025 shell-pairs
 PRISM was handed    12993843 working-precision words and  5025 shell-pairs
 PRISM was handed    12993843 working-precision words and  5025 shell-pairs
 IPart= 22 NShTot=         145 NBatch=          21 AvBLen=         6.9
 PRISM was handed    12993843 working-precision words and  5025 shell-pairs
 PRISM was handed    12993843 working-precision words and  5025 shell-pairs
 PRISM was handed    12993843 working-precision words and  5025 shell-pairs
 PRISM was handed    12993843 working-precision words and  5025 shell-pairs
 PRISM was handed    12993843 working-precision words and  5025 shell-pairs
 PRISM was handed    12993843 working-precision words and  5025 shell-pairs
 PRISM was handed    12993843 working-precision words and  5025 shell-pairs
 PRISM was handed    12993843 working-precision words and  5025 shell-pairs
 PRISM was handed    12993843 working-precision words and  5025 shell-pairs
 PRISM was handed    12993843 working-precision words and  5025 shell-pairs
 PRISM was handed    12993843 working-precision words and  5025 shell-pairs
 PRISM was handed    12993843 working-precision words and  5025 shell-pairs
 PRISM was handed    12993843 working-precision words and  5025 shell-pairs
 PRISM was handed    12993843 working-precision words and  5025 shell-pairs
 PRISM was handed    12993843 working-precision words and  5025 shell-pairs
 PRISM was handed    12993843 working-precision words and  5025 shell-pairs
 IPart= 25 NShTot=         143 NBatch=          21 AvBLen=         6.8
 IPart=  4 NShTot=         173 NBatch=          36 AvBLen=         4.8
 IPart=  7 NShTot=         167 NBatch=          31 AvBLen=         5.4
 IPart= 18 NShTot=         147 NBatch=          21 AvBLen=         7.0
 IPart= 21 NShTot=         145 NBatch=          21 AvBLen=         6.9
 IPart= 16 NShTot=         150 NBatch=          22 AvBLen=         6.8
 IPart=  0 NShTot=         202 NBatch=          64 AvBLen=         3.2
 IPart= 14 NShTot=         157 NBatch=          25 AvBLen=         6.3
 IPart= 31 NShTot=         138 NBatch=          20 AvBLen=         6.9
 IPart= 30 NShTot=         139 NBatch=          20 AvBLen=         7.0
 IPart= 11 NShTot=         159 NBatch=          27 AvBLen=         5.9
 IPart=  5 NShTot=         173 NBatch=          36 AvBLen=         4.8
 IPart=  8 NShTot=         165 NBatch=          29 AvBLen=         5.7
 IPart=  6 NShTot=         171 NBatch=          34 AvBLen=         5.0
 IPart= 13 NShTot=         158 NBatch=          26 AvBLen=         6.1
 IPart= 19 NShTot=         147 NBatch=          21 AvBLen=         7.0
 IPart= 10 NShTot=         161 NBatch=          27 AvBLen=         6.0
 IPart= 17 NShTot=         149 NBatch=          22 AvBLen=         6.8
 IPart=  9 NShTot=         164 NBatch=          29 AvBLen=         5.7
 IPart= 28 NShTot=         141 NBatch=          21 AvBLen=         6.7
 IPart= 20 NShTot=         145 NBatch=          21 AvBLen=         6.9
 IPart=  2 NShTot=         185 NBatch=          48 AvBLen=         3.9
 IPart= 26 NShTot=         142 NBatch=          21 AvBLen=         6.8
 IPart=  1 NShTot=         196 NBatch=          58 AvBLen=         3.4
 IPart= 12 NShTot=         159 NBatch=          27 AvBLen=         5.9
 IPart= 23 NShTot=         144 NBatch=          21 AvBLen=         6.9
 IPart= 29 NShTot=         140 NBatch=          20 AvBLen=         7.0
 IPart= 15 NShTot=         154 NBatch=          22 AvBLen=         7.0
 IPart= 27 NShTot=         141 NBatch=          21 AvBLen=         6.7
 IPart= 24 NShTot=         143 NBatch=          21 AvBLen=         6.8
 IPart=  3 NShTot=         182 NBatch=          45 AvBLen=         4.0
 PrSmSu:  NxtVal=             33.
 Entering OneElI...
 Calculate potential energy integrals
    NBasis = 300  MinDer = 1  MaxDer = 1
 Requested accuracy = 0.1000D-12
 PrsmSu:  NPrtUS=  32 ThrOK=T IAlg=1 NPAlg=1 LenDen=           0.
 Prism:   IPart=     0 DynPar=F LinDyn=F Incr=          18.
 PRISM was handed    13008254 working-precision words and  4832 shell-pairs
 PRISM was handed    13008254 working-precision words and  4832 shell-pairs
 PRISM was handed    13008254 working-precision words and  4832 shell-pairs
 PRISM was handed    13008254 working-precision words and  4832 shell-pairs
 PRISM was handed    13008254 working-precision words and  4832 shell-pairs
 PRISM was handed    13008254 working-precision words and  4832 shell-pairs
 PRISM was handed    13008254 working-precision words and  4832 shell-pairs
 PRISM was handed    13008254 working-precision words and  4832 shell-pairs
 PRISM was handed    13008254 working-precision words and  4832 shell-pairs
 PRISM was handed    13008254 working-precision words and  4832 shell-pairs
 PRISM was handed    13008254 working-precision words and  4832 shell-pairs
 PRISM was handed    13008254 working-precision words and  4832 shell-pairs
 PRISM was handed    13008254 working-precision words and  4832 shell-pairs
 PRISM was handed    13008254 working-precision words and  4832 shell-pairs
 PRISM was handed    13008254 working-precision words and  4832 shell-pairs
 PRISM was handed    13008254 working-precision words and  4832 shell-pairs
 PRISM was handed    13008254 working-precision words and  4832 shell-pairs
 PRISM was handed    13008254 working-precision words and  4832 shell-pairs
 PRISM was handed    13008254 working-precision words and  4832 shell-pairs
 PRISM was handed    13008254 working-precision words and  4832 shell-pairs
 PRISM was handed    13008254 working-precision words and  4832 shell-pairs
 PRISM was handed    13008254 working-precision words and  4832 shell-pairs
 PRISM was handed    13008254 working-precision words and  4832 shell-pairs
 PRISM was handed    13008254 working-precision words and  4832 shell-pairs
 PRISM was handed    13008254 working-precision words and  4832 shell-pairs
 PRISM was handed    13008254 working-precision words and  4832 shell-pairs
 PRISM was handed    13008254 working-precision words and  4832 shell-pairs
 PRISM was handed    13008254 working-precision words and  4832 shell-pairs
 PRISM was handed    13008254 working-precision words and  4832 shell-pairs
 PRISM was handed    13008254 working-precision words and  4832 shell-pairs
 PRISM was handed    13008254 working-precision words and  4832 shell-pairs
 PRISM was handed    13008254 working-precision words and  4832 shell-pairs
 IPart= 22 NShTot=        1704 NBatch=         142 AvBLen=        12.0
 IPart= 19 NShTot=        1716 NBatch=         143 AvBLen=        12.0
 IPart= 27 NShTot=        1644 NBatch=         137 AvBLen=        12.0
 IPart= 16 NShTot=        1728 NBatch=         144 AvBLen=        12.0
 IPart= 21 NShTot=        1704 NBatch=         142 AvBLen=        12.0
 IPart=  4 NShTot=        2016 NBatch=         168 AvBLen=        12.0
 IPart= 17 NShTot=        1728 NBatch=         144 AvBLen=        12.0
 IPart=  9 NShTot=        1896 NBatch=         158 AvBLen=        12.0
 IPart=  1 NShTot=        2148 NBatch=         179 AvBLen=        12.0
 IPart= 30 NShTot=        1596 NBatch=         133 AvBLen=        12.0
 IPart= 26 NShTot=        1656 NBatch=         138 AvBLen=        12.0
 IPart=  7 NShTot=        1944 NBatch=         162 AvBLen=        12.0
 IPart= 25 NShTot=        1656 NBatch=         138 AvBLen=        12.0
 IPart= 18 NShTot=        1716 NBatch=         143 AvBLen=        12.0
 IPart= 10 NShTot=        1872 NBatch=         156 AvBLen=        12.0
 IPart=  6 NShTot=        1968 NBatch=         164 AvBLen=        12.0
 IPart= 24 NShTot=        1680 NBatch=         140 AvBLen=        12.0
 IPart= 14 NShTot=        1776 NBatch=         148 AvBLen=        12.0
 IPart= 28 NShTot=        1632 NBatch=         136 AvBLen=        12.0
 IPart=  5 NShTot=        1992 NBatch=         166 AvBLen=        12.0
 IPart= 13 NShTot=        1788 NBatch=         149 AvBLen=        12.0
 IPart=  0 NShTot=        2280 NBatch=         190 AvBLen=        12.0
 IPart= 31 NShTot=        1560 NBatch=         130 AvBLen=        12.0
 IPart= 20 NShTot=        1704 NBatch=         142 AvBLen=        12.0
 IPart= 23 NShTot=        1692 NBatch=         141 AvBLen=        12.0
 IPart= 12 NShTot=        1836 NBatch=         153 AvBLen=        12.0
 IPart=  8 NShTot=        1920 NBatch=         160 AvBLen=        12.0
 IPart= 11 NShTot=        1848 NBatch=         154 AvBLen=        12.0
 IPart= 29 NShTot=        1608 NBatch=         134 AvBLen=        12.0
 IPart= 15 NShTot=        1752 NBatch=         146 AvBLen=        12.0
 IPart=  2 NShTot=        2124 NBatch=         177 AvBLen=        12.0
 IPart=  3 NShTot=        2100 NBatch=         175 AvBLen=        12.0
 PrSmSu:  NxtVal=            577.
 l701 out
 I=    0 X=  -4.864690234306D-01 Y=   1.207876707691D-01 Z=  -1.917699666859D-01
 I=    1 X=   1.338513212923D+00 Y=   2.265537639563D+00 Z=  -2.944754278584D+00
 I=    2 X=   3.285112602847D+00 Y=   1.290007433707D+00 Z=   8.945559030767D+00
 I=    3 X=   3.498610626254D+00 Y=   2.787213985369D-01 Z=  -1.317503233502D+00
 I=    4 X=  -1.837511796875D+00 Y=   2.864651007855D+00 Z=  -1.551036105811D+00
 I=    5 X=  -3.167575639052D+00 Y=   4.495034130226D-01 Z=   2.552392854077D+00
 I=    6 X=  -1.361493153835D+00 Y=  -2.477981109810D+00 Z=  -1.785185459438D-01
 I=    7 X=  -4.225131904177D-01 Y=  -1.261701847983D+00 Z=  -3.731628872360D+00
 I=    8 X=  -3.368106504616D+00 Y=  -4.893916622255D-01 Z=   1.409303334735D+00
 I=    9 X=   1.908046517954D+00 Y=  -2.913621545895D+00 Z=   1.498593338202D+00
 I=   10 X=  -1.163765531320D+00 Y=  -2.624047140562D+00 Z=  -1.592869867804D+00
 I=   11 X=  -1.702878432189D+00 Y=   2.389139794686D+00 Z=  -1.606491909309D+00
 I=   12 X=   2.993561288328D+00 Y=   2.291826191042D-01 Z=  -1.483045744467D+00
 ICntrl=      2127.
 Calling FoFJK, ICntrl=      2127 FMM=F ISym2X=0 I1Cent= 0 IOpClX= 1 NMat=1 NMatS=1 NMatT=0.
 FoFJK:  IHMeth= 1 ICntrl=    2127 DoSepK=T KAlg= 0 I1Cent=   0 FoldK=F
 IRaf=         1 NMat=   1 IRICut=       1 DoRegI=T DoRafI=F ISym2E= 0.
 FoFCou: FMM=F IPFlag=           0 FMFlag=      100000 FMFlg1=         800
         NFxFlg=           0 DoJE=F BraDBF=F KetDBF=F FulRan=T
         wScrn=  0.000000 ICntrl=    2527 IOpCl=  0 I1Cent=           0 NGrid=           0
         NMat0=    1 NMatS0=      1 NMatT0=    0 NMatD0=    1 NMtDS0=    0 NMtDT0=    0
 Symmetry not used in FoFCou.
 FoFCou:  KetSym=F NOpSet=  1 NOpAb=1 NOp=  1.
 FoFCou:  CnvScl= 1.00D+00 Thresh= 1.00D-10 IAcrcy=      10.
 PrismS was handed   418921969 working-precision words and  4915 shell-pairs
 FoFCou: LinMIO=F DoNuc=F BraDBF=F KetDBF=F HaveP=T PDBF=F HaveZ=T HaveW=F
         NIJTC =      10 NIJTAt=       0 NIJTCD=       0 NIJTT =      10
         IJTBeg=       1 IJTEnd=      10 KLTBeg=       1 KLTEnd=      10
         IPTBeg=       1 IPTEnd=      10 IPTBCv=       1 IPTECv=      10
         IZTBeg=       1 IZTEnd=      10 IZTBCv=       1 IZTECv=      10
         IWTBeg=      11 IWTEnd=      10 IWTBCv=      11 IWTECv=      10
         INTBeg=       1 INTEnd=       0 IFTBCv=       1 IFTECv=      10
 NCel replicated for PrismC:     1
 CoulSu:  IncDef=  1024 NBBP=       12081070 NTPThr=   100 NPartT=   32 Incr=        1024 LDynOK=F.
 CoulSu:  NPrtUS=  32 ThrOK=T IAlg=1 NPAlg=1 LenDen=           0 LWGrdD=           0 DoCopy=F.
 Enter PrismC: JobTyp=21 DoJE=F Cont=F.
 Enter PrismC: JobTyp=21 DoJE=F Cont=F.
 Enter PrismC: JobTyp=21 DoJE=F Cont=F.
 PrismC was handed    13001265 working-precision words and  4915 shell-pairs
 Enter PrismC: JobTyp=21 DoJE=F Cont=F.
 Enter PrismC: JobTyp=21 DoJE=F Cont=F.
 Enter PrismC: JobTyp=21 DoJE=F Cont=F.
 PrismC:  IPart=     0 DynPar=T LinDyn=F Incr=        1024 UseFst=F UseS4=T IGathr=2.
 PrismC was handed    13001265 working-precision words and  4915 shell-pairs
 Enter PrismC: JobTyp=21 DoJE=F Cont=F.
 Enter PrismC: JobTyp=21 DoJE=F Cont=F.
 PrismC was handed    13001265 working-precision words and  4915 shell-pairs
 Enter PrismC: JobTyp=21 DoJE=F Cont=F.
 PrismC was handed    13001265 working-precision words and  4915 shell-pairs
 Enter PrismC: JobTyp=21 DoJE=F Cont=F.
 PrismC was handed    13001265 working-precision words and  4915 shell-pairs
 Enter PrismC: JobTyp=21 DoJE=F Cont=F.
 Enter PrismC: JobTyp=21 DoJE=F Cont=F.
 PrismC was handed    13001265 working-precision words and  4915 shell-pairs
 Enter PrismC: JobTyp=21 DoJE=F Cont=F.
 PrismC was handed    13001265 working-precision words and  4915 shell-pairs
 Enter PrismC: JobTyp=21 DoJE=F Cont=F.
 PrismC was handed    13001265 working-precision words and  4915 shell-pairs
 Enter PrismC: JobTyp=21 DoJE=F Cont=F.
 PrismC was handed    13001265 working-precision words and  4915 shell-pairs
 Enter PrismC: JobTyp=21 DoJE=F Cont=F.
 PrismC was handed    13001265 working-precision words and  4915 shell-pairs
 Enter PrismC: JobTyp=21 DoJE=F Cont=F.
 PrismC was handed    13001265 working-precision words and  4915 shell-pairs
 Enter PrismC: JobTyp=21 DoJE=F Cont=F.
 PrismC was handed    13001265 working-precision words and  4915 shell-pairs
 Enter PrismC: JobTyp=21 DoJE=F Cont=F.
 Enter PrismC: JobTyp=21 DoJE=F Cont=F.
 Enter PrismC: JobTyp=21 DoJE=F Cont=F.
 Enter PrismC: JobTyp=21 DoJE=F Cont=F.
 Enter PrismC: JobTyp=21 DoJE=F Cont=F.
 PrismC was handed    13001265 working-precision words and  4915 shell-pairs
 PrismC was handed    13001265 working-precision words and  4915 shell-pairs
 PrismC was handed    13001265 working-precision words and  4915 shell-pairs
 PrismC was handed    13001265 working-precision words and  4915 shell-pairs
 PrismC was handed    13001265 working-precision words and  4915 shell-pairs
 Enter PrismC: JobTyp=21 DoJE=F Cont=F.
 PrismC was handed    13001265 working-precision words and  4915 shell-pairs
 Enter PrismC: JobTyp=21 DoJE=F Cont=F.
 Enter PrismC: JobTyp=21 DoJE=F Cont=F.
 PrismC was handed    13001265 working-precision words and  4915 shell-pairs
 PrismC was handed    13001265 working-precision words and  4915 shell-pairs
 Enter PrismC: JobTyp=21 DoJE=F Cont=F.
 Enter PrismC: JobTyp=21 DoJE=F Cont=F.
 Enter PrismC: JobTyp=21 DoJE=F Cont=F.
 Enter PrismC: JobTyp=21 DoJE=F Cont=F.
 Enter PrismC: JobTyp=21 DoJE=F Cont=F.
 Enter PrismC: JobTyp=21 DoJE=F Cont=F.
 PrismC was handed    13001265 working-precision words and  4915 shell-pairs
 PrismC was handed    13001265 working-precision words and  4915 shell-pairs
 PrismC was handed    13001265 working-precision words and  4915 shell-pairs
 PrismC was handed    13001265 working-precision words and  4915 shell-pairs
 PrismC was handed    13001265 working-precision words and  4915 shell-pairs
 PrismC was handed    13001265 working-precision words and  4915 shell-pairs
 PrismC was handed    13001265 working-precision words and  4915 shell-pairs
 PrismC was handed    13001265 working-precision words and  4915 shell-pairs
 PrismC was handed    13001265 working-precision words and  4915 shell-pairs
 PrismC was handed    13001265 working-precision words and  4915 shell-pairs
 PrismC was handed    13001265 working-precision words and  4915 shell-pairs
 PrismC was handed    13001265 working-precision words and  4915 shell-pairs
 IPart= 31 NShTot=      492226 NShNF=      492226 NShFF=           0 NBatch=        2539 AvBLen=       193.9
 IPart= 24 NShTot=      322159 NShNF=      322159 NShFF=           0 NBatch=        2687 AvBLen=       119.9
 IPart= 18 NShTot=      304790 NShNF=      304790 NShFF=           0 NBatch=        2322 AvBLen=       131.3
 IPart= 17 NShTot=      307311 NShNF=      307311 NShFF=           0 NBatch=        2476 AvBLen=       124.1
 IPart=  1 NShTot=      239532 NShNF=      239532 NShFF=           0 NBatch=        2108 AvBLen=       113.6
 IPart= 27 NShTot=      318252 NShNF=      318252 NShFF=           0 NBatch=        2374 AvBLen=       134.1
 IPart= 26 NShTot=      248254 NShNF=      248254 NShFF=           0 NBatch=        1930 AvBLen=       128.6
 IPart= 19 NShTot=      310369 NShNF=      310369 NShFF=           0 NBatch=        2372 AvBLen=       130.8
 IPart= 14 NShTot=      287073 NShNF=      287073 NShFF=           0 NBatch=        2207 AvBLen=       130.1
 IPart=  5 NShTot=      320111 NShNF=      320111 NShFF=           0 NBatch=        2086 AvBLen=       153.5
 IPart= 22 NShTot=      300203 NShNF=      300203 NShFF=           0 NBatch=        2159 AvBLen=       139.0
 IPart=  6 NShTot=      342631 NShNF=      342631 NShFF=           0 NBatch=        2403 AvBLen=       142.6
 IPart= 12 NShTot=      292150 NShNF=      292150 NShFF=           0 NBatch=        2284 AvBLen=       127.9
 IPart=  0 NShTot=      274562 NShNF=      274562 NShFF=           0 NBatch=        2329 AvBLen=       117.9
 IPart= 29 NShTot=      323961 NShNF=      323961 NShFF=           0 NBatch=        2431 AvBLen=       133.3
 IPart= 10 NShTot=      294695 NShNF=      294695 NShFF=           0 NBatch=        2411 AvBLen=       122.2
 IPart=  8 NShTot=      312395 NShNF=      312395 NShFF=           0 NBatch=        2491 AvBLen=       125.4
 IPart=  7 NShTot=      222479 NShNF=      222479 NShFF=           0 NBatch=        1988 AvBLen=       111.9
 IPart=  9 NShTot=      239556 NShNF=      239556 NShFF=           0 NBatch=        2258 AvBLen=       106.1
 IPart=  4 NShTot=      310281 NShNF=      310281 NShFF=           0 NBatch=        2354 AvBLen=       131.8
 IPart= 28 NShTot=      487553 NShNF=      487553 NShFF=           0 NBatch=        2825 AvBLen=       172.6
 IPart= 25 NShTot=      241357 NShNF=      241357 NShFF=           0 NBatch=        2141 AvBLen=       112.7
 IPart= 21 NShTot=      302050 NShNF=      302050 NShFF=           0 NBatch=        2549 AvBLen=       118.5
 IPart= 16 NShTot=      280517 NShNF=      280517 NShFF=           0 NBatch=        2284 AvBLen=       122.8
 IPart=  3 NShTot=      286022 NShNF=      286022 NShFF=           0 NBatch=        2053 AvBLen=       139.3
 IPart= 20 NShTot=      333653 NShNF=      333653 NShFF=           0 NBatch=        2350 AvBLen=       142.0
 IPart= 23 NShTot=      295747 NShNF=      295747 NShFF=           0 NBatch=        2011 AvBLen=       147.1
 IPart= 11 NShTot=      287804 NShNF=      287804 NShFF=           0 NBatch=        2465 AvBLen=       116.8
 IPart= 13 NShTot=      334031 NShNF=      334031 NShFF=           0 NBatch=        2681 AvBLen=       124.6
 IPart=  2 NShTot=      296269 NShNF=      296269 NShFF=           0 NBatch=        2368 AvBLen=       125.1
 IPart= 30 NShTot=      414075 NShNF=      414075 NShFF=           0 NBatch=        2634 AvBLen=       157.2
 IPart= 15 NShTot=      219846 NShNF=      219846 NShFF=           0 NBatch=        1910 AvBLen=       115.1
 CoulSu:  NxtVal=       13084673.
 FoFCou: FMM=F IPFlag=           0 FMFlag=      100000 FMFlg1=         800
         NFxFlg=           0 DoJE=F BraDBF=F KetDBF=F FulRan=T
         wScrn=  0.000000 ICntrl=    2127 IOpCl=  1 I1Cent=           0 NGrid=           0
         NMat0=    1 NMatS0=      0 NMatT0=    1 NMatD0=    1 NMtDS0=    0 NMtDT0=    0
         CW=    0.222036    0.777964
         WU=    0.000000   12.500000
 Symmetry not used in FoFCou.
 FoFCou:  KetSym=F NOpSet=  1 NOpAb=1 NOp=  1.
 FoFCou:  CnvScl= 1.00D+00 Thresh= 1.00D-10 IAcrcy=      10.
 PrismS was handed   418917003 working-precision words and  4915 shell-pairs
 FoFCou: LinMIO=F DoNuc=F BraDBF=F KetDBF=F HaveP=T PDBF=F HaveZ=T HaveW=F
         NIJTC =      10 NIJTAt=       0 NIJTCD=       0 NIJTT =      10
         IJTBeg=       1 IJTEnd=      10 KLTBeg=       1 KLTEnd=      10
         IPTBeg=       1 IPTEnd=      10 IPTBCv=       1 IPTECv=      10
         IZTBeg=       1 IZTEnd=      10 IZTBCv=       1 IZTECv=      10
         IWTBeg=      11 IWTEnd=      10 IWTBCv=      11 IWTECv=      10
         INTBeg=       1 INTEnd=       0 IFTBCv=       1 IFTECv=      10
 NCel replicated for PrismC:     1
 CoulSu:  IncDef=  1024 NBBP=       12081070 NTPThr=   100 NPartT=   32 Incr=        1024 LDynOK=F.
 CoulSu:  NPrtUS=  32 ThrOK=T IAlg=1 NPAlg=1 LenDen=           0 LWGrdD=           0 DoCopy=F.
 Enter PrismC: JobTyp=21 DoJE=F Cont=F.
 Linear combination for Coulomb/exchange, wScrn=  0.000000
 Enter PrismC: JobTyp=21 DoJE=F Cont=F.
 Enter PrismC: JobTyp=21 DoJE=F Cont=F.
 Linear combination for Coulomb/exchange, wScrn=  0.000000
 CW=    0.222036    0.777964
 WU=    0.000000   12.500000
 Enter PrismC: JobTyp=21 DoJE=F Cont=F.
 Linear combination for Coulomb/exchange, wScrn=  0.000000
 CW=    0.222036    0.777964
 WU=    0.000000   12.500000
 Enter PrismC: JobTyp=21 DoJE=F Cont=F.
 Linear combination for Coulomb/exchange, wScrn=  0.000000
 CW=    0.222036    0.777964
 WU=    0.000000   12.500000
 Enter PrismC: JobTyp=21 DoJE=F Cont=F.
 Enter PrismC: JobTyp=21 DoJE=F Cont=F.
 Enter PrismC: JobTyp=21 DoJE=F Cont=F.
 Linear combination for Coulomb/exchange, wScrn=  0.000000
 CW=    0.222036    0.777964
 WU=    0.000000   12.500000
 Linear combination for Coulomb/exchange, wScrn=  0.000000
 CW=    0.222036    0.777964
 Enter PrismC: JobTyp=21 DoJE=F Cont=F.
 Linear combination for Coulomb/exchange, wScrn=  0.000000
 CW=    0.222036    0.777964
 Enter PrismC: JobTyp=21 DoJE=F Cont=F.
 Enter PrismC: JobTyp=21 DoJE=F Cont=F.
 Linear combination for Coulomb/exchange, wScrn=  0.000000
 CW=    0.222036    0.777964
 WU=    0.000000   12.500000
 Enter PrismC: JobTyp=21 DoJE=F Cont=F.
 Linear combination for Coulomb/exchange, wScrn=  0.000000
 CW=    0.222036    0.777964
 WU=    0.000000   12.500000
 Enter PrismC: JobTyp=21 DoJE=F Cont=F.
 Linear combination for Coulomb/exchange, wScrn=  0.000000
 CW=    0.222036    0.777964
 WU=    0.000000   12.500000
 PrismC was handed    13001110 working-precision words and  4915 shell-pairs
 Linear combination for Coulomb/exchange, wScrn=  0.000000
 CW=    0.222036    0.777964
 WU=    0.000000   12.500000
 CW=    0.222036    0.777964
 WU=    0.000000   12.500000
 PrismC:  IPart=     0 DynPar=T LinDyn=F Incr=        1024 UseFst=F UseS4=T IGathr=2.
 PrismC was handed    13001110 working-precision words and  4915 shell-pairs
 PrismC was handed    13001110 working-precision words and  4915 shell-pairs
 Enter PrismC: JobTyp=21 DoJE=F Cont=F.
 Linear combination for Coulomb/exchange, wScrn=  0.000000
 CW=    0.222036    0.777964
 WU=    0.000000   12.500000
 WU=    0.000000   12.500000
 PrismC was handed    13001110 working-precision words and  4915 shell-pairs
 Enter PrismC: JobTyp=21 DoJE=F Cont=F.
 Linear combination for Coulomb/exchange, wScrn=  0.000000
 CW=    0.222036    0.777964
 WU=    0.000000   12.500000
 PrismC was handed    13001110 working-precision words and  4915 shell-pairs
 PrismC was handed    13001110 working-precision words and  4915 shell-pairs
 WU=    0.000000   12.500000
 PrismC was handed    13001110 working-precision words and  4915 shell-pairs
 Enter PrismC: JobTyp=21 DoJE=F Cont=F.
 Enter PrismC: JobTyp=21 DoJE=F Cont=F.
 Enter PrismC: JobTyp=21 DoJE=F Cont=F.
 Linear combination for Coulomb/exchange, wScrn=  0.000000
 CW=    0.222036    0.777964
 WU=    0.000000   12.500000
 Enter PrismC: JobTyp=21 DoJE=F Cont=F.
 Linear combination for Coulomb/exchange, wScrn=  0.000000
 CW=    0.222036    0.777964
 WU=    0.000000   12.500000
 PrismC was handed    13001110 working-precision words and  4915 shell-pairs
 Enter PrismC: JobTyp=21 DoJE=F Cont=F.
 Linear combination for Coulomb/exchange, wScrn=  0.000000
 CW=    0.222036    0.777964
 WU=    0.000000   12.500000
 PrismC was handed    13001110 working-precision words and  4915 shell-pairs
 Enter PrismC: JobTyp=21 DoJE=F Cont=F.
 Linear combination for Coulomb/exchange, wScrn=  0.000000
 CW=    0.222036    0.777964
 WU=    0.000000   12.500000
 PrismC was handed    13001110 working-precision words and  4915 shell-pairs
 Enter PrismC: JobTyp=21 DoJE=F Cont=F.
 Linear combination for Coulomb/exchange, wScrn=  0.000000
 CW=    0.222036    0.777964
 WU=    0.000000   12.500000
 PrismC was handed    13001110 working-precision words and  4915 shell-pairs
 PrismC was handed    13001110 working-precision words and  4915 shell-pairs
 Enter PrismC: JobTyp=21 DoJE=F Cont=F.
 Linear combination for Coulomb/exchange, wScrn=  0.000000
 CW=    0.222036    0.777964
 WU=    0.000000   12.500000
 PrismC was handed    13001110 working-precision words and  4915 shell-pairs
 PrismC was handed    13001110 working-precision words and  4915 shell-pairs
 Enter PrismC: JobTyp=21 DoJE=F Cont=F.
 Linear combination for Coulomb/exchange, wScrn=  0.000000
 CW=    0.222036    0.777964
 WU=    0.000000   12.500000
 PrismC was handed    13001110 working-precision words and  4915 shell-pairs
 Enter PrismC: JobTyp=21 DoJE=F Cont=F.
 Linear combination for Coulomb/exchange, wScrn=  0.000000
 CW=    0.222036    0.777964
 WU=    0.000000   12.500000
 Linear combination for Coulomb/exchange, wScrn=  0.000000
 CW=    0.222036    0.777964
 WU=    0.000000   12.500000
 Enter PrismC: JobTyp=21 DoJE=F Cont=F.
 Linear combination for Coulomb/exchange, wScrn=  0.000000
 CW=    0.222036    0.777964
 WU=    0.000000   12.500000
 PrismC was handed    13001110 working-precision words and  4915 shell-pairs
 Linear combination for Coulomb/exchange, wScrn=  0.000000
 CW=    0.222036    0.777964
 WU=    0.000000   12.500000
 Enter PrismC: JobTyp=21 DoJE=F Cont=F.
 Linear combination for Coulomb/exchange, wScrn=  0.000000
 CW=    0.222036    0.777964
 WU=    0.000000   12.500000
 Enter PrismC: JobTyp=21 DoJE=F Cont=F.
 Linear combination for Coulomb/exchange, wScrn=  0.000000
 CW=    0.222036    0.777964
 WU=    0.000000   12.500000
 PrismC was handed    13001110 working-precision words and  4915 shell-pairs
 PrismC was handed    13001110 working-precision words and  4915 shell-pairs
 PrismC was handed    13001110 working-precision words and  4915 shell-pairs
 Enter PrismC: JobTyp=21 DoJE=F Cont=F.
 Linear combination for Coulomb/exchange, wScrn=  0.000000
 CW=    0.222036    0.777964
 WU=    0.000000   12.500000
 PrismC was handed    13001110 working-precision words and  4915 shell-pairs
 PrismC was handed    13001110 working-precision words and  4915 shell-pairs
 Enter PrismC: JobTyp=21 DoJE=F Cont=F.
 Linear combination for Coulomb/exchange, wScrn=  0.000000
 CW=    0.222036    0.777964
 WU=    0.000000   12.500000
 PrismC was handed    13001110 working-precision words and  4915 shell-pairs
 Linear combination for Coulomb/exchange, wScrn=  0.000000
 CW=    0.222036    0.777964
 WU=    0.000000   12.500000
 PrismC was handed    13001110 working-precision words and  4915 shell-pairs
 Linear combination for Coulomb/exchange, wScrn=  0.000000
 CW=    0.222036    0.777964
 PrismC was handed    13001110 working-precision words and  4915 shell-pairs
 Enter PrismC: JobTyp=21 DoJE=F Cont=F.
 Linear combination for Coulomb/exchange, wScrn=  0.000000
 CW=    0.222036    0.777964
 WU=    0.000000   12.500000
 PrismC was handed    13001110 working-precision words and  4915 shell-pairs
 WU=    0.000000   12.500000
 PrismC was handed    13001110 working-precision words and  4915 shell-pairs
 PrismC was handed    13001110 working-precision words and  4915 shell-pairs
 PrismC was handed    13001110 working-precision words and  4915 shell-pairs
 PrismC was handed    13001110 working-precision words and  4915 shell-pairs
 Enter PrismC: JobTyp=21 DoJE=F Cont=F.
 Linear combination for Coulomb/exchange, wScrn=  0.000000
 CW=    0.222036    0.777964
 WU=    0.000000   12.500000
 PrismC was handed    13001110 working-precision words and  4915 shell-pairs
 PrismC was handed    13001110 working-precision words and  4915 shell-pairs
 PrismC was handed    13001110 working-precision words and  4915 shell-pairs
 IPart= 25 NShTot=      248954 NShNF=      248954 NShFF=           0 NBatch=        2816 AvBLen=        88.4
 IPart= 29 NShTot=      310213 NShNF=      310213 NShFF=           0 NBatch=        3098 AvBLen=       100.1
 IPart= 15 NShTot=      302638 NShNF=      302638 NShFF=           0 NBatch=        2690 AvBLen=       112.5
 IPart= 26 NShTot=      345066 NShNF=      345066 NShFF=           0 NBatch=        3309 AvBLen=       104.3
 IPart=  0 NShTot=      322131 NShNF=      322131 NShFF=           0 NBatch=        2793 AvBLen=       115.3
 IPart=  1 NShTot=      316399 NShNF=      316399 NShFF=           0 NBatch=        3019 AvBLen=       104.8
 IPart= 16 NShTot=      279630 NShNF=      279630 NShFF=           0 NBatch=        2463 AvBLen=       113.5
 IPart= 12 NShTot=      334417 NShNF=      334417 NShFF=           0 NBatch=        2707 AvBLen=       123.5
 IPart= 10 NShTot=      285360 NShNF=      285360 NShFF=           0 NBatch=        2758 AvBLen=       103.5
 IPart= 14 NShTot=      299305 NShNF=      299305 NShFF=           0 NBatch=        3074 AvBLen=        97.4
 IPart=  9 NShTot=      357764 NShNF=      357764 NShFF=           0 NBatch=        3236 AvBLen=       110.6
 IPart=  4 NShTot=      261389 NShNF=      261389 NShFF=           0 NBatch=        2320 AvBLen=       112.7
 IPart=  3 NShTot=      358484 NShNF=      358484 NShFF=           0 NBatch=        3231 AvBLen=       111.0
 IPart= 18 NShTot=      294563 NShNF=      294563 NShFF=           0 NBatch=        2837 AvBLen=       103.8
 IPart= 21 NShTot=      337506 NShNF=      337506 NShFF=           0 NBatch=        2929 AvBLen=       115.2
 IPart= 19 NShTot=      293685 NShNF=      293685 NShFF=           0 NBatch=        3039 AvBLen=        96.6
 IPart= 23 NShTot=      320217 NShNF=      320217 NShFF=           0 NBatch=        3066 AvBLen=       104.4
 IPart= 31 NShTot=      282893 NShNF=      282893 NShFF=           0 NBatch=        2492 AvBLen=       113.5
 IPart=  5 NShTot=      246061 NShNF=      246061 NShFF=           0 NBatch=        2590 AvBLen=        95.0
 IPart= 30 NShTot=      325665 NShNF=      325665 NShFF=           0 NBatch=        2846 AvBLen=       114.4
 IPart=  2 NShTot=      339928 NShNF=      339928 NShFF=           0 NBatch=        3149 AvBLen=       107.9
 IPart= 11 NShTot=      331617 NShNF=      331617 NShFF=           0 NBatch=        2786 AvBLen=       119.0
 IPart=  6 NShTot=      243995 NShNF=      243995 NShFF=           0 NBatch=        2396 AvBLen=       101.8
 IPart= 20 NShTot=      346178 NShNF=      346178 NShFF=           0 NBatch=        2993 AvBLen=       115.7
 IPart= 24 NShTot=      293780 NShNF=      293780 NShFF=           0 NBatch=        2690 AvBLen=       109.2
 IPart= 22 NShTot=      311484 NShNF=      311484 NShFF=           0 NBatch=        3039 AvBLen=       102.5
 IPart= 27 NShTot=      306782 NShNF=      306782 NShFF=           0 NBatch=        2848 AvBLen=       107.7
 IPart= 17 NShTot=      309798 NShNF=      309798 NShFF=           0 NBatch=        2845 AvBLen=       108.9
 IPart= 28 NShTot=      357954 NShNF=      357954 NShFF=           0 NBatch=        2983 AvBLen=       120.0
 IPart=  7 NShTot=      304604 NShNF=      304604 NShFF=           0 NBatch=        3102 AvBLen=        98.2
 IPart= 13 NShTot=      224520 NShNF=      224520 NShFF=           0 NBatch=        2313 AvBLen=        97.1
 IPart=  8 NShTot=      317569 NShNF=      317569 NShFF=           0 NBatch=        3115 AvBLen=       101.9
 CoulSu:  NxtVal=       13084673.
 ReadGW:  IGet=0 IStart=           1 Next=           1 LGW=           0.
 Remaining memory in FofDFT      399.83 Mw
 CkSvGd:  ISavGI=        -1 IRadAn=       5 IRASav=       5 ISavGd=        -1.
 CalDSu:  NPrtUS=  32 ThrOK=T IAlg=1 NPAlg=2 DoDPD=T LenP=       45150 LenD1P=             0.
 IPart=  0 IRanGd=          0 ScrnBf=T ScrnGd=T RCrit=4.00D+00 DoMicB=T.
 IPart=  1        14001 of        16998 points in      25 batches and       73 microbatches, Max-NSigAt=      12 Max-NSgAt2=      12
 IPart= 24         8262 of         9028 points in      14 batches and       42 microbatches, Max-NSigAt=      12 Max-NSgAt2=      12
 IPart= 20        11438 of        14014 points in      20 batches and       74 microbatches, Max-NSigAt=      12 Max-NSgAt2=      12
 IPart=  0        10576 of        11040 points in      17 batches and       47 microbatches, Max-NSigAt=      12 Max-NSgAt2=      12
 IPart=  2        10209 of        12404 points in      19 batches and       54 microbatches, Max-NSigAt=      12 Max-NSgAt2=      12
 IPart= 10        10625 of        12418 points in      18 batches and       96 microbatches, Max-NSigAt=      12 Max-NSgAt2=      12
 IPart= 13         5978 of         6848 points in      11 batches and       44 microbatches, Max-NSigAt=      12 Max-NSgAt2=      12
 IPart= 26         5797 of         6160 points in       9 batches and       22 microbatches, Max-NSigAt=      12 Max-NSgAt2=      12
 IPart=  7         5053 of         5582 points in       8 batches and       14 microbatches, Max-NSigAt=      12 Max-NSgAt2=      12
 IPart= 28         6269 of         6504 points in      11 batches and       26 microbatches, Max-NSigAt=      12 Max-NSgAt2=      12
 IPart= 12         9348 of        10774 points in      16 batches and       39 microbatches, Max-NSigAt=      12 Max-NSgAt2=      12
 IPart= 29         3808 of         4256 points in       7 batches and       30 microbatches, Max-NSigAt=      12 Max-NSgAt2=      12
 IPart=  3         9815 of        10934 points in      16 batches and       60 microbatches, Max-NSigAt=      12 Max-NSgAt2=      12
 IPart= 25         9972 of        11656 points in      17 batches and       29 microbatches, Max-NSigAt=      12 Max-NSgAt2=      12
 IPart=  9         8584 of         9228 points in      14 batches and       50 microbatches, Max-NSigAt=      12 Max-NSgAt2=      12
 IPart= 16         9316 of        10820 points in      17 batches and       61 microbatches, Max-NSigAt=      12 Max-NSgAt2=      12
 IPart= 19         6616 of         7702 points in      12 batches and       77 microbatches, Max-NSigAt=      12 Max-NSgAt2=      12
 IPart=  5         6946 of         7624 points in      12 batches and       50 microbatches, Max-NSigAt=      12 Max-NSgAt2=      12
 IPart= 31         4837 of         5338 points in       9 batches and       39 microbatches, Max-NSigAt=      12 Max-NSgAt2=      12
 IPart= 18         8085 of         9430 points in      14 batches and       56 microbatches, Max-NSigAt=      12 Max-NSgAt2=      12
 IPart= 15         5750 of         6430 points in      10 batches and       43 microbatches, Max-NSigAt=      12 Max-NSgAt2=      12
 IPart= 30         5942 of         6926 points in      11 batches and       54 microbatches, Max-NSigAt=      12 Max-NSgAt2=      12
 IPart= 22         4942 of         5632 points in      10 batches and       32 microbatches, Max-NSigAt=      12 Max-NSgAt2=      12
 IPart=  4         7269 of         8970 points in      15 batches and       40 microbatches, Max-NSigAt=      12 Max-NSgAt2=      12
 IPart=  8         6691 of         7438 points in      12 batches and       60 microbatches, Max-NSigAt=      12 Max-NSgAt2=      12
 IPart= 27         6519 of         7492 points in      12 batches and       49 microbatches, Max-NSigAt=      12 Max-NSgAt2=      12
 IPart= 14         6548 of         7160 points in      10 batches and       36 microbatches, Max-NSigAt=      12 Max-NSgAt2=      12
 IPart= 11         7235 of         7662 points in      13 batches and       39 microbatches, Max-NSigAt=      12 Max-NSgAt2=      12
 IPart= 17         7308 of         8358 points in      13 batches and       57 microbatches, Max-NSigAt=      12 Max-NSgAt2=      12
 IPart= 21         6558 of         7108 points in      12 batches and       46 microbatches, Max-NSigAt=      12 Max-NSgAt2=      12
 IPart=  6         6409 of         7480 points in      12 batches and       62 microbatches, Max-NSigAt=      12 Max-NSgAt2=      12
 IPart= 23         4468 of         5032 points in       8 batches and       34 microbatches, Max-NSigAt=      12 Max-NSgAt2=      12
 Forces at end of L703
 I=    0 X=  -4.864690234306D-01 Y=   1.207876707691D-01 Z=  -1.917699666859D-01
 I=    1 X=   2.505615351293D-02 Y=   5.732150973041D-02 Z=   2.315116606637D-02
 I=    2 X=   3.399841510046D-04 Y=   5.113726448129D-04 Z=   2.675267736217D-03
 I=    3 X=   4.772533928046D-04 Y=   1.096575907441D-03 Z=   6.711204212406D-05
 I=    4 X=   6.559913207500D-04 Y=   1.231262567159D-03 Z=   1.691096853891D-04
 I=    5 X=  -1.193490251628D-04 Y=  -2.706152429098D-04 Z=  -2.466923172859D-04
 I=    6 X=  -2.548223263342D-02 Y=  -5.770810669100D-02 Z=  -2.471174912008D-02
 I=    7 X=  -1.873359636949D-04 Y=  -5.218828617133D-04 Z=  -1.140937816177D-03
 I=    8 X=  -4.261790779405D-04 Y=  -9.630223981242D-04 Z=  -1.640502865203D-04
 I=    9 X=  -4.566886177999D-04 Y=  -9.810720254904D-04 Z=  -1.977107128226D-04
 I=   10 X=   3.850597917476D-05 Y=   1.031920628303D-04 Z=   4.494527428225D-04
 I=   11 X=   6.186102321593D-05 Y=   7.926677688497D-05 Z=  -7.133879548871D-06
 I=   12 X=   4.203593812147D-05 Y=   1.015195296691D-04 Z=  -4.383414044495D-05
 FrcOut:
 IF    =    61 IFX   =    97 IFXYZ =   133
 IFFX  =   169 IFFFX =   169 IFLen =    36
 IFFLen=     0 IFFFLn=     0 IEDerv=   169
 LEDerv=  1781 IFroze=  2356 ICStrt=146681
 -------------------------------------------------------------------
 Center     Atomic                   Forces (Hartrees/Bohr)
 Number     Number              X              Y              Z
 -------------------------------------------------------------------
      1        6          -0.025056154   -0.057321510   -0.023151166
      2        8          -0.000339984   -0.000511373   -0.002675268
      3        1          -0.000477253   -0.001096576   -0.000067112
      4        1          -0.000655991   -0.001231263   -0.000169110
      5        1           0.000119349    0.000270615    0.000246692
      6        6           0.025482233    0.057708107    0.024711749
      7        6           0.000187336    0.000521883    0.001140938
      8        1           0.000426179    0.000963022    0.000164050
      9        1           0.000456689    0.000981072    0.000197711
     10        1          -0.000038506   -0.000103192   -0.000449453
     11        1          -0.000061861   -0.000079267    0.000007134
     12        1          -0.000042036   -0.000101520    0.000043834
 -------------------------------------------------------------------
 Cartesian Forces:  Max     0.057708107 RMS     0.015859688
 From PutF, contents of force:
   1   -0.2428575419D-02
   2   -0.4252090360D-03
   3   -0.4083268396D-03
   4   -0.2030158637D-04
   5    0.4645256333D-03
   6    0.7814283687D-03
   7    0.4846725577D-03
   8   -0.2400568535D-02
   9   -0.7273943939D-03
  10   -0.3543879019D-03
  11   -0.3283795843D-03
  12    0.2873060582D-03
  13   -0.3123420427D-04
  14   -0.6356492080D-04
  15    0.5598361060D-03
  16    0.6124542622D-03
  17    0.7499599722D-03
  18   -0.4992667441D-05
  19   -0.6035375757D-04
  20    0.1866531171D-02
  21   -0.1837250855D-03
  22    0.1829226929D-03
  23    0.5916940466D-03
  24   -0.4169949728D-04
  25    0.6228092103D-04
  26   -0.4714558041D-03
  27    0.1616722113D-05
  28   -0.1960705915D-03
  29    0.1780338534D-02
  30   -0.7035944380D-01
 -----------------------------------------------------------------------------------------------
                       Internal Coordinate Forces (Hartree/Bohr or radian)
  Cent   Atom   N1       Length/X         N2         Alpha/Y        N3         Beta/Z          J
 -----------------------------------------------------------------------------------------------
      1  C 
      2  O        1  -0.002429(     1)
      3  H        1  -0.000425(     2)      2   0.000465(    12)
      4  H        1  -0.000408(     3)      2   0.000781(    13)      3  -0.002401(    22)     0
      5  H        2  -0.000020(     4)      1   0.000485(    14)      3  -0.000471(    23)     0
      6  C        1  -0.070359(     5)      2   0.001780(    15)      3  -0.000196(    24)     0
      7  C        6  -0.000727(     6)      1   0.000592(    16)      2  -0.000042(    25)     0
      8  H        6  -0.000354(     7)      7   0.000560(    17)      1   0.000062(    26)     0
      9  H        6  -0.000328(     8)      7   0.000612(    18)      8   0.001867(    27)     0
     10  H        7   0.000287(     9)      6   0.000750(    19)      8   0.000002(    28)     0
     11  H        7  -0.000031(    10)      6  -0.000005(    20)     10  -0.000184(    29)     0
     12  H        7  -0.000064(    11)      6  -0.000060(    21)     10   0.000183(    30)     0
 -----------------------------------------------------------------------------------------------
 Internal  Forces:  Max     0.070359444 RMS     0.012874993
 Final forces over variables, Energy=-1.94292359D+02:
 -2.42857542D-03-4.25209036D-04-4.08326840D-04-2.03015864D-05
  4.64525633D-04 7.81428369D-04 4.84672558D-04-2.40056854D-03
 -7.27394394D-04-3.54387902D-04-3.28379584D-04 2.87306058D-04
 -3.12342043D-05-6.35649208D-05 5.59836106D-04 6.12454262D-04
  7.49959972D-04-4.99266744D-06-6.03537576D-05 1.86653117D-03
 -1.83725085D-04 1.82922693D-04 5.91694047D-04-4.16994973D-05
  6.22809210D-05-4.71455804D-04 1.61672211D-06-1.96070591D-04
  1.78033853D-03-7.03594438D-02

 GradGradGradGradGradGradGradGradGradGradGradGradGradGradGradGradGradGrad
 Berny optimization.
 Search for a local minimum.
 Step number   2 out of a maximum of   50
 All quantities printed in internal units (Hartrees-Bohrs-Radians)
 Update second derivatives using D2CorN and points    1    2
 DE= -5.17D-04 DEPred=-3.93D-04 R= 1.31D+00
 TightC=F SS=  1.41D+00  RLast= 8.87D-02 DXNew= 5.0454D-01 2.6619D-01
 Trust test= 1.31D+00 RLast= 8.87D-02 DXMaxT set to 3.00D-01
 ITU=  1  0
     Eigenvalues ---    0.01857   0.03168   0.04245   0.06842   0.09799
     Eigenvalues ---    0.11722   0.13508   0.13872   0.15451   0.16020
     Eigenvalues ---    0.24373   0.27501   0.28881   0.31697   0.34472
     Eigenvalues ---    0.34519   0.34686   0.34731   0.34766   0.35073
     Eigenvalues ---    0.35263   0.35448   0.38307   0.39278   0.39429
     Eigenvalues ---    0.40051   0.40705   0.48420   0.561891000.00000
 RFO step:  Lambda=-3.44234789D-05 EMin= 1.85734083D-02
 Quartic linear search produced a step of  0.50948.
 Variable       Old X    -DE/DX   Delta X   Delta X   Delta X     New X
                                 (Linear)    (Quad)   (Total)
    R1        2.59877  -0.00243  -0.00654  -0.00105  -0.00759   2.59118
    R2        2.04750  -0.00043  -0.00097  -0.00085  -0.00182   2.04567
    R3        2.05784  -0.00041  -0.00129  -0.00050  -0.00179   2.05605
    R4        1.80834  -0.00002   0.00022  -0.00028  -0.00005   1.80829
    A2        1.92122   0.00046   0.00742  -0.00227   0.00515   1.92637
    A3        2.01180   0.00078   0.00681  -0.00011   0.00670   2.01849
    A4        1.90350   0.00048  -0.00107   0.00561   0.00454   1.90804
    D3        4.02185  -0.00240  -0.02634   0.00017  -0.02617   3.99567
   R21        2.84031  -0.00073  -0.00296  -0.00055  -0.00351   2.83681
   R22        2.05368  -0.00035  -0.00090  -0.00064  -0.00154   2.05215
   R23        2.05113  -0.00033  -0.00066  -0.00075  -0.00142   2.04971
   R24        2.06739   0.00029   0.00107   0.00020   0.00127   2.06866
   R25        2.06129  -0.00003  -0.00030   0.00016  -0.00014   2.06115
   R26        2.06070  -0.00006  -0.00021  -0.00007  -0.00028   2.06042
   A22        2.00491   0.00056   0.00746  -0.00133   0.00613   2.01104
   A23        2.01239   0.00061   0.00673   0.00006   0.00679   2.01919
   A24        1.93851   0.00075  -0.00351   0.00848   0.00497   1.94348
   A25        1.94637  -0.00000   0.00129  -0.00196  -0.00067   1.94570
   A26        1.94522  -0.00006   0.00156  -0.00286  -0.00130   1.94392
   D23        2.29953   0.00187   0.02389   0.00263   0.02651   2.32604
   D25        2.08842  -0.00018  -0.00161   0.00232   0.00071   2.08913
   D26        4.19431   0.00018   0.00127  -0.00125   0.00001   4.19432
   ANG2       1.89236   0.00059  -0.00469   0.00041  -0.00428   1.88808
   DH2        3.16463  -0.00004  -0.00124  -0.00200  -0.00324   3.16139
   DH3        1.99772   0.00006  -0.01114  -0.00224  -0.01338   1.98434
    D4        3.09539  -0.00047   0.00854  -0.00689   0.00164   3.09704
   D24        5.14699   0.00000  -0.01158  -0.00289  -0.01447   5.13253
   DH1        1.98554  -0.00020  -0.01150  -0.00183  -0.01333   1.97221
   ANG1       1.95459   0.00178  -0.00335   0.00468   0.00133   1.95592
    BB        4.15740  -0.07036   0.00000   0.00000   0.00000   4.15740
         Item               Value     Threshold  Converged?
 Maximum Force            0.002429     0.000450     NO 
 RMS     Force            0.000881     0.000300     NO 
 Maximum Displacement     0.026513     0.001800     NO 
 RMS     Displacement     0.008704     0.001200     NO 
 Predicted change in Energy=-7.306351D-05
 GradGradGradGradGradGradGradGradGradGradGradGradGradGradGradGradGradGrad

 ---------------------------------------------------------------------------------------------------
                            Z-MATRIX (ANGSTROMS AND DEGREES)
   CD    Cent   Atom    N1       Length/X        N2       Alpha/Y        N3        Beta/Z          J
 ---------------------------------------------------------------------------------------------------
      1      1  C 
      2      2  O        1   1.371192(     1)
      3      3  H        1   1.082525(     2)      2  110.373(    12)
      4      4  H        1   1.088016(     3)      2  115.651(    13)      3  228.935(    22)      0
      5      5  H        2   0.956905(     4)      1  109.323(    14)      3  177.447(    23)      0
      6      6  C        1   2.200000(     5)      2  112.066(    15)      3  112.999(    24)      0
      7      7  C        6   1.501174(     6)      1  108.179(    16)      2  181.134(    25)      0
      8      8  H        6   1.085949(     7)      7  115.224(    17)      1  113.694(    26)      0
      9      9  H        6   1.084662(     8)      7  115.691(    18)      8  133.273(    27)      0
     10     10  H        7   1.094689(     9)      6  111.353(    19)      8  294.072(    28)      0
     11     11  H        7   1.090712(    10)      6  111.480(    20)     10  119.699(    29)      0
     12     12  H        7   1.090330(    11)      6  111.379(    21)     10  240.317(    30)      0
 ---------------------------------------------------------------------------------------------------
                         Z-Matrix orientation:                         
 ---------------------------------------------------------------------
 Center     Atomic      Atomic             Coordinates (Angstroms)
 Number     Number       Type             X           Y           Z
 ---------------------------------------------------------------------
      1          6           0        0.000000    0.000000    0.000000
      2          8           0        0.000000    0.000000    1.371192
      3          1           0        1.014807    0.000000   -0.376862
      4          1           0       -0.644291    0.739483   -0.470990
      5          1           0       -0.902107    0.040221    1.687818
      6          6           0       -0.796626   -1.876783   -0.826482
      7          6           0       -0.730920   -1.794232   -2.323943
      8          1           0       -1.798323   -1.906261   -0.408129
      9          1           0       -0.143222   -2.610485   -0.366877
     10          1           0       -1.122860   -2.703480   -2.790843
     11          1           0       -1.318042   -0.957255   -2.703956
     12          1           0        0.295281   -1.669112   -2.670460
 ---------------------------------------------------------------------
                    Distance matrix (angstroms):
                    1          2          3          4          5
     1  C    0.000000
     2  O    1.371192   0.000000
     3  H    1.082525   2.021269   0.000000
     4  H    1.088016   2.087002   1.818874   0.000000
     5  H    1.914196   0.956905   2.817638   2.283832   0.000000
     6  C    2.200000   2.997782   2.646840   2.644699   3.163500
     7  C    3.025595   4.172234   3.171428   3.140168   4.414607
     8  H    2.652238   3.167614   3.398310   2.887162   2.997497
     9  H    2.640027   3.139431   2.855830   3.388835   3.438593
    10  H    4.044554   5.088433   4.207817   4.179084   5.256903
    11  H    3.156731   4.388667   3.431310   2.884267   4.522791
    12  H    3.162987   4.382702   2.926473   3.394378   4.832200
                    6          7          8          9         10
     6  C    0.000000
     7  C    1.501174   0.000000
     8  H    1.085949   2.195961   0.000000
     9  H    1.084662   2.200402   1.799164   0.000000
    10  H    2.156054   1.094689   2.601756   2.616094   0.000000
    11  H    2.154604   1.090712   2.530238   3.094400   1.759246
    12  H    2.153055   1.090330   3.091531   2.526849   1.759413
                   11         12
    11  H    0.000000
    12  H    1.763711   0.000000
 Symmetry turned off by external request.
 Stoichiometry    C3H8O
 Framework group  C1[X(C3H8O)]
 Deg. of freedom    30
 Full point group                 C1      NOp   1
 Rotational constants (GHZ):     21.0004258      2.9602102      2.7503065
 Standard basis: Jun-CC-pVTZ (5D, 7F)
   268 basis functions,   384 primitive gaussians,   300 cartesian basis functions
    17 alpha electrons       17 beta electrons
       nuclear repulsion energy       120.7871678563 Hartrees.
 NAtoms=   12 NActive=   12 NUniq=   12 SFac= 1.00D+00 NAtFMM=   60 NAOKFM=F Big=F
 Integral buffers will be    131072 words long.
 Raffenetti 2 integral format.
 Two-electron integral symmetry is turned off.
 Nuclear repulsion after empirical dispersion term =      120.7826331898 Hartrees.
 One-electron integrals computed using PRISM.
 NBasis=   268 RedAO= T EigKep=  1.06D-04  NBF=   268
 NBsUse=   268 1.00D-06 EigRej= -1.00D+00 NBFU=   268
 ExpMin= 3.57D-02 ExpMax= 1.53D+04 ExpMxC= 5.22D+02 IAcc=3 IRadAn=         5 AccDes= 0.00D+00
 Harris functional with IExCor= 4639 and IRadAn=       5 diagonalized for initial guess.
 HarFok:  IExCor= 4639 AccDes= 0.00D+00 IRadAn=         5 IDoV= 1 UseB2=F ITyADJ=14
 ICtDFT=  3500011 ScaDFX=  1.000000  1.000000  1.000000  1.000000
 FoFCou: FMM=F IPFlag=           0 FMFlag=      100000 FMFlg1=           0
         NFxFlg=           0 DoJE=T BraDBF=F KetDBF=T FulRan=T
         wScrn=  0.000000 ICntrl=     500 IOpCl=  0 I1Cent=   200000004 NGrid=           0
         NMat0=    1 NMatS0=      1 NMatT0=    0 NMatD0=    1 NMtDS0=    0 NMtDT0=    0
 Symmetry not used in FoFCou.
 Mixing orbitals, IMix= 1 IMixAn=  0 NRI=1 NE=   17 Coef=  7.07106781D-01  7.07106781D-01
 Mixing orbitals, IMix= 1 IMixAn=  0 NRI=1 NE=   17 Coef= -7.07106781D-01  7.07106781D-01
 Initial guess <Sx>= 0.0000 <Sy>= 0.0000 <Sz>= 0.0000 <S**2>= 1.0000 S= 0.6180
 Requested convergence on RMS density matrix=1.00D-08 within 128 cycles.
 Requested convergence on MAX density matrix=1.00D-06.
 Requested convergence on             energy=1.00D-06.
 No special actions if energy rises.
 SCF Done:  E(UwB97XD) =  -194.292445238     A.U. after   16 cycles
            NFock= 16  Conv=0.94D-08     -V/T= 2.0080
 <Sx>= 0.0000 <Sy>= 0.0000 <Sz>= 0.0000 <S**2>= 0.0000 S= 0.0000
 <L.S>=  0.00000000000    
 Annihilation of the first spin contaminant:
 S**2 before annihilation     0.0000,   after    -0.0000
 DipInt: DoE/N= T T RetVal/Mat= T F Init=T NMatP=  1 IDeriv=0 Min/MaxMlt=  1  1
 Entering OneElI...
 Multipole integrals L=1 to 1 MinM= 0 MaxM= 0.
 Requested accuracy = 0.1000D-12
 PrsmSu:  NPrtUS=   1 ThrOK=F IAlg=1 NPAlg=1 LenDen=           0.
 Prism:   IPart=     0 DynPar=F LinDyn=F Incr=          49.
 PRISM was handed   419015274 working-precision words and  4949 shell-pairs
 IPart=  0 NShTot=        4949 NBatch=          63 AvBLen=        78.6
 PrSmSu:  NxtVal=             50.
 Entering OneElI...
 Calculate overlap and kinetic energy integrals
    NBasis = 300  MinDer = 1  MaxDer = 1
 Requested accuracy = 0.1000D-12
 PrsmSu:  NPrtUS=  32 ThrOK=T IAlg=1 NPAlg=1 LenDen=           0.
 PRISM was handed    12993843 working-precision words and  5025 shell-pairs
 PRISM was handed    12993843 working-precision words and  5025 shell-pairs
 PRISM was handed    12993843 working-precision words and  5025 shell-pairs
 PRISM was handed    12993843 working-precision words and  5025 shell-pairs
 PRISM was handed    12993843 working-precision words and  5025 shell-pairs
 PRISM was handed    12993843 working-precision words and  5025 shell-pairs
 Prism:   IPart=     0 DynPar=F LinDyn=F Incr=           1.
 PRISM was handed    12993843 working-precision words and  5025 shell-pairs
 PRISM was handed    12993843 working-precision words and  5025 shell-pairs
 PRISM was handed    12993843 working-precision words and  5025 shell-pairs
 PRISM was handed    12993843 working-precision words and  5025 shell-pairs
 PRISM was handed    12993843 working-precision words and  5025 shell-pairs
 PRISM was handed    12993843 working-precision words and  5025 shell-pairs
 PRISM was handed    12993843 working-precision words and  5025 shell-pairs
 PRISM was handed    12993843 working-precision words and  5025 shell-pairs
 PRISM was handed    12993843 working-precision words and  5025 shell-pairs
 PRISM was handed    12993843 working-precision words and  5025 shell-pairs
 PRISM was handed    12993843 working-precision words and  5025 shell-pairs
 PRISM was handed    12993843 working-precision words and  5025 shell-pairs
 PRISM was handed    12993843 working-precision words and  5025 shell-pairs
 PRISM was handed    12993843 working-precision words and  5025 shell-pairs
 PRISM was handed    12993843 working-precision words and  5025 shell-pairs
 PRISM was handed    12993843 working-precision words and  5025 shell-pairs
 PRISM was handed    12993843 working-precision words and  5025 shell-pairs
 PRISM was handed    12993843 working-precision words and  5025 shell-pairs
 PRISM was handed    12993843 working-precision words and  5025 shell-pairs
 PRISM was handed    12993843 working-precision words and  5025 shell-pairs
 PRISM was handed    12993843 working-precision words and  5025 shell-pairs
 PRISM was handed    12993843 working-precision words and  5025 shell-pairs
 PRISM was handed    12993843 working-precision words and  5025 shell-pairs
 PRISM was handed    12993843 working-precision words and  5025 shell-pairs
 PRISM was handed    12993843 working-precision words and  5025 shell-pairs
 PRISM was handed    12993843 working-precision words and  5025 shell-pairs
 IPart= 31 NShTot=         138 NBatch=          20 AvBLen=         6.9
 IPart= 20 NShTot=         145 NBatch=          21 AvBLen=         6.9
 IPart=  5 NShTot=         173 NBatch=          36 AvBLen=         4.8
 IPart= 25 NShTot=         143 NBatch=          21 AvBLen=         6.8
 IPart= 30 NShTot=         139 NBatch=          20 AvBLen=         7.0
 IPart=  0 NShTot=         202 NBatch=          64 AvBLen=         3.2
 IPart= 14 NShTot=         157 NBatch=          25 AvBLen=         6.3
 IPart= 15 NShTot=         154 NBatch=          22 AvBLen=         7.0
 IPart= 17 NShTot=         149 NBatch=          22 AvBLen=         6.8
 IPart= 22 NShTot=         145 NBatch=          21 AvBLen=         6.9
 IPart= 27 NShTot=         141 NBatch=          21 AvBLen=         6.7
 IPart= 16 NShTot=         150 NBatch=          22 AvBLen=         6.8
 IPart=  9 NShTot=         164 NBatch=          29 AvBLen=         5.7
 IPart= 21 NShTot=         145 NBatch=          21 AvBLen=         6.9
 IPart= 12 NShTot=         159 NBatch=          27 AvBLen=         5.9
 IPart= 10 NShTot=         161 NBatch=          27 AvBLen=         6.0
 IPart=  2 NShTot=         185 NBatch=          48 AvBLen=         3.9
 IPart= 11 NShTot=         159 NBatch=          27 AvBLen=         5.9
 IPart= 19 NShTot=         147 NBatch=          21 AvBLen=         7.0
 IPart=  8 NShTot=         165 NBatch=          29 AvBLen=         5.7
 IPart=  3 NShTot=         182 NBatch=          45 AvBLen=         4.0
 IPart= 26 NShTot=         142 NBatch=          21 AvBLen=         6.8
 IPart=  4 NShTot=         173 NBatch=          36 AvBLen=         4.8
 IPart= 24 NShTot=         143 NBatch=          21 AvBLen=         6.8
 IPart=  6 NShTot=         171 NBatch=          34 AvBLen=         5.0
 IPart= 23 NShTot=         144 NBatch=          21 AvBLen=         6.9
 IPart= 18 NShTot=         147 NBatch=          21 AvBLen=         7.0
 IPart=  7 NShTot=         167 NBatch=          31 AvBLen=         5.4
 IPart= 13 NShTot=         158 NBatch=          26 AvBLen=         6.1
 IPart= 29 NShTot=         140 NBatch=          20 AvBLen=         7.0
 IPart=  1 NShTot=         196 NBatch=          58 AvBLen=         3.4
 IPart= 28 NShTot=         141 NBatch=          21 AvBLen=         6.7
 PrSmSu:  NxtVal=             33.
 Entering OneElI...
 Calculate potential energy integrals
    NBasis = 300  MinDer = 1  MaxDer = 1
 Requested accuracy = 0.1000D-12
 PrsmSu:  NPrtUS=  32 ThrOK=T IAlg=1 NPAlg=1 LenDen=           0.
 PRISM was handed    13008213 working-precision words and  4833 shell-pairs
 PRISM was handed    13008213 working-precision words and  4833 shell-pairs
 PRISM was handed    13008213 working-precision words and  4833 shell-pairs
 PRISM was handed    13008213 working-precision words and  4833 shell-pairs
 PRISM was handed    13008213 working-precision words and  4833 shell-pairs
 PRISM was handed    13008213 working-precision words and  4833 shell-pairs
 PRISM was handed    13008213 working-precision words and  4833 shell-pairs
 PRISM was handed    13008213 working-precision words and  4833 shell-pairs
 PRISM was handed    13008213 working-precision words and  4833 shell-pairs
 PRISM was handed    13008213 working-precision words and  4833 shell-pairs
 PRISM was handed    13008213 working-precision words and  4833 shell-pairs
 PRISM was handed    13008213 working-precision words and  4833 shell-pairs
 PRISM was handed    13008213 working-precision words and  4833 shell-pairs
 PRISM was handed    13008213 working-precision words and  4833 shell-pairs
 PRISM was handed    13008213 working-precision words and  4833 shell-pairs
 PRISM was handed    13008213 working-precision words and  4833 shell-pairs
 PRISM was handed    13008213 working-precision words and  4833 shell-pairs
 PRISM was handed    13008213 working-precision words and  4833 shell-pairs
 PRISM was handed    13008213 working-precision words and  4833 shell-pairs
 PRISM was handed    13008213 working-precision words and  4833 shell-pairs
 PRISM was handed    13008213 working-precision words and  4833 shell-pairs
 PRISM was handed    13008213 working-precision words and  4833 shell-pairs
 PRISM was handed    13008213 working-precision words and  4833 shell-pairs
 PRISM was handed    13008213 working-precision words and  4833 shell-pairs
 PRISM was handed    13008213 working-precision words and  4833 shell-pairs
 PRISM was handed    13008213 working-precision words and  4833 shell-pairs
 PRISM was handed    13008213 working-precision words and  4833 shell-pairs
 PRISM was handed    13008213 working-precision words and  4833 shell-pairs
 PRISM was handed    13008213 working-precision words and  4833 shell-pairs
 PRISM was handed    13008213 working-precision words and  4833 shell-pairs
 PRISM was handed    13008213 working-precision words and  4833 shell-pairs
 Prism:   IPart=     0 DynPar=F LinDyn=F Incr=          18.
 PRISM was handed    13008213 working-precision words and  4833 shell-pairs
 IPart= 13 NShTot=        1788 NBatch=         149 AvBLen=        12.0
 IPart= 25 NShTot=        1656 NBatch=         138 AvBLen=        12.0
 IPart= 12 NShTot=        1836 NBatch=         153 AvBLen=        12.0
 IPart= 10 NShTot=        1872 NBatch=         156 AvBLen=        12.0
 IPart= 23 NShTot=        1692 NBatch=         141 AvBLen=        12.0
 IPart= 15 NShTot=        1752 NBatch=         146 AvBLen=        12.0
 IPart= 14 NShTot=        1764 NBatch=         147 AvBLen=        12.0
 IPart= 17 NShTot=        1728 NBatch=         144 AvBLen=        12.0
 IPart=  5 NShTot=        1992 NBatch=         166 AvBLen=        12.0
 IPart= 11 NShTot=        1848 NBatch=         154 AvBLen=        12.0
 IPart= 31 NShTot=        1560 NBatch=         130 AvBLen=        12.0
 IPart= 22 NShTot=        1704 NBatch=         142 AvBLen=        12.0
 IPart=  8 NShTot=        1920 NBatch=         160 AvBLen=        12.0
 IPart= 19 NShTot=        1716 NBatch=         143 AvBLen=        12.0
 IPart= 29 NShTot=        1584 NBatch=         132 AvBLen=        12.0
 IPart= 28 NShTot=        1632 NBatch=         136 AvBLen=        12.0
 IPart=  4 NShTot=        2016 NBatch=         168 AvBLen=        12.0
 IPart= 21 NShTot=        1704 NBatch=         142 AvBLen=        12.0
 IPart= 24 NShTot=        1692 NBatch=         141 AvBLen=        12.0
 IPart= 18 NShTot=        1728 NBatch=         144 AvBLen=        12.0
 IPart=  6 NShTot=        1968 NBatch=         164 AvBLen=        12.0
 IPart= 16 NShTot=        1728 NBatch=         144 AvBLen=        12.0
 IPart=  9 NShTot=        1896 NBatch=         158 AvBLen=        12.0
 IPart= 20 NShTot=        1704 NBatch=         142 AvBLen=        12.0
 IPart=  7 NShTot=        1956 NBatch=         163 AvBLen=        12.0
 IPart= 27 NShTot=        1644 NBatch=         137 AvBLen=        12.0
 IPart=  0 NShTot=        2280 NBatch=         190 AvBLen=        12.0
 IPart= 30 NShTot=        1584 NBatch=         132 AvBLen=        12.0
 IPart=  1 NShTot=        2160 NBatch=         180 AvBLen=        12.0
 IPart=  3 NShTot=        2112 NBatch=         176 AvBLen=        12.0
 IPart=  2 NShTot=        2124 NBatch=         177 AvBLen=        12.0
 IPart= 26 NShTot=        1656 NBatch=         138 AvBLen=        12.0
 PrSmSu:  NxtVal=            577.
 l701 out
 I=    0 X=  -4.848140014337D-01 Y=   1.295818169317D-01 Z=  -1.768785564400D-01
 I=    1 X=   1.351302932285D+00 Y=   2.372813892545D+00 Z=  -2.911897970682D+00
 I=    2 X=   3.256954362654D+00 Y=   1.295965002237D+00 Z=   8.966362734089D+00
 I=    3 X=   3.497217530624D+00 Y=   2.606211350995D-01 Z=  -1.337800567489D+00
 I=    4 X=  -1.924711912510D+00 Y=   2.793979935536D+00 Z=  -1.578128781262D+00
 I=    5 X=  -3.163634596092D+00 Y=   4.473134615386D-01 Z=   2.576990836405D+00
 I=    6 X=  -1.353050770775D+00 Y=  -2.584739042517D+00 Z=  -2.394247870485D-01
 I=    7 X=  -4.238859770333D-01 Y=  -1.275655748089D+00 Z=  -3.738256784689D+00
 I=    8 X=  -3.357753564099D+00 Y=  -4.903822538748D-01 Z=   1.437343533428D+00
 I=    9 X=   1.988755639827D+00 Y=  -2.848187484308D+00 Z=   1.514614684145D+00
 I=   10 X=  -1.119170963839D+00 Y=  -2.624245820564D+00 Z=  -1.622731595238D+00
 I=   11 X=  -1.745263273660D+00 Y=   2.372527963416D+00 Z=  -1.588482680294D+00
 I=   12 X=   2.993240592619D+00 Y=   2.799889589803D-01 Z=  -1.478588621364D+00
 ICntrl=      2127.
 Calling FoFJK, ICntrl=      2127 FMM=F ISym2X=0 I1Cent= 0 IOpClX= 1 NMat=1 NMatS=1 NMatT=0.
 FoFJK:  IHMeth= 1 ICntrl=    2127 DoSepK=T KAlg= 0 I1Cent=   0 FoldK=F
 IRaf=         1 NMat=   1 IRICut=       1 DoRegI=T DoRafI=F ISym2E= 0.
 FoFCou: FMM=F IPFlag=           0 FMFlag=      100000 FMFlg1=         800
         NFxFlg=           0 DoJE=F BraDBF=F KetDBF=F FulRan=T
         wScrn=  0.000000 ICntrl=    2527 IOpCl=  0 I1Cent=           0 NGrid=           0
         NMat0=    1 NMatS0=      1 NMatT0=    0 NMatD0=    1 NMtDS0=    0 NMtDT0=    0
 Symmetry not used in FoFCou.
 FoFCou:  KetSym=F NOpSet=  1 NOpAb=1 NOp=  1.
 FoFCou:  CnvScl= 1.00D+00 Thresh= 1.00D-10 IAcrcy=      10.
 PrismS was handed   418921677 working-precision words and  4917 shell-pairs
 FoFCou: LinMIO=F DoNuc=F BraDBF=F KetDBF=F HaveP=T PDBF=F HaveZ=T HaveW=F
         NIJTC =      10 NIJTAt=       0 NIJTCD=       0 NIJTT =      10
         IJTBeg=       1 IJTEnd=      10 KLTBeg=       1 KLTEnd=      10
         IPTBeg=       1 IPTEnd=      10 IPTBCv=       1 IPTECv=      10
         IZTBeg=       1 IZTEnd=      10 IZTBCv=       1 IZTECv=      10
         IWTBeg=      11 IWTEnd=      10 IWTBCv=      11 IWTECv=      10
         INTBeg=       1 INTEnd=       0 IFTBCv=       1 IFTECv=      10
 NCel replicated for PrismC:     1
 CoulSu:  IncDef=  1024 NBBP=       12090903 NTPThr=   100 NPartT=   32 Incr=        1024 LDynOK=F.
 CoulSu:  NPrtUS=  32 ThrOK=T IAlg=1 NPAlg=1 LenDen=           0 LWGrdD=           0 DoCopy=F.
 Enter PrismC: JobTyp=21 DoJE=F Cont=F.
 PrismC:  IPart=     0 DynPar=T LinDyn=F Incr=        1024 UseFst=F UseS4=T IGathr=2.
 PrismC was handed    13001108 working-precision words and  4917 shell-pairs
 Enter PrismC: JobTyp=21 DoJE=F Cont=F.
 Enter PrismC: JobTyp=21 DoJE=F Cont=F.
 Enter PrismC: JobTyp=21 DoJE=F Cont=F.
 Enter PrismC: JobTyp=21 DoJE=F Cont=F.
 Enter PrismC: JobTyp=21 DoJE=F Cont=F.
 PrismC was handed    13001108 working-precision words and  4917 shell-pairs
 Enter PrismC: JobTyp=21 DoJE=F Cont=F.
 PrismC was handed    13001108 working-precision words and  4917 shell-pairs
 Enter PrismC: JobTyp=21 DoJE=F Cont=F.
 PrismC was handed    13001108 working-precision words and  4917 shell-pairs
 Enter PrismC: JobTyp=21 DoJE=F Cont=F.
 PrismC was handed    13001108 working-precision words and  4917 shell-pairs
 Enter PrismC: JobTyp=21 DoJE=F Cont=F.
 PrismC was handed    13001108 working-precision words and  4917 shell-pairs
 Enter PrismC: JobTyp=21 DoJE=F Cont=F.
 PrismC was handed    13001108 working-precision words and  4917 shell-pairs
 Enter PrismC: JobTyp=21 DoJE=F Cont=F.
 Enter PrismC: JobTyp=21 DoJE=F Cont=F.
 PrismC was handed    13001108 working-precision words and  4917 shell-pairs
 Enter PrismC: JobTyp=21 DoJE=F Cont=F.
 Enter PrismC: JobTyp=21 DoJE=F Cont=F.
 PrismC was handed    13001108 working-precision words and  4917 shell-pairs
 Enter PrismC: JobTyp=21 DoJE=F Cont=F.
 Enter PrismC: JobTyp=21 DoJE=F Cont=F.
 PrismC was handed    13001108 working-precision words and  4917 shell-pairs
 Enter PrismC: JobTyp=21 DoJE=F Cont=F.
 Enter PrismC: JobTyp=21 DoJE=F Cont=F.
 PrismC was handed    13001108 working-precision words and  4917 shell-pairs
 Enter PrismC: JobTyp=21 DoJE=F Cont=F.
 Enter PrismC: JobTyp=21 DoJE=F Cont=F.
 PrismC was handed    13001108 working-precision words and  4917 shell-pairs
 Enter PrismC: JobTyp=21 DoJE=F Cont=F.
 PrismC was handed    13001108 working-precision words and  4917 shell-pairs
 Enter PrismC: JobTyp=21 DoJE=F Cont=F.
 PrismC was handed    13001108 working-precision words and  4917 shell-pairs
 PrismC was handed    13001108 working-precision words and  4917 shell-pairs
 PrismC was handed    13001108 working-precision words and  4917 shell-pairs
 PrismC was handed    13001108 working-precision words and  4917 shell-pairs
 Enter PrismC: JobTyp=21 DoJE=F Cont=F.
 Enter PrismC: JobTyp=21 DoJE=F Cont=F.
 Enter PrismC: JobTyp=21 DoJE=F Cont=F.
 Enter PrismC: JobTyp=21 DoJE=F Cont=F.
 Enter PrismC: JobTyp=21 DoJE=F Cont=F.
 PrismC was handed    13001108 working-precision words and  4917 shell-pairs
 Enter PrismC: JobTyp=21 DoJE=F Cont=F.
 PrismC was handed    13001108 working-precision words and  4917 shell-pairs
 PrismC was handed    13001108 working-precision words and  4917 shell-pairs
 Enter PrismC: JobTyp=21 DoJE=F Cont=F.
 PrismC was handed    13001108 working-precision words and  4917 shell-pairs
 Enter PrismC: JobTyp=21 DoJE=F Cont=F.
 PrismC was handed    13001108 working-precision words and  4917 shell-pairs
 Enter PrismC: JobTyp=21 DoJE=F Cont=F.
 PrismC was handed    13001108 working-precision words and  4917 shell-pairs
 PrismC was handed    13001108 working-precision words and  4917 shell-pairs
 PrismC was handed    13001108 working-precision words and  4917 shell-pairs
 PrismC was handed    13001108 working-precision words and  4917 shell-pairs
 PrismC was handed    13001108 working-precision words and  4917 shell-pairs
 PrismC was handed    13001108 working-precision words and  4917 shell-pairs
 PrismC was handed    13001108 working-precision words and  4917 shell-pairs
 PrismC was handed    13001108 working-precision words and  4917 shell-pairs
 PrismC was handed    13001108 working-precision words and  4917 shell-pairs
 PrismC was handed    13001108 working-precision words and  4917 shell-pairs
 IPart= 11 NShTot=      283306 NShNF=      283306 NShFF=           0 NBatch=        2154 AvBLen=       131.5
 IPart= 31 NShTot=      329113 NShNF=      329113 NShFF=           0 NBatch=        2401 AvBLen=       137.1
 IPart= 26 NShTot=      322365 NShNF=      322365 NShFF=           0 NBatch=        2325 AvBLen=       138.7
 IPart= 16 NShTot=      375349 NShNF=      375349 NShFF=           0 NBatch=        2553 AvBLen=       147.0
 IPart= 21 NShTot=      294103 NShNF=      294103 NShFF=           0 NBatch=        2108 AvBLen=       139.5
 IPart= 25 NShTot=      267012 NShNF=      267012 NShFF=           0 NBatch=        2493 AvBLen=       107.1
 IPart=  0 NShTot=      313626 NShNF=      313626 NShFF=           0 NBatch=        2359 AvBLen=       132.9
 IPart=  6 NShTot=      296320 NShNF=      296320 NShFF=           0 NBatch=        2332 AvBLen=       127.1
 IPart=  9 NShTot=      296350 NShNF=      296350 NShFF=           0 NBatch=        2342 AvBLen=       126.5
 IPart= 29 NShTot=      382919 NShNF=      382919 NShFF=           0 NBatch=        2489 AvBLen=       153.8
 IPart= 23 NShTot=      500727 NShNF=      500727 NShFF=           0 NBatch=        2713 AvBLen=       184.6
 IPart=  3 NShTot=      412609 NShNF=      412609 NShFF=           0 NBatch=        2610 AvBLen=       158.1
 IPart= 30 NShTot=      260202 NShNF=      260202 NShFF=           0 NBatch=        2251 AvBLen=       115.6
 IPart= 27 NShTot=      328849 NShNF=      328849 NShFF=           0 NBatch=        2386 AvBLen=       137.8
 IPart=  4 NShTot=      332903 NShNF=      332903 NShFF=           0 NBatch=        2421 AvBLen=       137.5
 IPart= 17 NShTot=      268897 NShNF=      268897 NShFF=           0 NBatch=        2038 AvBLen=       131.9
 IPart= 13 NShTot=      235108 NShNF=      235108 NShFF=           0 NBatch=        1998 AvBLen=       117.7
 IPart= 15 NShTot=      319108 NShNF=      319108 NShFF=           0 NBatch=        2687 AvBLen=       118.8
 IPart= 24 NShTot=      288430 NShNF=      288430 NShFF=           0 NBatch=        2318 AvBLen=       124.4
 IPart= 19 NShTot=      264647 NShNF=      264647 NShFF=           0 NBatch=        2254 AvBLen=       117.4
 IPart= 14 NShTot=      310890 NShNF=      310890 NShFF=           0 NBatch=        2275 AvBLen=       136.7
 IPart= 20 NShTot=      332750 NShNF=      332750 NShFF=           0 NBatch=        2578 AvBLen=       129.1
 IPart= 10 NShTot=      364345 NShNF=      364345 NShFF=           0 NBatch=        2355 AvBLen=       154.7
 IPart=  1 NShTot=      242130 NShNF=      242130 NShFF=           0 NBatch=        2076 AvBLen=       116.6
 IPart=  5 NShTot=      284483 NShNF=      284483 NShFF=           0 NBatch=        2257 AvBLen=       126.0
 IPart=  2 NShTot=      230348 NShNF=      230348 NShFF=           0 NBatch=        1994 AvBLen=       115.5
 IPart= 18 NShTot=      267047 NShNF=      267047 NShFF=           0 NBatch=        2072 AvBLen=       128.9
 IPart= 12 NShTot=      240441 NShNF=      240441 NShFF=           0 NBatch=        2072 AvBLen=       116.0
 IPart=  7 NShTot=      345607 NShNF=      345607 NShFF=           0 NBatch=        2824 AvBLen=       122.4
 IPart=  8 NShTot=      241758 NShNF=      241758 NShFF=           0 NBatch=        2162 AvBLen=       111.8
 IPart= 22 NShTot=      299037 NShNF=      299037 NShFF=           0 NBatch=        2442 AvBLen=       122.5
 IPart= 28 NShTot=      331901 NShNF=      331901 NShFF=           0 NBatch=        2384 AvBLen=       139.2
 CoulSu:  NxtVal=       13089793.
 FoFCou: FMM=F IPFlag=           0 FMFlag=      100000 FMFlg1=         800
         NFxFlg=           0 DoJE=F BraDBF=F KetDBF=F FulRan=T
         wScrn=  0.000000 ICntrl=    2127 IOpCl=  1 I1Cent=           0 NGrid=           0
         NMat0=    1 NMatS0=      0 NMatT0=    1 NMatD0=    1 NMtDS0=    0 NMtDT0=    0
         CW=    0.222036    0.777964
         WU=    0.000000   12.500000
 Symmetry not used in FoFCou.
 FoFCou:  KetSym=F NOpSet=  1 NOpAb=1 NOp=  1.
 FoFCou:  CnvScl= 1.00D+00 Thresh= 1.00D-10 IAcrcy=      10.
 PrismS was handed   418916711 working-precision words and  4917 shell-pairs
 FoFCou: LinMIO=F DoNuc=F BraDBF=F KetDBF=F HaveP=T PDBF=F HaveZ=T HaveW=F
         NIJTC =      10 NIJTAt=       0 NIJTCD=       0 NIJTT =      10
         IJTBeg=       1 IJTEnd=      10 KLTBeg=       1 KLTEnd=      10
         IPTBeg=       1 IPTEnd=      10 IPTBCv=       1 IPTECv=      10
         IZTBeg=       1 IZTEnd=      10 IZTBCv=       1 IZTECv=      10
         IWTBeg=      11 IWTEnd=      10 IWTBCv=      11 IWTECv=      10
         INTBeg=       1 INTEnd=       0 IFTBCv=       1 IFTECv=      10
 NCel replicated for PrismC:     1
 CoulSu:  IncDef=  1024 NBBP=       12090903 NTPThr=   100 NPartT=   32 Incr=        1024 LDynOK=F.
 CoulSu:  NPrtUS=  32 ThrOK=T IAlg=1 NPAlg=1 LenDen=           0 LWGrdD=           0 DoCopy=F.
 Enter PrismC: JobTyp=21 DoJE=F Cont=F.
 Enter PrismC: JobTyp=21 DoJE=F Cont=F.
 Linear combination for Coulomb/exchange, wScrn=  0.000000
 CW=    0.222036    0.777964
 WU=    0.000000   12.500000
 Enter PrismC: JobTyp=21 DoJE=F Cont=F.
 Linear combination for Coulomb/exchange, wScrn=  0.000000
 CW=    0.222036    0.777964
 WU=    0.000000   12.500000
 Enter PrismC: JobTyp=21 DoJE=F Cont=F.
 Enter PrismC: JobTyp=21 DoJE=F Cont=F.
 Enter PrismC: JobTyp=21 DoJE=F Cont=F.
 Enter PrismC: JobTyp=21 DoJE=F Cont=F.
 Enter PrismC: JobTyp=21 DoJE=F Cont=F.
 PrismC was handed    13000953 working-precision words and  4917 shell-pairs
 Enter PrismC: JobTyp=21 DoJE=F Cont=F.
 Linear combination for Coulomb/exchange, wScrn=  0.000000
 CW=    0.222036    0.777964
 WU=    0.000000   12.500000
 Enter PrismC: JobTyp=21 DoJE=F Cont=F.
 Enter PrismC: JobTyp=21 DoJE=F Cont=F.
 Enter PrismC: JobTyp=21 DoJE=F Cont=F.
 Linear combination for Coulomb/exchange, wScrn=  0.000000
 CW=    0.222036    0.777964
 WU=    0.000000   12.500000
 Enter PrismC: JobTyp=21 DoJE=F Cont=F.
 Linear combination for Coulomb/exchange, wScrn=  0.000000
 CW=    0.222036    0.777964
 WU=    0.000000   12.500000
 Enter PrismC: JobTyp=21 DoJE=F Cont=F.
 Linear combination for Coulomb/exchange, wScrn=  0.000000
 CW=    0.222036    0.777964
 WU=    0.000000   12.500000
 PrismC was handed    13000953 working-precision words and  4917 shell-pairs
 Enter PrismC: JobTyp=21 DoJE=F Cont=F.
 Linear combination for Coulomb/exchange, wScrn=  0.000000
 CW=    0.222036    0.777964
 WU=    0.000000   12.500000
 Enter PrismC: JobTyp=21 DoJE=F Cont=F.
 Linear combination for Coulomb/exchange, wScrn=  0.000000
 CW=    0.222036    0.777964
 WU=    0.000000   12.500000
 Enter PrismC: JobTyp=21 DoJE=F Cont=F.
 Linear combination for Coulomb/exchange, wScrn=  0.000000
 CW=    0.222036    0.777964
 WU=    0.000000   12.500000
 Enter PrismC: JobTyp=21 DoJE=F Cont=F.
 Linear combination for Coulomb/exchange, wScrn=  0.000000
 CW=    0.222036    0.777964
 WU=    0.000000   12.500000
 Linear combination for Coulomb/exchange, wScrn=  0.000000
 CW=    0.222036    0.777964
 WU=    0.000000   12.500000
 Linear combination for Coulomb/exchange, wScrn=  0.000000
 CW=    0.222036    0.777964
 WU=    0.000000   12.500000
 PrismC was handed    13000953 working-precision words and  4917 shell-pairs
 Enter PrismC: JobTyp=21 DoJE=F Cont=F.
 Linear combination for Coulomb/exchange, wScrn=  0.000000
 CW=    0.222036    0.777964
 WU=    0.000000   12.500000
 PrismC was handed    13000953 working-precision words and  4917 shell-pairs
 Enter PrismC: JobTyp=21 DoJE=F Cont=F.
 Linear combination for Coulomb/exchange, wScrn=  0.000000
 CW=    0.222036    0.777964
 WU=    0.000000   12.500000
 Enter PrismC: JobTyp=21 DoJE=F Cont=F.
 Linear combination for Coulomb/exchange, wScrn=  0.000000
 CW=    0.222036    0.777964
 WU=    0.000000   12.500000
 PrismC was handed    13000953 working-precision words and  4917 shell-pairs
 Linear combination for Coulomb/exchange, wScrn=  0.000000
 CW=    0.222036    0.777964
 WU=    0.000000   12.500000
 PrismC was handed    13000953 working-precision words and  4917 shell-pairs
 PrismC was handed    13000953 working-precision words and  4917 shell-pairs
 Enter PrismC: JobTyp=21 DoJE=F Cont=F.
 Linear combination for Coulomb/exchange, wScrn=  0.000000
 Enter PrismC: JobTyp=21 DoJE=F Cont=F.
 Enter PrismC: JobTyp=21 DoJE=F Cont=F.
 PrismC:  IPart=     0 DynPar=T LinDyn=F Incr=        1024 UseFst=F UseS4=T IGathr=2.
 PrismC was handed    13000953 working-precision words and  4917 shell-pairs
 PrismC was handed    13000953 working-precision words and  4917 shell-pairs
 PrismC was handed    13000953 working-precision words and  4917 shell-pairs
 Linear combination for Coulomb/exchange, wScrn=  0.000000
 CW=    0.222036    0.777964
 WU=    0.000000   12.500000
 PrismC was handed    13000953 working-precision words and  4917 shell-pairs
 Enter PrismC: JobTyp=21 DoJE=F Cont=F.
 Linear combination for Coulomb/exchange, wScrn=  0.000000
 CW=    0.222036    0.777964
 WU=    0.000000   12.500000
 PrismC was handed    13000953 working-precision words and  4917 shell-pairs
 Enter PrismC: JobTyp=21 DoJE=F Cont=F.
 Linear combination for Coulomb/exchange, wScrn=  0.000000
 CW=    0.222036    0.777964
 WU=    0.000000   12.500000
 PrismC was handed    13000953 working-precision words and  4917 shell-pairs
 Linear combination for Coulomb/exchange, wScrn=  0.000000
 CW=    0.222036    0.777964
 WU=    0.000000   12.500000
 Enter PrismC: JobTyp=21 DoJE=F Cont=F.
 Linear combination for Coulomb/exchange, wScrn=  0.000000
 CW=    0.222036    0.777964
 WU=    0.000000   12.500000
 PrismC was handed    13000953 working-precision words and  4917 shell-pairs
 PrismC was handed    13000953 working-precision words and  4917 shell-pairs
 Enter PrismC: JobTyp=21 DoJE=F Cont=F.
 Linear combination for Coulomb/exchange, wScrn=  0.000000
 CW=    0.222036    0.777964
 Enter PrismC: JobTyp=21 DoJE=F Cont=F.
 Enter PrismC: JobTyp=21 DoJE=F Cont=F.
 Linear combination for Coulomb/exchange, wScrn=  0.000000
 CW=    0.222036    0.777964
 WU=    0.000000   12.500000
 PrismC was handed    13000953 working-precision words and  4917 shell-pairs
 CW=    0.222036    0.777964
 WU=    0.000000   12.500000
 PrismC was handed    13000953 working-precision words and  4917 shell-pairs
 Linear combination for Coulomb/exchange, wScrn=  0.000000
 CW=    0.222036    0.777964
 WU=    0.000000   12.500000
 PrismC was handed    13000953 working-precision words and  4917 shell-pairs
 PrismC was handed    13000953 working-precision words and  4917 shell-pairs
 PrismC was handed    13000953 working-precision words and  4917 shell-pairs
 PrismC was handed    13000953 working-precision words and  4917 shell-pairs
 PrismC was handed    13000953 working-precision words and  4917 shell-pairs
 Linear combination for Coulomb/exchange, wScrn=  0.000000
 CW=    0.222036    0.777964
 WU=    0.000000   12.500000
 Linear combination for Coulomb/exchange, wScrn=  0.000000
 CW=    0.222036    0.777964
 WU=    0.000000   12.500000
 PrismC was handed    13000953 working-precision words and  4917 shell-pairs
 PrismC was handed    13000953 working-precision words and  4917 shell-pairs
 WU=    0.000000   12.500000
 Linear combination for Coulomb/exchange, wScrn=  0.000000
 CW=    0.222036    0.777964
 Linear combination for Coulomb/exchange, wScrn=  0.000000
 CW=    0.222036    0.777964
 WU=    0.000000   12.500000
 PrismC was handed    13000953 working-precision words and  4917 shell-pairs
 Enter PrismC: JobTyp=21 DoJE=F Cont=F.
 Linear combination for Coulomb/exchange, wScrn=  0.000000
 CW=    0.222036    0.777964
 WU=    0.000000   12.500000
 PrismC was handed    13000953 working-precision words and  4917 shell-pairs
 PrismC was handed    13000953 working-precision words and  4917 shell-pairs
 PrismC was handed    13000953 working-precision words and  4917 shell-pairs
 WU=    0.000000   12.500000
 Linear combination for Coulomb/exchange, wScrn=  0.000000
 CW=    0.222036    0.777964
 WU=    0.000000   12.500000
 PrismC was handed    13000953 working-precision words and  4917 shell-pairs
 Enter PrismC: JobTyp=21 DoJE=F Cont=F.
 PrismC was handed    13000953 working-precision words and  4917 shell-pairs
 PrismC was handed    13000953 working-precision words and  4917 shell-pairs
 Linear combination for Coulomb/exchange, wScrn=  0.000000
 CW=    0.222036    0.777964
 WU=    0.000000   12.500000
 PrismC was handed    13000953 working-precision words and  4917 shell-pairs
 IPart=  1 NShTot=      362626 NShNF=      362626 NShFF=           0 NBatch=        2742 AvBLen=       132.2
 IPart=  3 NShTot=      329211 NShNF=      329211 NShFF=           0 NBatch=        2870 AvBLen=       114.7
 IPart= 27 NShTot=      310203 NShNF=      310203 NShFF=           0 NBatch=        2781 AvBLen=       111.5
 IPart= 20 NShTot=      275231 NShNF=      275231 NShFF=           0 NBatch=        2570 AvBLen=       107.1
 IPart= 18 NShTot=      254948 NShNF=      254948 NShFF=           0 NBatch=        2789 AvBLen=        91.4
 IPart=  6 NShTot=      307781 NShNF=      307781 NShFF=           0 NBatch=        3114 AvBLen=        98.8
 IPart= 26 NShTot=      252974 NShNF=      252974 NShFF=           0 NBatch=        2635 AvBLen=        96.0
 IPart= 29 NShTot=      371543 NShNF=      371543 NShFF=           0 NBatch=        3146 AvBLen=       118.1
 IPart= 23 NShTot=      292248 NShNF=      292248 NShFF=           0 NBatch=        2690 AvBLen=       108.6
 IPart=  9 NShTot=      466497 NShNF=      466497 NShFF=           0 NBatch=        3679 AvBLen=       126.8
 IPart= 28 NShTot=      289560 NShNF=      289560 NShFF=           0 NBatch=        2956 AvBLen=        98.0
 IPart= 17 NShTot=      221002 NShNF=      221002 NShFF=           0 NBatch=        2161 AvBLen=       102.3
 IPart= 24 NShTot=      305436 NShNF=      305436 NShFF=           0 NBatch=        2731 AvBLen=       111.8
 IPart=  7 NShTot=      266656 NShNF=      266656 NShFF=           0 NBatch=        2645 AvBLen=       100.8
 IPart= 14 NShTot=      335207 NShNF=      335207 NShFF=           0 NBatch=        3444 AvBLen=        97.3
 IPart= 21 NShTot=      294440 NShNF=      294440 NShFF=           0 NBatch=        2967 AvBLen=        99.2
 IPart= 13 NShTot=      292042 NShNF=      292042 NShFF=           0 NBatch=        3138 AvBLen=        93.1
 IPart= 22 NShTot=      298691 NShNF=      298691 NShFF=           0 NBatch=        2945 AvBLen=       101.4
 IPart= 10 NShTot=      359493 NShNF=      359493 NShFF=           0 NBatch=        2966 AvBLen=       121.2
 IPart=  2 NShTot=      259269 NShNF=      259269 NShFF=           0 NBatch=        2753 AvBLen=        94.2
 IPart=  8 NShTot=      376885 NShNF=      376885 NShFF=           0 NBatch=        3185 AvBLen=       118.3
 IPart=  4 NShTot=      286459 NShNF=      286459 NShFF=           0 NBatch=        2897 AvBLen=        98.9
 IPart= 16 NShTot=      359756 NShNF=      359756 NShFF=           0 NBatch=        3212 AvBLen=       112.0
 IPart= 31 NShTot=      329320 NShNF=      329320 NShFF=           0 NBatch=        2698 AvBLen=       122.1
 IPart=  5 NShTot=      300163 NShNF=      300163 NShFF=           0 NBatch=        2805 AvBLen=       107.0
 IPart= 15 NShTot=      320268 NShNF=      320268 NShFF=           0 NBatch=        2993 AvBLen=       107.0
 IPart= 25 NShTot=      286060 NShNF=      286060 NShFF=           0 NBatch=        2493 AvBLen=       114.7
 IPart= 12 NShTot=      284229 NShNF=      284229 NShFF=           0 NBatch=        2708 AvBLen=       105.0
 IPart= 19 NShTot=      311097 NShNF=      311097 NShFF=           0 NBatch=        2829 AvBLen=       110.0
 IPart= 11 NShTot=      286602 NShNF=      286602 NShFF=           0 NBatch=        2955 AvBLen=        97.0
 IPart= 30 NShTot=      256818 NShNF=      256818 NShFF=           0 NBatch=        2639 AvBLen=        97.3
 IPart=  0 NShTot=      287714 NShNF=      287714 NShFF=           0 NBatch=        2727 AvBLen=       105.5
 CoulSu:  NxtVal=       13089793.
 ReadGW:  IGet=0 IStart=           1 Next=           1 LGW=           0.
 Remaining memory in FofDFT      399.83 Mw
 CkSvGd:  ISavGI=        -1 IRadAn=       5 IRASav=       5 ISavGd=        -1.
 CalDSu:  NPrtUS=  32 ThrOK=T IAlg=1 NPAlg=2 DoDPD=T LenP=       45150 LenD1P=             0.
 IPart=  0 IRanGd=          0 ScrnBf=T ScrnGd=T RCrit=4.00D+00 DoMicB=T.
 IPart= 15         8760 of         9736 points in      14 batches and       35 microbatches, Max-NSigAt=      12 Max-NSgAt2=      12
 IPart=  1         7925 of         8696 points in      14 batches and       33 microbatches, Max-NSigAt=      12 Max-NSgAt2=      12
 IPart= 14         5944 of         6884 points in      10 batches and       49 microbatches, Max-NSigAt=      12 Max-NSgAt2=      12
 IPart= 16         7038 of         7602 points in      10 batches and       18 microbatches, Max-NSigAt=      12 Max-NSgAt2=      12
 IPart=  9         9950 of        10178 points in      14 batches and       37 microbatches, Max-NSigAt=      12 Max-NSgAt2=      12
 IPart= 28         5059 of         5444 points in       8 batches and       32 microbatches, Max-NSigAt=      12 Max-NSgAt2=      12
 IPart= 10        10676 of        12846 points in      20 batches and       47 microbatches, Max-NSigAt=      12 Max-NSgAt2=      12
 IPart= 11         6616 of         7838 points in      13 batches and       61 microbatches, Max-NSigAt=      12 Max-NSgAt2=      12
 IPart=  6        10181 of        12234 points in      18 batches and       64 microbatches, Max-NSigAt=      12 Max-NSgAt2=      12
 IPart= 21         8651 of        10062 points in      16 batches and       51 microbatches, Max-NSigAt=      12 Max-NSgAt2=      12
 IPart=  2        12267 of        15212 points in      24 batches and      101 microbatches, Max-NSigAt=      12 Max-NSgAt2=      12
 IPart= 19         7693 of         7992 points in      13 batches and       35 microbatches, Max-NSigAt=      12 Max-NSgAt2=      12
 IPart= 31         6279 of         7196 points in      11 batches and       50 microbatches, Max-NSigAt=      12 Max-NSgAt2=      12
 IPart= 24         9007 of        10462 points in      15 batches and       39 microbatches, Max-NSigAt=      12 Max-NSgAt2=      12
 IPart= 29        10685 of        11920 points in      17 batches and       82 microbatches, Max-NSigAt=      12 Max-NSgAt2=      12
 IPart= 25         8921 of        10798 points in      17 batches and       52 microbatches, Max-NSigAt=      12 Max-NSgAt2=      12
 IPart=  4         5506 of         6844 points in      11 batches and       42 microbatches, Max-NSigAt=      12 Max-NSgAt2=      12
 IPart= 30         7941 of         8274 points in      14 batches and       40 microbatches, Max-NSigAt=      12 Max-NSgAt2=      12
 IPart= 26         9933 of        11142 points in      16 batches and       34 microbatches, Max-NSigAt=      12 Max-NSgAt2=      12
 IPart= 22         6869 of         8148 points in      12 batches and       57 microbatches, Max-NSigAt=      12 Max-NSgAt2=      12
 IPart= 20         6662 of         7094 points in      12 batches and       50 microbatches, Max-NSigAt=      12 Max-NSgAt2=      12
 IPart=  3         7983 of         8804 points in      14 batches and       51 microbatches, Max-NSigAt=      12 Max-NSgAt2=      12
 IPart= 18         5715 of         6532 points in      11 batches and       45 microbatches, Max-NSigAt=      12 Max-NSgAt2=      12
 IPart= 12         5333 of         6272 points in      10 batches and       64 microbatches, Max-NSigAt=      12 Max-NSgAt2=      12
 IPart=  5         6336 of         7468 points in      11 batches and       38 microbatches, Max-NSigAt=      12 Max-NSgAt2=      12
 IPart=  0         5239 of         5956 points in      10 batches and       31 microbatches, Max-NSigAt=      12 Max-NSgAt2=      12
 IPart= 13         6040 of         6926 points in      11 batches and       54 microbatches, Max-NSigAt=      12 Max-NSgAt2=      12
 IPart=  8         7802 of         8618 points in      14 batches and       51 microbatches, Max-NSigAt=      12 Max-NSgAt2=      12
 IPart= 23         5905 of         6728 points in      11 batches and       50 microbatches, Max-NSigAt=      12 Max-NSgAt2=      12
 IPart= 17         5535 of         6444 points in      10 batches and       40 microbatches, Max-NSigAt=      12 Max-NSgAt2=      12
 IPart=  7         5936 of         6718 points in      11 batches and       53 microbatches, Max-NSigAt=      12 Max-NSgAt2=      12
 IPart= 27         6758 of         7378 points in      12 batches and       45 microbatches, Max-NSigAt=      12 Max-NSgAt2=      12
 Forces at end of L703
 I=    0 X=  -4.848140014337D-01 Y=   1.295818169317D-01 Z=  -1.768785564400D-01
 I=    1 X=   2.511298609010D-02 Y=   5.918886293355D-02 Z=   2.562421987677D-02
 I=    2 X=   3.021489606869D-05 Y=   1.262281549066D-04 Z=   3.328806675746D-04
 I=    3 X=  -8.459187935461D-06 Y=  -1.102548994009D-05 Z=   2.267386576893D-05
 I=    4 X=   8.909966605875D-05 Y=   1.141155939131D-04 Z=   2.924940702709D-05
 I=    5 X=  -8.045488895148D-05 Y=  -2.307443314608D-04 Z=  -1.098798737020D-05
 I=    6 X=  -2.505641074100D-02 Y=  -5.912281883399D-02 Z=  -2.597760003569D-02
 I=    7 X=   7.789333166419D-06 Y=   1.168769879998D-04 Z=  -2.561210866410D-04
 I=    8 X=  -5.158438614927D-06 Y=   1.173077882366D-05 Z=  -2.892726701065D-06
 I=    9 X=  -1.730565900204D-05 Y=  -2.953228096692D-05 Z=   2.782439134208D-05
 I=   10 X=  -2.491511921332D-05 Y=  -9.931184485668D-05 Z=   6.757401517499D-05
 I=   11 X=   3.530580487632D-05 Y=  -4.873102209002D-05 Z=   5.475090104801D-05
 I=   12 X=  -8.269175553943D-05 Y=  -1.565064589132D-05 Z=   8.842871175085D-05
 FrcOut:
 IF    =    61 IFX   =    97 IFXYZ =   133
 IFFX  =   169 IFFFX =   169 IFLen =    36
 IFFLen=     0 IFFFLn=     0 IEDerv=   169
 LEDerv=  1781 IFroze=  2356 ICStrt=146681
 -------------------------------------------------------------------
 Center     Atomic                   Forces (Hartrees/Bohr)
 Number     Number              X              Y              Z
 -------------------------------------------------------------------
      1        6          -0.025112986   -0.059188863   -0.025624220
      2        8          -0.000030215   -0.000126228   -0.000332881
      3        1           0.000008459    0.000011025   -0.000022674
      4        1          -0.000089100   -0.000114116   -0.000029249
      5        1           0.000080455    0.000230744    0.000010988
      6        6           0.025056411    0.059122819    0.025977600
      7        6          -0.000007789   -0.000116877    0.000256121
      8        1           0.000005158   -0.000011731    0.000002893
      9        1           0.000017306    0.000029532   -0.000027824
     10        1           0.000024915    0.000099312   -0.000067574
     11        1          -0.000035306    0.000048731   -0.000054751
     12        1           0.000082692    0.000015651   -0.000088429
 -------------------------------------------------------------------
 Cartesian Forces:  Max     0.059188863 RMS     0.016320641
 From PutF, contents of force:
   1   -0.3218926802D-03
   2    0.1582354232D-04
   3   -0.1213610926D-04
   4   -0.6251313524D-04
   5    0.3745750565D-04
   6    0.7869559420D-04
   7    0.6069218157D-04
   8   -0.2634493180D-03
   9   -0.3985712308D-04
  10   -0.3325395788D-05
  11   -0.2134170509D-04
  12   -0.6258771262D-04
  13    0.7547510557D-04
  14    0.1077276787D-03
  15    0.1071162353D-04
  16   -0.4750452576D-04
  17    0.2148891698D-03
  18    0.6226834896D-04
  19    0.1182014299D-03
  20    0.5702809986D-04
  21   -0.5975149765D-05
  22   -0.4785966390D-05
  23   -0.3265879003D-03
  24   -0.3067779840D-04
  25    0.5367589508D-04
  26   -0.3994730324D-03
  27    0.2486526227D-04
  28   -0.1331748154D-03
  29    0.5939969814D-03
  30   -0.6936307313D-01
 -----------------------------------------------------------------------------------------------
                       Internal Coordinate Forces (Hartree/Bohr or radian)
  Cent   Atom   N1       Length/X         N2         Alpha/Y        N3         Beta/Z          J
 -----------------------------------------------------------------------------------------------
      1  C 
      2  O        1  -0.000322(     1)
      3  H        1   0.000016(     2)      2   0.000037(    12)
      4  H        1  -0.000012(     3)      2   0.000079(    13)      3  -0.000263(    22)     0
      5  H        2  -0.000063(     4)      1   0.000061(    14)      3  -0.000399(    23)     0
      6  C        1  -0.069363(     5)      2   0.000594(    15)      3  -0.000133(    24)     0
      7  C        6  -0.000040(     6)      1  -0.000327(    16)      2  -0.000031(    25)     0
      8  H        6  -0.000003(     7)      7   0.000011(    17)      1   0.000054(    26)     0
      9  H        6  -0.000021(     8)      7  -0.000048(    18)      8   0.000057(    27)     0
     10  H        7  -0.000063(     9)      6   0.000215(    19)      8   0.000025(    28)     0
     11  H        7   0.000075(    10)      6   0.000062(    20)     10  -0.000006(    29)     0
     12  H        7   0.000108(    11)      6   0.000118(    21)     10  -0.000005(    30)     0
 -----------------------------------------------------------------------------------------------
 Internal  Forces:  Max     0.069363073 RMS     0.012665121
 Final forces over variables, Energy=-1.94292445D+02:
 -3.21892680D-04 1.58235423D-05-1.21361093D-05-6.25131352D-05
  3.74575056D-05 7.86955942D-05 6.06921816D-05-2.63449318D-04
 -3.98571231D-05-3.32539579D-06-2.13417051D-05-6.25877126D-05
  7.54751056D-05 1.07727679D-04 1.07116235D-05-4.75045258D-05
  2.14889170D-04 6.22683490D-05 1.18201430D-04 5.70280999D-05
 -5.97514976D-06-4.78596639D-06-3.26587900D-04-3.06777984D-05
  5.36758951D-05-3.99473032D-04 2.48652623D-05-1.33174815D-04
  5.93996981D-04-6.93630731D-02

 GradGradGradGradGradGradGradGradGradGradGradGradGradGradGradGradGradGrad
 Berny optimization.
 Search for a local minimum.
 Step number   3 out of a maximum of   50
 All quantities printed in internal units (Hartrees-Bohrs-Radians)
 Update second derivatives using D2CorN and points    1    2    3
 DE= -8.62D-05 DEPred=-7.31D-05 R= 1.18D+00
 TightC=F SS=  1.41D+00  RLast= 4.77D-02 DXNew= 5.0454D-01 1.4303D-01
 Trust test= 1.18D+00 RLast= 4.77D-02 DXMaxT set to 3.00D-01
 ITU=  1  1  0
     Eigenvalues ---    0.01853   0.03460   0.04602   0.06525   0.09361
     Eigenvalues ---    0.11708   0.13507   0.13842   0.15442   0.16014
     Eigenvalues ---    0.24372   0.27448   0.28878   0.31664   0.34466
     Eigenvalues ---    0.34512   0.34686   0.34733   0.34757   0.35067
     Eigenvalues ---    0.35258   0.35442   0.38300   0.39251   0.39389
     Eigenvalues ---    0.39840   0.40571   0.48208   0.561901000.00000
 RFO step:  Lambda=-4.23016070D-06 EMin= 1.85319189D-02
 Quartic linear search produced a step of  0.10495.
 Variable       Old X    -DE/DX   Delta X   Delta X   Delta X     New X
                                 (Linear)    (Quad)   (Total)
    R1        2.59118  -0.00032  -0.00080  -0.00013  -0.00093   2.59025
    R2        2.04567   0.00002  -0.00019   0.00019  -0.00000   2.04567
    R3        2.05605  -0.00001  -0.00019   0.00010  -0.00009   2.05596
    R4        1.80829  -0.00006  -0.00001  -0.00012  -0.00012   1.80817
    A2        1.92637   0.00004   0.00054  -0.00035   0.00019   1.92657
    A3        2.01849   0.00008   0.00070  -0.00036   0.00034   2.01883
    A4        1.90804   0.00006   0.00048   0.00006   0.00054   1.90858
    D3        3.99567  -0.00026  -0.00275   0.00119  -0.00155   3.99412
   R21        2.83681  -0.00004  -0.00037   0.00013  -0.00024   2.83657
   R22        2.05215  -0.00000  -0.00016   0.00011  -0.00005   2.05209
   R23        2.04971  -0.00002  -0.00015   0.00004  -0.00010   2.04961
   R24        2.06866  -0.00006   0.00013  -0.00029  -0.00016   2.06850
   R25        2.06115   0.00008  -0.00001   0.00025   0.00023   2.06138
   R26        2.06042   0.00011  -0.00003   0.00036   0.00033   2.06075
   A22        2.01104   0.00001   0.00064   0.00005   0.00069   2.01173
   A23        2.01919  -0.00005   0.00071  -0.00027   0.00045   2.01963
   A24        1.94348   0.00021   0.00052   0.00055   0.00107   1.94454
   A25        1.94570   0.00006  -0.00007   0.00001  -0.00006   1.94564
   A26        1.94392   0.00012  -0.00014   0.00045   0.00031   1.94423
   D23        2.32604   0.00006   0.00278  -0.00028   0.00250   2.32855
   D25        2.08913  -0.00001   0.00007  -0.00003   0.00004   2.08918
   D26        4.19432  -0.00000   0.00000  -0.00029  -0.00029   4.19403
   ANG2       1.88808  -0.00033  -0.00045  -0.00121  -0.00166   1.88641
   DH2        3.16139  -0.00003  -0.00034  -0.00147  -0.00181   3.15958
   DH3        1.98434   0.00005  -0.00140   0.00025  -0.00115   1.98319
    D4        3.09704  -0.00040   0.00017  -0.00679  -0.00662   3.09042
   D24        5.13253   0.00002  -0.00152   0.00017  -0.00135   5.13117
   DH1        1.97221  -0.00013  -0.00140   0.00042  -0.00098   1.97123
   ANG1       1.95592   0.00059   0.00014   0.00157   0.00171   1.95763
    BB        4.15740  -0.06936   0.00000   0.00000   0.00000   4.15740
         Item               Value     Threshold  Converged?
 Maximum Force            0.000594     0.000450     NO 
 RMS     Force            0.000178     0.000300     YES
 Maximum Displacement     0.006622     0.001800     NO 
 RMS     Displacement     0.001519     0.001200     NO 
 Predicted change in Energy=-2.637867D-06
 GradGradGradGradGradGradGradGradGradGradGradGradGradGradGradGradGradGrad

 ---------------------------------------------------------------------------------------------------
                            Z-MATRIX (ANGSTROMS AND DEGREES)
   CD    Cent   Atom    N1       Length/X        N2       Alpha/Y        N3        Beta/Z          J
 ---------------------------------------------------------------------------------------------------
      1      1  C 
      2      2  O        1   1.370702(     1)
      3      3  H        1   1.082523(     2)      2  110.384(    12)
      4      4  H        1   1.087968(     3)      2  115.671(    13)      3  228.846(    22)      0
      5      5  H        2   0.956841(     4)      1  109.353(    14)      3  177.068(    23)      0
      6      6  C        1   2.200000(     5)      2  112.164(    15)      3  112.943(    24)      0
      7      7  C        6   1.501046(     6)      1  108.084(    16)      2  181.031(    25)      0
      8      8  H        6   1.085920(     7)      7  115.264(    17)      1  113.628(    26)      0
      9      9  H        6   1.084607(     8)      7  115.716(    18)      8  133.416(    27)      0
     10     10  H        7   1.094604(     9)      6  111.414(    19)      8  293.995(    28)      0
     11     11  H        7   1.090834(    10)      6  111.477(    20)     10  119.701(    29)      0
     12     12  H        7   1.090504(    11)      6  111.396(    21)     10  240.300(    30)      0
 ---------------------------------------------------------------------------------------------------
                         Z-Matrix orientation:                         
 ---------------------------------------------------------------------
 Center     Atomic      Atomic             Coordinates (Angstroms)
 Number     Number       Type             X           Y           Z
 ---------------------------------------------------------------------
      1          6           0        0.000000    0.000000    0.000000
      2          8           0        0.000000    0.000000    1.370702
      3          1           0        1.014734    0.000000   -0.377055
      4          1           0       -0.645306    0.738328   -0.471304
      5          1           0       -0.901590    0.046181    1.687793
      6          6           0       -0.794232   -1.876263   -0.829960
      7          6           0       -0.729000   -1.787993   -2.326988
      8          1           0       -1.795477   -1.907910   -0.410759
      9          1           0       -0.138735   -2.609504   -0.372739
     10          1           0       -1.119071   -2.695704   -2.798227
     11          1           0       -1.317828   -0.950576   -2.703729
     12          1           0        0.296915   -1.659318   -2.673599
 ---------------------------------------------------------------------
                    Distance matrix (angstroms):
                    1          2          3          4          5
     1  C    0.000000
     2  O    1.370702   0.000000
     3  H    1.082523   2.020976   0.000000
     4  H    1.087968   2.086752   1.819270   0.000000
     5  H    1.914064   0.956841   2.817451   2.281764   0.000000
     6  C    2.200000   2.999013   2.645344   2.643274   3.169605
     7  C    3.023778   4.171483   3.168559   3.135740   4.417290
     8  H    2.651902   3.168196   3.396844   2.886024   3.003570
     9  H    2.639639   3.141392   2.853072   3.387375   3.446796
    10  H    4.043416   5.089116   4.204999   4.175116   5.262091
    11  H    3.154428   4.386485   3.428973   2.878959   4.522416
    12  H    3.160637   4.381537   2.922792   3.389187   4.833930
                    6          7          8          9         10
     6  C    0.000000
     7  C    1.501046   0.000000
     8  H    1.085920   2.196289   0.000000
     9  H    1.084607   2.200542   1.799577   0.000000
    10  H    2.156636   1.094604   2.603487   2.617534   0.000000
    11  H    2.154543   1.090834   2.530286   3.094482   1.758949
    12  H    2.153293   1.090504   3.091981   2.527173   1.759160
                   11         12
    11  H    0.000000
    12  H    1.763695   0.000000
 Symmetry turned off by external request.
 Stoichiometry    C3H8O
 Framework group  C1[X(C3H8O)]
 Deg. of freedom    30
 Full point group                 C1      NOp   1
 Rotational constants (GHZ):     21.0052905      2.9606654      2.7509730
 Standard basis: Jun-CC-pVTZ (5D, 7F)
   268 basis functions,   384 primitive gaussians,   300 cartesian basis functions
    17 alpha electrons       17 beta electrons
       nuclear repulsion energy       120.7995773012 Hartrees.
 NAtoms=   12 NActive=   12 NUniq=   12 SFac= 1.00D+00 NAtFMM=   60 NAOKFM=F Big=F
 Integral buffers will be    131072 words long.
 Raffenetti 2 integral format.
 Two-electron integral symmetry is turned off.
 Nuclear repulsion after empirical dispersion term =      120.7950418982 Hartrees.
 One-electron integrals computed using PRISM.
 NBasis=   268 RedAO= T EigKep=  1.06D-04  NBF=   268
 NBsUse=   268 1.00D-06 EigRej= -1.00D+00 NBFU=   268
 ExpMin= 3.57D-02 ExpMax= 1.53D+04 ExpMxC= 5.22D+02 IAcc=3 IRadAn=         5 AccDes= 0.00D+00
 Harris functional with IExCor= 4639 and IRadAn=       5 diagonalized for initial guess.
 HarFok:  IExCor= 4639 AccDes= 0.00D+00 IRadAn=         5 IDoV= 1 UseB2=F ITyADJ=14
 ICtDFT=  3500011 ScaDFX=  1.000000  1.000000  1.000000  1.000000
 FoFCou: FMM=F IPFlag=           0 FMFlag=      100000 FMFlg1=           0
         NFxFlg=           0 DoJE=T BraDBF=F KetDBF=T FulRan=T
         wScrn=  0.000000 ICntrl=     500 IOpCl=  0 I1Cent=   200000004 NGrid=           0
         NMat0=    1 NMatS0=      1 NMatT0=    0 NMatD0=    1 NMtDS0=    0 NMtDT0=    0
 Symmetry not used in FoFCou.
 Mixing orbitals, IMix= 1 IMixAn=  0 NRI=1 NE=   17 Coef=  7.07106781D-01  7.07106781D-01
 Mixing orbitals, IMix= 1 IMixAn=  0 NRI=1 NE=   17 Coef= -7.07106781D-01  7.07106781D-01
 Initial guess <Sx>= 0.0000 <Sy>= 0.0000 <Sz>= 0.0000 <S**2>= 1.0000 S= 0.6180
 Requested convergence on RMS density matrix=1.00D-08 within 128 cycles.
 Requested convergence on MAX density matrix=1.00D-06.
 Requested convergence on             energy=1.00D-06.
 No special actions if energy rises.
 SCF Done:  E(UwB97XD) =  -194.292449621     A.U. after   16 cycles
            NFock= 16  Conv=0.94D-08     -V/T= 2.0080
 <Sx>= 0.0000 <Sy>= 0.0000 <Sz>= 0.0000 <S**2>= 0.0000 S= 0.0000
 <L.S>=  0.00000000000    
 Annihilation of the first spin contaminant:
 S**2 before annihilation     0.0000,   after    -0.0000
 DipInt: DoE/N= T T RetVal/Mat= T F Init=T NMatP=  1 IDeriv=0 Min/MaxMlt=  1  1
 Entering OneElI...
 Multipole integrals L=1 to 1 MinM= 0 MaxM= 0.
 Requested accuracy = 0.1000D-12
 PrsmSu:  NPrtUS=   1 ThrOK=F IAlg=1 NPAlg=1 LenDen=           0.
 Prism:   IPart=     0 DynPar=F LinDyn=F Incr=          49.
 PRISM was handed   419015274 working-precision words and  4949 shell-pairs
 IPart=  0 NShTot=        4949 NBatch=          63 AvBLen=        78.6
 PrSmSu:  NxtVal=             50.
 Entering OneElI...
 Calculate overlap and kinetic energy integrals
    NBasis = 300  MinDer = 1  MaxDer = 1
 Requested accuracy = 0.1000D-12
 PrsmSu:  NPrtUS=  32 ThrOK=T IAlg=1 NPAlg=1 LenDen=           0.
 PRISM was handed    12993843 working-precision words and  5025 shell-pairs
 PRISM was handed    12993843 working-precision words and  5025 shell-pairs
 PRISM was handed    12993843 working-precision words and  5025 shell-pairs
 PRISM was handed    12993843 working-precision words and  5025 shell-pairs
 Prism:   IPart=     0 DynPar=F LinDyn=F Incr=           1.
 PRISM was handed    12993843 working-precision words and  5025 shell-pairs
 PRISM was handed    12993843 working-precision words and  5025 shell-pairs
 PRISM was handed    12993843 working-precision words and  5025 shell-pairs
 PRISM was handed    12993843 working-precision words and  5025 shell-pairs
 PRISM was handed    12993843 working-precision words and  5025 shell-pairs
 PRISM was handed    12993843 working-precision words and  5025 shell-pairs
 PRISM was handed    12993843 working-precision words and  5025 shell-pairs
 PRISM was handed    12993843 working-precision words and  5025 shell-pairs
 PRISM was handed    12993843 working-precision words and  5025 shell-pairs
 PRISM was handed    12993843 working-precision words and  5025 shell-pairs
 PRISM was handed    12993843 working-precision words and  5025 shell-pairs
 PRISM was handed    12993843 working-precision words and  5025 shell-pairs
 PRISM was handed    12993843 working-precision words and  5025 shell-pairs
 PRISM was handed    12993843 working-precision words and  5025 shell-pairs
 PRISM was handed    12993843 working-precision words and  5025 shell-pairs
 PRISM was handed    12993843 working-precision words and  5025 shell-pairs
 PRISM was handed    12993843 working-precision words and  5025 shell-pairs
 PRISM was handed    12993843 working-precision words and  5025 shell-pairs
 PRISM was handed    12993843 working-precision words and  5025 shell-pairs
 PRISM was handed    12993843 working-precision words and  5025 shell-pairs
 PRISM was handed    12993843 working-precision words and  5025 shell-pairs
 PRISM was handed    12993843 working-precision words and  5025 shell-pairs
 PRISM was handed    12993843 working-precision words and  5025 shell-pairs
 PRISM was handed    12993843 working-precision words and  5025 shell-pairs
 PRISM was handed    12993843 working-precision words and  5025 shell-pairs
 PRISM was handed    12993843 working-precision words and  5025 shell-pairs
 PRISM was handed    12993843 working-precision words and  5025 shell-pairs
 PRISM was handed    12993843 working-precision words and  5025 shell-pairs
 IPart= 28 NShTot=         141 NBatch=          21 AvBLen=         6.7
 IPart= 25 NShTot=         143 NBatch=          21 AvBLen=         6.8
 IPart= 11 NShTot=         159 NBatch=          27 AvBLen=         5.9
 IPart= 18 NShTot=         147 NBatch=          21 AvBLen=         7.0
 IPart= 31 NShTot=         138 NBatch=          20 AvBLen=         6.9
 IPart= 24 NShTot=         143 NBatch=          21 AvBLen=         6.8
 IPart= 23 NShTot=         144 NBatch=          21 AvBLen=         6.9
 IPart= 30 NShTot=         139 NBatch=          20 AvBLen=         7.0
 IPart= 13 NShTot=         158 NBatch=          26 AvBLen=         6.1
 IPart= 27 NShTot=         141 NBatch=          21 AvBLen=         6.7
 IPart=  1 NShTot=         196 NBatch=          58 AvBLen=         3.4
 IPart= 10 NShTot=         161 NBatch=          27 AvBLen=         6.0
 IPart= 16 NShTot=         150 NBatch=          22 AvBLen=         6.8
 IPart= 26 NShTot=         142 NBatch=          21 AvBLen=         6.8
 IPart=  7 NShTot=         167 NBatch=          31 AvBLen=         5.4
 IPart= 20 NShTot=         145 NBatch=          21 AvBLen=         6.9
 IPart= 21 NShTot=         145 NBatch=          21 AvBLen=         6.9
 IPart=  5 NShTot=         173 NBatch=          36 AvBLen=         4.8
 IPart=  6 NShTot=         171 NBatch=          34 AvBLen=         5.0
 IPart=  9 NShTot=         164 NBatch=          29 AvBLen=         5.7
 IPart= 12 NShTot=         159 NBatch=          27 AvBLen=         5.9
 IPart=  8 NShTot=         165 NBatch=          29 AvBLen=         5.7
 IPart= 15 NShTot=         154 NBatch=          22 AvBLen=         7.0
 IPart= 17 NShTot=         149 NBatch=          22 AvBLen=         6.8
 IPart= 14 NShTot=         157 NBatch=          25 AvBLen=         6.3
 IPart= 19 NShTot=         147 NBatch=          21 AvBLen=         7.0
 IPart= 29 NShTot=         140 NBatch=          20 AvBLen=         7.0
 IPart=  2 NShTot=         185 NBatch=          48 AvBLen=         3.9
 IPart=  0 NShTot=         202 NBatch=          64 AvBLen=         3.2
 IPart=  4 NShTot=         173 NBatch=          36 AvBLen=         4.8
 IPart=  3 NShTot=         182 NBatch=          45 AvBLen=         4.0
 IPart= 22 NShTot=         145 NBatch=          21 AvBLen=         6.9
 PrSmSu:  NxtVal=             33.
 Entering OneElI...
 Calculate potential energy integrals
    NBasis = 300  MinDer = 1  MaxDer = 1
 Requested accuracy = 0.1000D-12
 PrsmSu:  NPrtUS=  32 ThrOK=T IAlg=1 NPAlg=1 LenDen=           0.
 Prism:   IPart=     0 DynPar=F LinDyn=F Incr=          18.
 PRISM was handed    13008196 working-precision words and  4834 shell-pairs
 PRISM was handed    13008196 working-precision words and  4834 shell-pairs
 PRISM was handed    13008196 working-precision words and  4834 shell-pairs
 PRISM was handed    13008196 working-precision words and  4834 shell-pairs
 PRISM was handed    13008196 working-precision words and  4834 shell-pairs
 PRISM was handed    13008196 working-precision words and  4834 shell-pairs
 PRISM was handed    13008196 working-precision words and  4834 shell-pairs
 PRISM was handed    13008196 working-precision words and  4834 shell-pairs
 PRISM was handed    13008196 working-precision words and  4834 shell-pairs
 PRISM was handed    13008196 working-precision words and  4834 shell-pairs
 PRISM was handed    13008196 working-precision words and  4834 shell-pairs
 PRISM was handed    13008196 working-precision words and  4834 shell-pairs
 PRISM was handed    13008196 working-precision words and  4834 shell-pairs
 PRISM was handed    13008196 working-precision words and  4834 shell-pairs
 PRISM was handed    13008196 working-precision words and  4834 shell-pairs
 PRISM was handed    13008196 working-precision words and  4834 shell-pairs
 PRISM was handed    13008196 working-precision words and  4834 shell-pairs
 PRISM was handed    13008196 working-precision words and  4834 shell-pairs
 PRISM was handed    13008196 working-precision words and  4834 shell-pairs
 PRISM was handed    13008196 working-precision words and  4834 shell-pairs
 PRISM was handed    13008196 working-precision words and  4834 shell-pairs
 PRISM was handed    13008196 working-precision words and  4834 shell-pairs
 PRISM was handed    13008196 working-precision words and  4834 shell-pairs
 PRISM was handed    13008196 working-precision words and  4834 shell-pairs
 PRISM was handed    13008196 working-precision words and  4834 shell-pairs
 PRISM was handed    13008196 working-precision words and  4834 shell-pairs
 PRISM was handed    13008196 working-precision words and  4834 shell-pairs
 PRISM was handed    13008196 working-precision words and  4834 shell-pairs
 PRISM was handed    13008196 working-precision words and  4834 shell-pairs
 PRISM was handed    13008196 working-precision words and  4834 shell-pairs
 PRISM was handed    13008196 working-precision words and  4834 shell-pairs
 PRISM was handed    13008196 working-precision words and  4834 shell-pairs
 IPart= 25 NShTot=        1668 NBatch=         139 AvBLen=        12.0
 IPart= 11 NShTot=        1848 NBatch=         154 AvBLen=        12.0
 IPart= 14 NShTot=        1764 NBatch=         147 AvBLen=        12.0
 IPart= 26 NShTot=        1656 NBatch=         138 AvBLen=        12.0
 IPart= 16 NShTot=        1728 NBatch=         144 AvBLen=        12.0
 IPart= 28 NShTot=        1632 NBatch=         136 AvBLen=        12.0
 IPart= 13 NShTot=        1788 NBatch=         149 AvBLen=        12.0
 IPart= 29 NShTot=        1596 NBatch=         133 AvBLen=        12.0
 IPart=  0 NShTot=        2280 NBatch=         190 AvBLen=        12.0
 IPart= 23 NShTot=        1692 NBatch=         141 AvBLen=        12.0
 IPart= 30 NShTot=        1584 NBatch=         132 AvBLen=        12.0
 IPart= 18 NShTot=        1728 NBatch=         144 AvBLen=        12.0
 IPart=  6 NShTot=        1956 NBatch=         163 AvBLen=        12.0
 IPart= 15 NShTot=        1752 NBatch=         146 AvBLen=        12.0
 IPart=  8 NShTot=        1920 NBatch=         160 AvBLen=        12.0
 IPart= 24 NShTot=        1692 NBatch=         141 AvBLen=        12.0
 IPart= 21 NShTot=        1704 NBatch=         142 AvBLen=        12.0
 IPart=  7 NShTot=        1956 NBatch=         163 AvBLen=        12.0
 IPart= 12 NShTot=        1836 NBatch=         153 AvBLen=        12.0
 IPart=  3 NShTot=        2112 NBatch=         176 AvBLen=        12.0
 IPart= 27 NShTot=        1644 NBatch=         137 AvBLen=        12.0
 IPart= 22 NShTot=        1704 NBatch=         142 AvBLen=        12.0
 IPart= 31 NShTot=        1560 NBatch=         130 AvBLen=        12.0
 IPart=  5 NShTot=        1992 NBatch=         166 AvBLen=        12.0
 IPart=  2 NShTot=        2124 NBatch=         177 AvBLen=        12.0
 IPart= 10 NShTot=        1872 NBatch=         156 AvBLen=        12.0
 IPart= 17 NShTot=        1728 NBatch=         144 AvBLen=        12.0
 IPart= 20 NShTot=        1704 NBatch=         142 AvBLen=        12.0
 IPart=  9 NShTot=        1896 NBatch=         158 AvBLen=        12.0
 IPart= 19 NShTot=        1716 NBatch=         143 AvBLen=        12.0
 IPart=  1 NShTot=        2160 NBatch=         180 AvBLen=        12.0
 IPart=  4 NShTot=        2016 NBatch=         168 AvBLen=        12.0
 PrSmSu:  NxtVal=            577.
 l701 out
 I=    0 X=  -4.845292498964D-01 Y=   1.346810230922D-01 Z=  -1.745109709029D-01
 I=    1 X=   1.349698107427D+00 Y=   2.375134642364D+00 Z=  -2.904840197381D+00
 I=    2 X=   3.250880195624D+00 Y=   1.274501871029D+00 Z=   8.970353816609D+00
 I=    3 X=   3.497255414577D+00 Y=   2.574261141264D-01 Z=  -1.337504413516D+00
 I=    4 X=  -1.931270179440D+00 Y=   2.788236929733D+00 Z=  -1.578211318677D+00
 I=    5 X=  -3.159719919316D+00 Y=   4.691563950065D-01 Z=   2.579687253239D+00
 I=    6 X=  -1.350289038723D+00 Y=  -2.599826103966D+00 Z=  -2.460504950743D-01
 I=    7 X=  -4.245064211493D-01 Y=  -1.269301754454D+00 Z=  -3.735570856453D+00
 I=    8 X=  -3.356496644984D+00 Y=  -4.980065106874D-01 Z=   1.439647329076D+00
 I=    9 X=   1.996887103066D+00 Y=  -2.844269150779D+00 Z=   1.507535262774D+00
 I=   10 X=  -1.113710751082D+00 Y=  -2.618499255144D+00 Z=  -1.635944087912D+00
 I=   11 X=  -1.750591415394D+00 Y=   2.374457849906D+00 Z=  -1.579159227033D+00
 I=   12 X=   2.991863549395D+00 Y=   2.909889728654D-01 Z=  -1.479943065651D+00
 ICntrl=      2127.
 Calling FoFJK, ICntrl=      2127 FMM=F ISym2X=0 I1Cent= 0 IOpClX= 1 NMat=1 NMatS=1 NMatT=0.
 FoFJK:  IHMeth= 1 ICntrl=    2127 DoSepK=T KAlg= 0 I1Cent=   0 FoldK=F
 IRaf=         1 NMat=   1 IRICut=       1 DoRegI=T DoRafI=F ISym2E= 0.
 FoFCou: FMM=F IPFlag=           0 FMFlag=      100000 FMFlg1=         800
         NFxFlg=           0 DoJE=F BraDBF=F KetDBF=F FulRan=T
         wScrn=  0.000000 ICntrl=    2527 IOpCl=  0 I1Cent=           0 NGrid=           0
         NMat0=    1 NMatS0=      1 NMatT0=    0 NMatD0=    1 NMtDS0=    0 NMtDT0=    0
 Symmetry not used in FoFCou.
 FoFCou:  KetSym=F NOpSet=  1 NOpAb=1 NOp=  1.
 FoFCou:  CnvScl= 1.00D+00 Thresh= 1.00D-10 IAcrcy=      10.
 PrismS was handed   418921691 working-precision words and  4917 shell-pairs
 FoFCou: LinMIO=F DoNuc=F BraDBF=F KetDBF=F HaveP=T PDBF=F HaveZ=T HaveW=F
         NIJTC =      10 NIJTAt=       0 NIJTCD=       0 NIJTT =      10
         IJTBeg=       1 IJTEnd=      10 KLTBeg=       1 KLTEnd=      10
         IPTBeg=       1 IPTEnd=      10 IPTBCv=       1 IPTECv=      10
         IZTBeg=       1 IZTEnd=      10 IZTBCv=       1 IZTECv=      10
         IWTBeg=      11 IWTEnd=      10 IWTBCv=      11 IWTECv=      10
         INTBeg=       1 INTEnd=       0 IFTBCv=       1 IFTECv=      10
 NCel replicated for PrismC:     1
 CoulSu:  IncDef=  1024 NBBP=       12090903 NTPThr=   100 NPartT=   32 Incr=        1024 LDynOK=F.
 CoulSu:  NPrtUS=  32 ThrOK=T IAlg=1 NPAlg=1 LenDen=           0 LWGrdD=           0 DoCopy=F.
 Enter PrismC: JobTyp=21 DoJE=F Cont=F.
 Enter PrismC: JobTyp=21 DoJE=F Cont=F.
 Enter PrismC: JobTyp=21 DoJE=F Cont=F.
 Enter PrismC: JobTyp=21 DoJE=F Cont=F.
 Enter PrismC: JobTyp=21 DoJE=F Cont=F.
 PrismC was handed    13001117 working-precision words and  4917 shell-pairs
 Enter PrismC: JobTyp=21 DoJE=F Cont=F.
 PrismC was handed    13001117 working-precision words and  4917 shell-pairs
 Enter PrismC: JobTyp=21 DoJE=F Cont=F.
 PrismC was handed    13001117 working-precision words and  4917 shell-pairs
 Enter PrismC: JobTyp=21 DoJE=F Cont=F.
 Enter PrismC: JobTyp=21 DoJE=F Cont=F.
 PrismC was handed    13001117 working-precision words and  4917 shell-pairs
 Enter PrismC: JobTyp=21 DoJE=F Cont=F.
 PrismC was handed    13001117 working-precision words and  4917 shell-pairs
 Enter PrismC: JobTyp=21 DoJE=F Cont=F.
 PrismC was handed    13001117 working-precision words and  4917 shell-pairs
 Enter PrismC: JobTyp=21 DoJE=F Cont=F.
 Enter PrismC: JobTyp=21 DoJE=F Cont=F.
 PrismC was handed    13001117 working-precision words and  4917 shell-pairs
 Enter PrismC: JobTyp=21 DoJE=F Cont=F.
 Enter PrismC: JobTyp=21 DoJE=F Cont=F.
 Enter PrismC: JobTyp=21 DoJE=F Cont=F.
 PrismC was handed    13001117 working-precision words and  4917 shell-pairs
 Enter PrismC: JobTyp=21 DoJE=F Cont=F.
 PrismC was handed    13001117 working-precision words and  4917 shell-pairs
 Enter PrismC: JobTyp=21 DoJE=F Cont=F.
 Enter PrismC: JobTyp=21 DoJE=F Cont=F.
 PrismC was handed    13001117 working-precision words and  4917 shell-pairs
 Enter PrismC: JobTyp=21 DoJE=F Cont=F.
 Enter PrismC: JobTyp=21 DoJE=F Cont=F.
 PrismC was handed    13001117 working-precision words and  4917 shell-pairs
 Enter PrismC: JobTyp=21 DoJE=F Cont=F.
 Enter PrismC: JobTyp=21 DoJE=F Cont=F.
 PrismC was handed    13001117 working-precision words and  4917 shell-pairs
 PrismC was handed    13001117 working-precision words and  4917 shell-pairs
 PrismC was handed    13001117 working-precision words and  4917 shell-pairs
 PrismC was handed    13001117 working-precision words and  4917 shell-pairs
 PrismC was handed    13001117 working-precision words and  4917 shell-pairs
 Enter PrismC: JobTyp=21 DoJE=F Cont=F.
 Enter PrismC: JobTyp=21 DoJE=F Cont=F.
 PrismC was handed    13001117 working-precision words and  4917 shell-pairs
 Enter PrismC: JobTyp=21 DoJE=F Cont=F.
 Enter PrismC: JobTyp=21 DoJE=F Cont=F.
 PrismC was handed    13001117 working-precision words and  4917 shell-pairs
 Enter PrismC: JobTyp=21 DoJE=F Cont=F.
 PrismC was handed    13001117 working-precision words and  4917 shell-pairs
 PrismC was handed    13001117 working-precision words and  4917 shell-pairs
 Enter PrismC: JobTyp=21 DoJE=F Cont=F.
 PrismC was handed    13001117 working-precision words and  4917 shell-pairs
 Enter PrismC: JobTyp=21 DoJE=F Cont=F.
 PrismC:  IPart=     0 DynPar=T LinDyn=F Incr=        1024 UseFst=F UseS4=T IGathr=2.
 PrismC was handed    13001117 working-precision words and  4917 shell-pairs
 PrismC was handed    13001117 working-precision words and  4917 shell-pairs
 Enter PrismC: JobTyp=21 DoJE=F Cont=F.
 PrismC was handed    13001117 working-precision words and  4917 shell-pairs
 PrismC was handed    13001117 working-precision words and  4917 shell-pairs
 PrismC was handed    13001117 working-precision words and  4917 shell-pairs
 PrismC was handed    13001117 working-precision words and  4917 shell-pairs
 PrismC was handed    13001117 working-precision words and  4917 shell-pairs
 PrismC was handed    13001117 working-precision words and  4917 shell-pairs
 PrismC was handed    13001117 working-precision words and  4917 shell-pairs
 Enter PrismC: JobTyp=21 DoJE=F Cont=F.
 PrismC was handed    13001117 working-precision words and  4917 shell-pairs
 PrismC was handed    13001117 working-precision words and  4917 shell-pairs
 IPart= 20 NShTot=      321294 NShNF=      321294 NShFF=           0 NBatch=        2378 AvBLen=       135.1
 IPart=  1 NShTot=      325995 NShNF=      325995 NShFF=           0 NBatch=        2284 AvBLen=       142.7
 IPart= 18 NShTot=      317427 NShNF=      317427 NShFF=           0 NBatch=        2399 AvBLen=       132.3
 IPart= 30 NShTot=      302198 NShNF=      302198 NShFF=           0 NBatch=        2283 AvBLen=       132.4
 IPart= 19 NShTot=      313133 NShNF=      313133 NShFF=           0 NBatch=        2386 AvBLen=       131.2
 IPart=  2 NShTot=      275550 NShNF=      275550 NShFF=           0 NBatch=        2214 AvBLen=       124.5
 IPart= 23 NShTot=      294998 NShNF=      294998 NShFF=           0 NBatch=        2357 AvBLen=       125.2
 IPart= 26 NShTot=      286907 NShNF=      286907 NShFF=           0 NBatch=        2302 AvBLen=       124.6
 IPart= 13 NShTot=      281873 NShNF=      281873 NShFF=           0 NBatch=        2311 AvBLen=       122.0
 IPart= 28 NShTot=      292833 NShNF=      292833 NShFF=           0 NBatch=        2021 AvBLen=       144.9
 IPart= 17 NShTot=      324460 NShNF=      324460 NShFF=           0 NBatch=        2437 AvBLen=       133.1
 IPart=  0 NShTot=      286346 NShNF=      286346 NShFF=           0 NBatch=        2397 AvBLen=       119.5
 IPart= 25 NShTot=      319942 NShNF=      319942 NShFF=           0 NBatch=        2372 AvBLen=       134.9
 IPart=  9 NShTot=      300953 NShNF=      300953 NShFF=           0 NBatch=        2295 AvBLen=       131.1
 IPart= 10 NShTot=      300939 NShNF=      300939 NShFF=           0 NBatch=        2306 AvBLen=       130.5
 IPart=  4 NShTot=      317709 NShNF=      317709 NShFF=           0 NBatch=        2355 AvBLen=       134.9
 IPart=  7 NShTot=      292648 NShNF=      292648 NShFF=           0 NBatch=        2355 AvBLen=       124.3
 IPart= 27 NShTot=      308754 NShNF=      308754 NShFF=           0 NBatch=        2377 AvBLen=       129.9
 IPart= 24 NShTot=      341338 NShNF=      341338 NShFF=           0 NBatch=        2303 AvBLen=       148.2
 IPart= 14 NShTot=      318590 NShNF=      318590 NShFF=           0 NBatch=        2533 AvBLen=       125.8
 IPart= 22 NShTot=      305524 NShNF=      305524 NShFF=           0 NBatch=        2252 AvBLen=       135.7
 IPart=  6 NShTot=      298018 NShNF=      298018 NShFF=           0 NBatch=        2362 AvBLen=       126.2
 IPart= 31 NShTot=      310931 NShNF=      310931 NShFF=           0 NBatch=        2441 AvBLen=       127.4
 IPart= 15 NShTot=      330723 NShNF=      330723 NShFF=           0 NBatch=        2426 AvBLen=       136.3
 IPart= 29 NShTot=      328383 NShNF=      328383 NShFF=           0 NBatch=        2312 AvBLen=       142.0
 IPart= 21 NShTot=      327187 NShNF=      327187 NShFF=           0 NBatch=        2362 AvBLen=       138.5
 IPart= 16 NShTot=      337002 NShNF=      337002 NShFF=           0 NBatch=        2309 AvBLen=       146.0
 IPart=  8 NShTot=      297122 NShNF=      297122 NShFF=           0 NBatch=        2192 AvBLen=       135.5
 IPart=  3 NShTot=      319338 NShNF=      319338 NShFF=           0 NBatch=        2336 AvBLen=       136.7
 IPart= 12 NShTot=      290739 NShNF=      290739 NShFF=           0 NBatch=        2279 AvBLen=       127.6
 IPart=  5 NShTot=      303820 NShNF=      303820 NShFF=           0 NBatch=        2551 AvBLen=       119.1
 IPart= 11 NShTot=      291679 NShNF=      291679 NShFF=           0 NBatch=        2236 AvBLen=       130.4
 CoulSu:  NxtVal=       13089793.
 FoFCou: FMM=F IPFlag=           0 FMFlag=      100000 FMFlg1=         800
         NFxFlg=           0 DoJE=F BraDBF=F KetDBF=F FulRan=T
         wScrn=  0.000000 ICntrl=    2127 IOpCl=  1 I1Cent=           0 NGrid=           0
         NMat0=    1 NMatS0=      0 NMatT0=    1 NMatD0=    1 NMtDS0=    0 NMtDT0=    0
         CW=    0.222036    0.777964
         WU=    0.000000   12.500000
 Symmetry not used in FoFCou.
 FoFCou:  KetSym=F NOpSet=  1 NOpAb=1 NOp=  1.
 FoFCou:  CnvScl= 1.00D+00 Thresh= 1.00D-10 IAcrcy=      10.
 PrismS was handed   418916725 working-precision words and  4917 shell-pairs
 FoFCou: LinMIO=F DoNuc=F BraDBF=F KetDBF=F HaveP=T PDBF=F HaveZ=T HaveW=F
         NIJTC =      10 NIJTAt=       0 NIJTCD=       0 NIJTT =      10
         IJTBeg=       1 IJTEnd=      10 KLTBeg=       1 KLTEnd=      10
         IPTBeg=       1 IPTEnd=      10 IPTBCv=       1 IPTECv=      10
         IZTBeg=       1 IZTEnd=      10 IZTBCv=       1 IZTECv=      10
         IWTBeg=      11 IWTEnd=      10 IWTBCv=      11 IWTECv=      10
         INTBeg=       1 INTEnd=       0 IFTBCv=       1 IFTECv=      10
 NCel replicated for PrismC:     1
 CoulSu:  IncDef=  1024 NBBP=       12090903 NTPThr=   100 NPartT=   32 Incr=        1024 LDynOK=F.
 CoulSu:  NPrtUS=  32 ThrOK=T IAlg=1 NPAlg=1 LenDen=           0 LWGrdD=           0 DoCopy=F.
 Enter PrismC: JobTyp=21 DoJE=F Cont=F.
 Linear combination for Coulomb/exchange, wScrn=  0.000000
 CW=    0.222036    0.777964
 WU=    0.000000   12.500000
 PrismC:  IPart=     0 DynPar=T LinDyn=F Incr=        1024 UseFst=F UseS4=T IGathr=2.
 PrismC was handed    13000961 working-precision words and  4917 shell-pairs
 Enter PrismC: JobTyp=21 DoJE=F Cont=F.
 Enter PrismC: JobTyp=21 DoJE=F Cont=F.
 Enter PrismC: JobTyp=21 DoJE=F Cont=F.
 Linear combination for Coulomb/exchange, wScrn=  0.000000
 CW=    0.222036    0.777964
 WU=    0.000000   12.500000
 Enter PrismC: JobTyp=21 DoJE=F Cont=F.
 Enter PrismC: JobTyp=21 DoJE=F Cont=F.
 Enter PrismC: JobTyp=21 DoJE=F Cont=F.
 Linear combination for Coulomb/exchange, wScrn=  0.000000
 CW=    0.222036    0.777964
 WU=    0.000000   12.500000
 Enter PrismC: JobTyp=21 DoJE=F Cont=F.
 Linear combination for Coulomb/exchange, wScrn=  0.000000
 CW=    0.222036    0.777964
 Enter PrismC: JobTyp=21 DoJE=F Cont=F.
 Enter PrismC: JobTyp=21 DoJE=F Cont=F.
 Linear combination for Coulomb/exchange, wScrn=  0.000000
 CW=    0.222036    0.777964
 WU=    0.000000   12.500000
 Enter PrismC: JobTyp=21 DoJE=F Cont=F.
 Linear combination for Coulomb/exchange, wScrn=  0.000000
 CW=    0.222036    0.777964
 Enter PrismC: JobTyp=21 DoJE=F Cont=F.
 Linear combination for Coulomb/exchange, wScrn=  0.000000
 CW=    0.222036    0.777964
 WU=    0.000000   12.500000
 Enter PrismC: JobTyp=21 DoJE=F Cont=F.
 Linear combination for Coulomb/exchange, wScrn=  0.000000
 CW=    0.222036    0.777964
 WU=    0.000000   12.500000
 Enter PrismC: JobTyp=21 DoJE=F Cont=F.
 Linear combination for Coulomb/exchange, wScrn=  0.000000
 CW=    0.222036    0.777964
 WU=    0.000000   12.500000
 Enter PrismC: JobTyp=21 DoJE=F Cont=F.
 Linear combination for Coulomb/exchange, wScrn=  0.000000
 CW=    0.222036    0.777964
 WU=    0.000000   12.500000
 PrismC was handed    13000961 working-precision words and  4917 shell-pairs
 Linear combination for Coulomb/exchange, wScrn=  0.000000
 CW=    0.222036    0.777964
 WU=    0.000000   12.500000
 Enter PrismC: JobTyp=21 DoJE=F Cont=F.
 Linear combination for Coulomb/exchange, wScrn=  0.000000
 CW=    0.222036    0.777964
 WU=    0.000000   12.500000
 PrismC was handed    13000961 working-precision words and  4917 shell-pairs
 Linear combination for Coulomb/exchange, wScrn=  0.000000
 CW=    0.222036    0.777964
 WU=    0.000000   12.500000
 Enter PrismC: JobTyp=21 DoJE=F Cont=F.
 WU=    0.000000   12.500000
 Enter PrismC: JobTyp=21 DoJE=F Cont=F.
 Enter PrismC: JobTyp=21 DoJE=F Cont=F.
 Linear combination for Coulomb/exchange, wScrn=  0.000000
 CW=    0.222036    0.777964
 PrismC was handed    13000961 working-precision words and  4917 shell-pairs
 Enter PrismC: JobTyp=21 DoJE=F Cont=F.
 Linear combination for Coulomb/exchange, wScrn=  0.000000
 CW=    0.222036    0.777964
 WU=    0.000000   12.500000
 Enter PrismC: JobTyp=21 DoJE=F Cont=F.
 Enter PrismC: JobTyp=21 DoJE=F Cont=F.
 Linear combination for Coulomb/exchange, wScrn=  0.000000
 CW=    0.222036    0.777964
 PrismC was handed    13000961 working-precision words and  4917 shell-pairs
 WU=    0.000000   12.500000
 Enter PrismC: JobTyp=21 DoJE=F Cont=F.
 Linear combination for Coulomb/exchange, wScrn=  0.000000
 CW=    0.222036    0.777964
 WU=    0.000000   12.500000
 Enter PrismC: JobTyp=21 DoJE=F Cont=F.
 Linear combination for Coulomb/exchange, wScrn=  0.000000
 CW=    0.222036    0.777964
 WU=    0.000000   12.500000
 PrismC was handed    13000961 working-precision words and  4917 shell-pairs
 Linear combination for Coulomb/exchange, wScrn=  0.000000
 CW=    0.222036    0.777964
 WU=    0.000000   12.500000
 PrismC was handed    13000961 working-precision words and  4917 shell-pairs
 Enter PrismC: JobTyp=21 DoJE=F Cont=F.
 Linear combination for Coulomb/exchange, wScrn=  0.000000
 CW=    0.222036    0.777964
 WU=    0.000000   12.500000
 PrismC was handed    13000961 working-precision words and  4917 shell-pairs
 Linear combination for Coulomb/exchange, wScrn=  0.000000
 CW=    0.222036    0.777964
 WU=    0.000000   12.500000
 WU=    0.000000   12.500000
 PrismC was handed    13000961 working-precision words and  4917 shell-pairs
 Enter PrismC: JobTyp=21 DoJE=F Cont=F.
 Linear combination for Coulomb/exchange, wScrn=  0.000000
 CW=    0.222036    0.777964
 WU=    0.000000   12.500000
 PrismC was handed    13000961 working-precision words and  4917 shell-pairs
 Enter PrismC: JobTyp=21 DoJE=F Cont=F.
 Linear combination for Coulomb/exchange, wScrn=  0.000000
 CW=    0.222036    0.777964
 WU=    0.000000   12.500000
 PrismC was handed    13000961 working-precision words and  4917 shell-pairs
 Enter PrismC: JobTyp=21 DoJE=F Cont=F.
 Linear combination for Coulomb/exchange, wScrn=  0.000000
 CW=    0.222036    0.777964
 WU=    0.000000   12.500000
 Linear combination for Coulomb/exchange, wScrn=  0.000000
 CW=    0.222036    0.777964
 WU=    0.000000   12.500000
 PrismC was handed    13000961 working-precision words and  4917 shell-pairs
 PrismC was handed    13000961 working-precision words and  4917 shell-pairs
 Enter PrismC: JobTyp=21 DoJE=F Cont=F.
 Linear combination for Coulomb/exchange, wScrn=  0.000000
 CW=    0.222036    0.777964
 WU=    0.000000   12.500000
 Linear combination for Coulomb/exchange, wScrn=  0.000000
 CW=    0.222036    0.777964
 WU=    0.000000   12.500000
 PrismC was handed    13000961 working-precision words and  4917 shell-pairs
 PrismC was handed    13000961 working-precision words and  4917 shell-pairs
 PrismC was handed    13000961 working-precision words and  4917 shell-pairs
 Linear combination for Coulomb/exchange, wScrn=  0.000000
 CW=    0.222036    0.777964
 WU=    0.000000   12.500000
 PrismC was handed    13000961 working-precision words and  4917 shell-pairs
 PrismC was handed    13000961 working-precision words and  4917 shell-pairs
 Linear combination for Coulomb/exchange, wScrn=  0.000000
 WU=    0.000000   12.500000
 PrismC was handed    13000961 working-precision words and  4917 shell-pairs
 PrismC was handed    13000961 working-precision words and  4917 shell-pairs
 PrismC was handed    13000961 working-precision words and  4917 shell-pairs
 Enter PrismC: JobTyp=21 DoJE=F Cont=F.
 Linear combination for Coulomb/exchange, wScrn=  0.000000
 CW=    0.222036    0.777964
 WU=    0.000000   12.500000
 PrismC was handed    13000961 working-precision words and  4917 shell-pairs
 CW=    0.222036    0.777964
 WU=    0.000000   12.500000
 PrismC was handed    13000961 working-precision words and  4917 shell-pairs
 PrismC was handed    13000961 working-precision words and  4917 shell-pairs
 Enter PrismC: JobTyp=21 DoJE=F Cont=F.
 Linear combination for Coulomb/exchange, wScrn=  0.000000
 CW=    0.222036    0.777964
 WU=    0.000000   12.500000
 PrismC was handed    13000961 working-precision words and  4917 shell-pairs
 PrismC was handed    13000961 working-precision words and  4917 shell-pairs
 PrismC was handed    13000961 working-precision words and  4917 shell-pairs
 Enter PrismC: JobTyp=21 DoJE=F Cont=F.
 Linear combination for Coulomb/exchange, wScrn=  0.000000
 CW=    0.222036    0.777964
 WU=    0.000000   12.500000
 PrismC was handed    13000961 working-precision words and  4917 shell-pairs
 PrismC was handed    13000961 working-precision words and  4917 shell-pairs
 PrismC was handed    13000961 working-precision words and  4917 shell-pairs
 PrismC was handed    13000961 working-precision words and  4917 shell-pairs
 PrismC was handed    13000961 working-precision words and  4917 shell-pairs
 IPart= 26 NShTot=      314624 NShNF=      314624 NShFF=           0 NBatch=        2894 AvBLen=       108.7
 IPart= 29 NShTot=      316243 NShNF=      316243 NShFF=           0 NBatch=        3010 AvBLen=       105.1
 IPart=  6 NShTot=      326634 NShNF=      326634 NShFF=           0 NBatch=        2945 AvBLen=       110.9
 IPart= 16 NShTot=      346077 NShNF=      346077 NShFF=           0 NBatch=        3667 AvBLen=        94.4
 IPart= 18 NShTot=      332391 NShNF=      332391 NShFF=           0 NBatch=        2828 AvBLen=       117.5
 IPart= 20 NShTot=      354951 NShNF=      354951 NShFF=           0 NBatch=        2870 AvBLen=       123.7
 IPart=  7 NShTot=      302732 NShNF=      302732 NShFF=           0 NBatch=        3105 AvBLen=        97.5
 IPart= 11 NShTot=      281608 NShNF=      281608 NShFF=           0 NBatch=        2727 AvBLen=       103.3
 IPart= 27 NShTot=      323463 NShNF=      323463 NShFF=           0 NBatch=        3082 AvBLen=       105.0
 IPart=  1 NShTot=      285900 NShNF=      285900 NShFF=           0 NBatch=        2969 AvBLen=        96.3
 IPart=  4 NShTot=      294044 NShNF=      294044 NShFF=           0 NBatch=        2932 AvBLen=       100.3
 IPart= 30 NShTot=      287065 NShNF=      287065 NShFF=           0 NBatch=        2731 AvBLen=       105.1
 IPart=  5 NShTot=      317672 NShNF=      317672 NShFF=           0 NBatch=        2912 AvBLen=       109.1
 IPart= 28 NShTot=      284275 NShNF=      284275 NShFF=           0 NBatch=        2300 AvBLen=       123.6
 IPart= 10 NShTot=      267668 NShNF=      267668 NShFF=           0 NBatch=        2900 AvBLen=        92.3
 IPart= 21 NShTot=      365923 NShNF=      365923 NShFF=           0 NBatch=        3504 AvBLen=       104.4
 IPart=  9 NShTot=      311961 NShNF=      311961 NShFF=           0 NBatch=        2893 AvBLen=       107.8
 IPart=  0 NShTot=      284728 NShNF=      284728 NShFF=           0 NBatch=        2901 AvBLen=        98.1
 IPart= 19 NShTot=      329111 NShNF=      329111 NShFF=           0 NBatch=        2696 AvBLen=       122.1
 IPart= 17 NShTot=      312674 NShNF=      312674 NShFF=           0 NBatch=        3043 AvBLen=       102.8
 IPart= 25 NShTot=      306578 NShNF=      306578 NShFF=           0 NBatch=        3036 AvBLen=       101.0
 IPart= 13 NShTot=      277513 NShNF=      277513 NShFF=           0 NBatch=        2402 AvBLen=       115.5
 IPart=  8 NShTot=      272585 NShNF=      272585 NShFF=           0 NBatch=        2551 AvBLen=       106.9
 IPart=  2 NShTot=      344570 NShNF=      344570 NShFF=           0 NBatch=        3177 AvBLen=       108.5
 IPart= 14 NShTot=      481369 NShNF=      481369 NShFF=           0 NBatch=        3470 AvBLen=       138.7
 IPart=  3 NShTot=      266228 NShNF=      266228 NShFF=           0 NBatch=        2305 AvBLen=       115.5
 IPart= 22 NShTot=      286820 NShNF=      286820 NShFF=           0 NBatch=        2642 AvBLen=       108.6
 IPart= 12 NShTot=      263807 NShNF=      263807 NShFF=           0 NBatch=        2575 AvBLen=       102.4
 IPart= 15 NShTot=      284672 NShNF=      284672 NShFF=           0 NBatch=        3098 AvBLen=        91.9
 IPart= 31 NShTot=      282950 NShNF=      282950 NShFF=           0 NBatch=        2338 AvBLen=       121.0
 IPart= 23 NShTot=      240179 NShNF=      240179 NShFF=           0 NBatch=        2630 AvBLen=        91.3
 IPart= 24 NShTot=      284861 NShNF=      284861 NShFF=           0 NBatch=        2716 AvBLen=       104.9
 CoulSu:  NxtVal=       13089793.
 ReadGW:  IGet=0 IStart=           1 Next=           1 LGW=           0.
 Remaining memory in FofDFT      399.83 Mw
 CkSvGd:  ISavGI=        -1 IRadAn=       5 IRASav=       5 ISavGd=        -1.
 CalDSu:  NPrtUS=  32 ThrOK=T IAlg=1 NPAlg=2 DoDPD=T LenP=       45150 LenD1P=             0.
 IPart=  0 IRanGd=          0 ScrnBf=T ScrnGd=T RCrit=4.00D+00 DoMicB=T.
 IPart= 27         5698 of         7456 points in      11 batches and       62 microbatches, Max-NSigAt=      12 Max-NSgAt2=      12
 IPart=  9        13257 of        16622 points in      26 batches and       82 microbatches, Max-NSigAt=      12 Max-NSgAt2=      12
 IPart= 24         9783 of        10936 points in      15 batches and       36 microbatches, Max-NSigAt=      12 Max-NSgAt2=      12
 IPart=  5         6907 of         7094 points in      12 batches and       28 microbatches, Max-NSigAt=      12 Max-NSgAt2=      12
 IPart=  2         8432 of         9532 points in      14 batches and       45 microbatches, Max-NSigAt=      12 Max-NSgAt2=      12
 IPart= 22         4448 of         4880 points in       7 batches and       37 microbatches, Max-NSigAt=      12 Max-NSgAt2=      12
 IPart= 25         8443 of         9468 points in      14 batches and       41 microbatches, Max-NSigAt=      12 Max-NSgAt2=      12
 IPart= 12         7007 of         7848 points in      12 batches and       42 microbatches, Max-NSigAt=      12 Max-NSgAt2=      12
 IPart= 23         8775 of         8968 points in      14 batches and       34 microbatches, Max-NSigAt=      12 Max-NSgAt2=      12
 IPart= 21         8938 of         9318 points in      14 batches and       45 microbatches, Max-NSigAt=      12 Max-NSgAt2=      12
 IPart=  4         9670 of        11696 points in      17 batches and       44 microbatches, Max-NSigAt=      12 Max-NSgAt2=      12
 IPart=  1        10018 of        10958 points in      17 batches and       64 microbatches, Max-NSigAt=      12 Max-NSgAt2=      12
 IPart= 20         6781 of         7768 points in      12 batches and       62 microbatches, Max-NSigAt=      12 Max-NSgAt2=      12
 IPart= 19         5555 of         6210 points in       9 batches and       38 microbatches, Max-NSigAt=      12 Max-NSgAt2=      12
 IPart= 29         7915 of         8182 points in      12 batches and       34 microbatches, Max-NSigAt=      12 Max-NSgAt2=      12
 IPart= 16         5173 of         5942 points in      10 batches and       43 microbatches, Max-NSigAt=      12 Max-NSgAt2=      12
 IPart=  0         9755 of        11106 points in      16 batches and       54 microbatches, Max-NSigAt=      12 Max-NSgAt2=      12
 IPart= 31         6656 of         7094 points in      12 batches and       40 microbatches, Max-NSigAt=      12 Max-NSgAt2=      12
 IPart= 15         7729 of         9794 points in      16 batches and       61 microbatches, Max-NSigAt=      12 Max-NSgAt2=      12
 IPart= 28         9387 of         9820 points in      14 batches and       45 microbatches, Max-NSigAt=      12 Max-NSgAt2=      12
 IPart=  6         5290 of         6556 points in      10 batches and       47 microbatches, Max-NSigAt=      12 Max-NSgAt2=      12
 IPart=  7         6715 of         7192 points in      12 batches and       40 microbatches, Max-NSigAt=      12 Max-NSgAt2=      12
 IPart=  3         4580 of         5682 points in       9 batches and       50 microbatches, Max-NSigAt=      12 Max-NSgAt2=      12
 IPart= 11         5831 of         6862 points in      12 batches and       61 microbatches, Max-NSigAt=      12 Max-NSgAt2=      12
 IPart=  8         6730 of         7608 points in      12 batches and       66 microbatches, Max-NSigAt=      12 Max-NSgAt2=      12
 IPart= 17         7517 of         8270 points in      14 batches and       53 microbatches, Max-NSigAt=      12 Max-NSgAt2=      12
 IPart= 18         9285 of        10810 points in      16 batches and       40 microbatches, Max-NSigAt=      12 Max-NSgAt2=      12
 IPart= 26         8364 of        10096 points in      16 batches and       35 microbatches, Max-NSigAt=      12 Max-NSgAt2=      12
 IPart= 30         9768 of        11962 points in      19 batches and       60 microbatches, Max-NSigAt=      12 Max-NSgAt2=      12
 IPart= 10         7183 of         8312 points in      14 batches and       74 microbatches, Max-NSigAt=      12 Max-NSgAt2=      12
 IPart= 14         4215 of         4524 points in       7 batches and       27 microbatches, Max-NSigAt=      12 Max-NSgAt2=      12
 IPart= 13         5337 of         5880 points in       9 batches and       41 microbatches, Max-NSigAt=      12 Max-NSgAt2=      12
 Forces at end of L703
 I=    0 X=  -4.845292498964D-01 Y=   1.346810230922D-01 Z=  -1.745109709029D-01
 I=    1 X=   2.501350324967D-02 Y=   5.918535710448D-02 Z=   2.601172002156D-02
 I=    2 X=  -9.631740182314D-06 Y=   1.081833155248D-04 Z=   7.316121365086D-05
 I=    3 X=   4.369926319026D-06 Y=  -7.927120233941D-05 Z=   3.398053960812D-05
 I=    4 X=   2.633142137931D-05 Y=   4.084463425480D-05 Z=   2.938114138429D-05
 I=    5 X=  -1.967690853455D-05 Y=  -1.786033779829D-04 Z=  -1.442358947390D-05
 I=    6 X=  -2.500563244367D-02 Y=  -5.917032405506D-02 Z=  -2.617218076431D-02
 I=    7 X=  -3.376883262474D-05 Y=   7.783144556406D-06 Z=  -8.112612095212D-05
 I=    8 X=  -5.680543617270D-06 Y=   8.912218315871D-05 Z=   3.148907029726D-05
 I=    9 X=   2.674263874924D-05 Y=   4.116000901178D-05 Z=   3.496555723004D-05
 I=   10 X=   8.975507756137D-06 Y=  -1.903479964804D-05 Z=   2.365515208980D-05
 I=   11 X=   4.097494676891D-06 Y=  -1.522379078978D-05 Z=   1.660014067428D-05
 I=   12 X=  -9.629769921027D-06 Y=  -9.993165166755D-06 Z=   1.277763836471D-05
 FrcOut:
 IF    =    61 IFX   =    97 IFXYZ =   133
 IFFX  =   169 IFFFX =   169 IFLen =    36
 IFFLen=     0 IFFFLn=     0 IEDerv=   169
 LEDerv=  1781 IFroze=  2356 ICStrt=146681
 -------------------------------------------------------------------
 Center     Atomic                   Forces (Hartrees/Bohr)
 Number     Number              X              Y              Z
 -------------------------------------------------------------------
      1        6          -0.025013503   -0.059185357   -0.026011720
      2        8           0.000009632   -0.000108183   -0.000073161
      3        1          -0.000004370    0.000079271   -0.000033981
      4        1          -0.000026331   -0.000040845   -0.000029381
      5        1           0.000019677    0.000178603    0.000014424
      6        6           0.025005632    0.059170324    0.026172181
      7        6           0.000033769   -0.000007783    0.000081126
      8        1           0.000005681   -0.000089122   -0.000031489
      9        1          -0.000026743   -0.000041160   -0.000034966
     10        1          -0.000008976    0.000019035   -0.000023655
     11        1          -0.000004097    0.000015224   -0.000016600
     12        1           0.000009630    0.000009993   -0.000012778
 -------------------------------------------------------------------
 Cartesian Forces:  Max     0.059185357 RMS     0.016344100
 From PutF, contents of force:
   1   -0.5873762418D-04
   2    0.7739540708D-05
   3    0.6273490263D-06
   4   -0.5140628838D-05
   5    0.6827377892D-04
   6    0.6640162749D-04
   7    0.3090707610D-04
   8   -0.8654663571D-04
   9   -0.2455556783D-04
  10   -0.1479605902D-04
  11   -0.3076257951D-05
  12   -0.2402480863D-05
  13    0.1963206949D-04
  14    0.1429987694D-04
  15   -0.4560055747D-04
  16   -0.6814462868D-04
  17    0.5598780671D-04
  18    0.2234016285D-04
  19    0.1888547386D-04
  20   -0.9264415255D-04
  21    0.8842378579D-05
  22   -0.1575132703D-04
  23   -0.3372049626D-03
  24   -0.2213594062D-04
  25    0.5157464463D-04
  26   -0.3060142161D-03
  27    0.2438385855D-04
  28   -0.8405788378D-04
  29    0.3352374452D-03
  30   -0.6927305085D-01
 -----------------------------------------------------------------------------------------------
                       Internal Coordinate Forces (Hartree/Bohr or radian)
  Cent   Atom   N1       Length/X         N2         Alpha/Y        N3         Beta/Z          J
 -----------------------------------------------------------------------------------------------
      1  C 
      2  O        1  -0.000059(     1)
      3  H        1   0.000008(     2)      2   0.000068(    12)
      4  H        1   0.000001(     3)      2   0.000066(    13)      3  -0.000087(    22)     0
      5  H        2  -0.000005(     4)      1   0.000031(    14)      3  -0.000306(    23)     0
      6  C        1  -0.069273(     5)      2   0.000335(    15)      3  -0.000084(    24)     0
      7  C        6  -0.000025(     6)      1  -0.000337(    16)      2  -0.000022(    25)     0
      8  H        6  -0.000015(     7)      7  -0.000046(    17)      1   0.000052(    26)     0
      9  H        6  -0.000003(     8)      7  -0.000068(    18)      8  -0.000093(    27)     0
     10  H        7  -0.000002(     9)      6   0.000056(    19)      8   0.000024(    28)     0
     11  H        7   0.000020(    10)      6   0.000022(    20)     10   0.000009(    29)     0
     12  H        7   0.000014(    11)      6   0.000019(    21)     10  -0.000016(    30)     0
 -----------------------------------------------------------------------------------------------
 Internal  Forces:  Max     0.069273051 RMS     0.012647962
 Final forces over variables, Energy=-1.94292450D+02:
 -5.87376242D-05 7.73954071D-06 6.27349026D-07-5.14062884D-06
  6.82737789D-05 6.64016275D-05 3.09070761D-05-8.65466357D-05
 -2.45555678D-05-1.47960590D-05-3.07625795D-06-2.40248086D-06
  1.96320695D-05 1.42998769D-05-4.56005575D-05-6.81446287D-05
  5.59878067D-05 2.23401628D-05 1.88854739D-05-9.26441525D-05
  8.84237858D-06-1.57513270D-05-3.37204963D-04-2.21359406D-05
  5.15746446D-05-3.06014216D-04 2.43838585D-05-8.40578838D-05
  3.35237445D-04-6.92730509D-02

 GradGradGradGradGradGradGradGradGradGradGradGradGradGradGradGradGradGrad
 Berny optimization.
 Search for a local minimum.
 Step number   4 out of a maximum of   50
 All quantities printed in internal units (Hartrees-Bohrs-Radians)
 Update second derivatives using D2CorN and points    1    2    3    4
 DE= -4.38D-06 DEPred=-2.64D-06 R= 1.66D+00
 TightC=F SS=  1.41D+00  RLast= 8.32D-03 DXNew= 5.0454D-01 2.4952D-02
 Trust test= 1.66D+00 RLast= 8.32D-03 DXMaxT set to 3.00D-01
 ITU=  1  1  1  0
     Eigenvalues ---    0.01221   0.02463   0.04378   0.06125   0.08612
     Eigenvalues ---    0.11715   0.13489   0.13851   0.15372   0.16005
     Eigenvalues ---    0.24368   0.27054   0.28811   0.31651   0.34435
     Eigenvalues ---    0.34470   0.34681   0.34728   0.34756   0.35065
     Eigenvalues ---    0.35256   0.35441   0.38183   0.39217   0.39358
     Eigenvalues ---    0.39817   0.40070   0.48130   0.561891000.00000
 RFO step:  Lambda=-3.16510149D-06 EMin= 1.22126857D-02
 Quartic linear search produced a step of  1.38755.
 Variable       Old X    -DE/DX   Delta X   Delta X   Delta X     New X
                                 (Linear)    (Quad)   (Total)
    R1        2.59025  -0.00006  -0.00128   0.00079  -0.00049   2.58976
    R2        2.04567   0.00001  -0.00000   0.00004   0.00004   2.04571
    R3        2.05596   0.00000  -0.00012   0.00009  -0.00003   2.05593
    R4        1.80817  -0.00001  -0.00017   0.00013  -0.00004   1.80813
    A2        1.92657   0.00007   0.00026   0.00030   0.00057   1.92713
    A3        2.01883   0.00007   0.00047  -0.00045   0.00003   2.01886
    A4        1.90858   0.00003   0.00075  -0.00008   0.00067   1.90924
    D3        3.99412  -0.00009  -0.00216   0.00226   0.00010   3.99422
   R21        2.83657  -0.00002  -0.00034   0.00005  -0.00029   2.83628
   R22        2.05209  -0.00001  -0.00007  -0.00006  -0.00014   2.05196
   R23        2.04961  -0.00000  -0.00015   0.00009  -0.00005   2.04956
   R24        2.06850  -0.00000  -0.00022   0.00020  -0.00002   2.06848
   R25        2.06138   0.00002   0.00032  -0.00015   0.00017   2.06155
   R26        2.06075   0.00001   0.00046  -0.00031   0.00015   2.06090
   A22        2.01173  -0.00005   0.00096  -0.00068   0.00028   2.01201
   A23        2.01963  -0.00007   0.00062  -0.00034   0.00028   2.01991
   A24        1.94454   0.00006   0.00148  -0.00059   0.00089   1.94544
   A25        1.94564   0.00002  -0.00008   0.00010   0.00002   1.94566
   A26        1.94423   0.00002   0.00043  -0.00042   0.00001   1.94424
   D23        2.32855  -0.00009   0.00347  -0.00206   0.00141   2.32996
   D25        2.08918   0.00001   0.00006   0.00025   0.00031   2.08948
   D26        4.19403  -0.00002  -0.00041   0.00015  -0.00026   4.19377
   ANG2       1.88641  -0.00034  -0.00231  -0.00089  -0.00319   1.88322
   DH2        3.15958  -0.00002  -0.00251  -0.00301  -0.00551   3.15407
   DH3        1.98319   0.00005  -0.00160   0.00088  -0.00072   1.98247
    D4        3.09042  -0.00031  -0.00919  -0.00699  -0.01617   3.07424
   D24        5.13117   0.00002  -0.00188   0.00050  -0.00138   5.12979
   DH1        1.97123  -0.00008  -0.00136   0.00157   0.00021   1.97144
   ANG1       1.95763   0.00034   0.00237   0.00039   0.00276   1.96039
    BB        4.15740  -0.06927   0.00000   0.00000   0.00000   4.15740
         Item               Value     Threshold  Converged?
 Maximum Force            0.000337     0.000450     YES
 RMS     Force            0.000113     0.000300     YES
 Maximum Displacement     0.016174     0.001800     NO 
 RMS     Displacement     0.003248     0.001200     NO 
 Predicted change in Energy=-3.161325D-06
 GradGradGradGradGradGradGradGradGradGradGradGradGradGradGradGradGradGrad

 ---------------------------------------------------------------------------------------------------
                            Z-MATRIX (ANGSTROMS AND DEGREES)
   CD    Cent   Atom    N1       Length/X        N2       Alpha/Y        N3        Beta/Z          J
 ---------------------------------------------------------------------------------------------------
      1      1  C 
      2      2  O        1   1.370442(     1)
      3      3  H        1   1.082543(     2)      2  110.417(    12)
      4      4  H        1   1.087952(     3)      2  115.672(    13)      3  228.852(    22)      0
      5      5  H        2   0.956822(     4)      1  109.392(    14)      3  176.141(    23)      0
      6      6  C        1   2.200000(     5)      2  112.322(    15)      3  112.955(    24)      0
      7      7  C        6   1.500893(     6)      1  107.901(    16)      2  180.715(    25)      0
      8      8  H        6   1.085849(     7)      7  115.280(    17)      1  113.587(    26)      0
      9      9  H        6   1.084580(     8)      7  115.732(    18)      8  133.497(    27)      0
     10     10  H        7   1.094594(     9)      6  111.465(    19)      8  293.916(    28)      0
     11     11  H        7   1.090927(    10)      6  111.478(    20)     10  119.719(    29)      0
     12     12  H        7   1.090581(    11)      6  111.397(    21)     10  240.286(    30)      0
 ---------------------------------------------------------------------------------------------------
                         Z-Matrix orientation:                         
 ---------------------------------------------------------------------
 Center     Atomic      Atomic             Coordinates (Angstroms)
 Number     Number       Type             X           Y           Z
 ---------------------------------------------------------------------
      1          6           0        0.000000    0.000000    0.000000
      2          8           0        0.000000    0.000000    1.370442
      3          1           0        1.014539    0.000000   -0.377637
      4          1           0       -0.645214    0.738372   -0.471323
      5          1           0       -0.900496    0.060742    1.688130
      6          6           0       -0.793732   -1.873975   -0.835587
      7          6           0       -0.732219   -1.774422   -2.331910
      8          1           0       -1.793740   -1.909994   -0.413979
      9          1           0       -0.135383   -2.608780   -0.385085
     10          1           0       -1.120867   -2.679215   -2.809862
     11          1           0       -1.323870   -0.935503   -2.701080
     12          1           0        0.292593   -1.640250   -2.679942
 ---------------------------------------------------------------------
                    Distance matrix (angstroms):
                    1          2          3          4          5
     1  C    0.000000
     2  O    1.370442   0.000000
     3  H    1.082543   2.021156   0.000000
     4  H    1.087952   2.086527   1.818997   0.000000
     5  H    1.914253   0.956822   2.817524   2.277628   0.000000
     6  C    2.200000   3.001393   2.644115   2.641800   3.181772
     7  C    3.020352   4.170388   3.165268   3.127857   4.422314
     8  H    2.652727   3.170133   3.396444   2.887256   3.016711
     9  H    2.640521   3.147369   2.850983   3.386856   3.465539
    10  H    4.041022   5.090135   4.201650   4.168322   5.271418
    11  H    3.150180   4.382361   3.426618   2.869538   4.520720
    12  H    3.155648   4.379685   2.917573   3.378656   4.837032
                    6          7          8          9         10
     6  C    0.000000
     7  C    1.500893   0.000000
     8  H    1.085849   2.196285   0.000000
     9  H    1.084580   2.200567   1.799802   0.000000
    10  H    2.157125   1.094594   2.604748   2.618336   0.000000
    11  H    2.154493   1.090927   2.530067   3.094542   1.758856
    12  H    2.153224   1.090581   3.091947   2.527366   1.759033
                   11         12
    11  H    0.000000
    12  H    1.763538   0.000000
 Symmetry turned off by external request.
 Stoichiometry    C3H8O
 Framework group  C1[X(C3H8O)]
 Deg. of freedom    30
 Full point group                 C1      NOp   1
 Rotational constants (GHZ):     21.0019457      2.9612175      2.7517413
 Standard basis: Jun-CC-pVTZ (5D, 7F)
   268 basis functions,   384 primitive gaussians,   300 cartesian basis functions
    17 alpha electrons       17 beta electrons
       nuclear repulsion energy       120.8069795512 Hartrees.
 NAtoms=   12 NActive=   12 NUniq=   12 SFac= 1.00D+00 NAtFMM=   60 NAOKFM=F Big=F
 Integral buffers will be    131072 words long.
 Raffenetti 2 integral format.
 Two-electron integral symmetry is turned off.
 Nuclear repulsion after empirical dispersion term =      120.8024443109 Hartrees.
 One-electron integrals computed using PRISM.
 NBasis=   268 RedAO= T EigKep=  1.05D-04  NBF=   268
 NBsUse=   268 1.00D-06 EigRej= -1.00D+00 NBFU=   268
 ExpMin= 3.57D-02 ExpMax= 1.53D+04 ExpMxC= 5.22D+02 IAcc=3 IRadAn=         5 AccDes= 0.00D+00
 Harris functional with IExCor= 4639 and IRadAn=       5 diagonalized for initial guess.
 HarFok:  IExCor= 4639 AccDes= 0.00D+00 IRadAn=         5 IDoV= 1 UseB2=F ITyADJ=14
 ICtDFT=  3500011 ScaDFX=  1.000000  1.000000  1.000000  1.000000
 FoFCou: FMM=F IPFlag=           0 FMFlag=      100000 FMFlg1=           0
         NFxFlg=           0 DoJE=T BraDBF=F KetDBF=T FulRan=T
         wScrn=  0.000000 ICntrl=     500 IOpCl=  0 I1Cent=   200000004 NGrid=           0
         NMat0=    1 NMatS0=      1 NMatT0=    0 NMatD0=    1 NMtDS0=    0 NMtDT0=    0
 Symmetry not used in FoFCou.
 Mixing orbitals, IMix= 1 IMixAn=  0 NRI=1 NE=   17 Coef=  7.07106781D-01  7.07106781D-01
 Mixing orbitals, IMix= 1 IMixAn=  0 NRI=1 NE=   17 Coef= -7.07106781D-01  7.07106781D-01
 Initial guess <Sx>= 0.0000 <Sy>= 0.0000 <Sz>= 0.0000 <S**2>= 1.0000 S= 0.6180
 Requested convergence on RMS density matrix=1.00D-08 within 128 cycles.
 Requested convergence on MAX density matrix=1.00D-06.
 Requested convergence on             energy=1.00D-06.
 No special actions if energy rises.
 SCF Done:  E(UwB97XD) =  -194.292453966     A.U. after   16 cycles
            NFock= 16  Conv=0.94D-08     -V/T= 2.0080
 <Sx>= 0.0000 <Sy>= 0.0000 <Sz>= 0.0000 <S**2>= 0.0000 S= 0.0000
 <L.S>=  0.00000000000    
 Annihilation of the first spin contaminant:
 S**2 before annihilation     0.0000,   after     0.0000
 DipInt: DoE/N= T T RetVal/Mat= T F Init=T NMatP=  1 IDeriv=0 Min/MaxMlt=  1  1
 Entering OneElI...
 Multipole integrals L=1 to 1 MinM= 0 MaxM= 0.
 Requested accuracy = 0.1000D-12
 PrsmSu:  NPrtUS=   1 ThrOK=F IAlg=1 NPAlg=1 LenDen=           0.
 Prism:   IPart=     0 DynPar=F LinDyn=F Incr=          49.
 PRISM was handed   419015300 working-precision words and  4948 shell-pairs
 IPart=  0 NShTot=        4948 NBatch=          63 AvBLen=        78.5
 PrSmSu:  NxtVal=             50.
 Entering OneElI...
 Calculate overlap and kinetic energy integrals
    NBasis = 300  MinDer = 1  MaxDer = 1
 Requested accuracy = 0.1000D-12
 PrsmSu:  NPrtUS=  32 ThrOK=T IAlg=1 NPAlg=1 LenDen=           0.
 PRISM was handed    12993843 working-precision words and  5025 shell-pairs
 PRISM was handed    12993843 working-precision words and  5025 shell-pairs
 PRISM was handed    12993843 working-precision words and  5025 shell-pairs
 PRISM was handed    12993843 working-precision words and  5025 shell-pairs
 Prism:   IPart=     0 DynPar=F LinDyn=F Incr=           1.
 PRISM was handed    12993843 working-precision words and  5025 shell-pairs
 PRISM was handed    12993843 working-precision words and  5025 shell-pairs
 PRISM was handed    12993843 working-precision words and  5025 shell-pairs
 PRISM was handed    12993843 working-precision words and  5025 shell-pairs
 PRISM was handed    12993843 working-precision words and  5025 shell-pairs
 PRISM was handed    12993843 working-precision words and  5025 shell-pairs
 PRISM was handed    12993843 working-precision words and  5025 shell-pairs
 PRISM was handed    12993843 working-precision words and  5025 shell-pairs
 PRISM was handed    12993843 working-precision words and  5025 shell-pairs
 PRISM was handed    12993843 working-precision words and  5025 shell-pairs
 PRISM was handed    12993843 working-precision words and  5025 shell-pairs
 PRISM was handed    12993843 working-precision words and  5025 shell-pairs
 PRISM was handed    12993843 working-precision words and  5025 shell-pairs
 PRISM was handed    12993843 working-precision words and  5025 shell-pairs
 PRISM was handed    12993843 working-precision words and  5025 shell-pairs
 PRISM was handed    12993843 working-precision words and  5025 shell-pairs
 PRISM was handed    12993843 working-precision words and  5025 shell-pairs
 PRISM was handed    12993843 working-precision words and  5025 shell-pairs
 PRISM was handed    12993843 working-precision words and  5025 shell-pairs
 PRISM was handed    12993843 working-precision words and  5025 shell-pairs
 PRISM was handed    12993843 working-precision words and  5025 shell-pairs
 PRISM was handed    12993843 working-precision words and  5025 shell-pairs
 PRISM was handed    12993843 working-precision words and  5025 shell-pairs
 PRISM was handed    12993843 working-precision words and  5025 shell-pairs
 PRISM was handed    12993843 working-precision words and  5025 shell-pairs
 PRISM was handed    12993843 working-precision words and  5025 shell-pairs
 PRISM was handed    12993843 working-precision words and  5025 shell-pairs
 PRISM was handed    12993843 working-precision words and  5025 shell-pairs
 IPart= 30 NShTot=         139 NBatch=          20 AvBLen=         7.0
 IPart= 20 NShTot=         145 NBatch=          21 AvBLen=         6.9
 IPart= 16 NShTot=         150 NBatch=          22 AvBLen=         6.8
 IPart= 24 NShTot=         143 NBatch=          21 AvBLen=         6.8
 IPart= 11 NShTot=         159 NBatch=          27 AvBLen=         5.9
 IPart= 15 NShTot=         154 NBatch=          22 AvBLen=         7.0
 IPart=  9 NShTot=         164 NBatch=          29 AvBLen=         5.7
 IPart= 13 NShTot=         158 NBatch=          26 AvBLen=         6.1
 IPart= 27 NShTot=         141 NBatch=          21 AvBLen=         6.7
 IPart=  7 NShTot=         167 NBatch=          31 AvBLen=         5.4
 IPart= 14 NShTot=         157 NBatch=          25 AvBLen=         6.3
 IPart= 10 NShTot=         161 NBatch=          27 AvBLen=         6.0
 IPart= 29 NShTot=         140 NBatch=          20 AvBLen=         7.0
 IPart= 23 NShTot=         144 NBatch=          21 AvBLen=         6.9
 IPart=  5 NShTot=         173 NBatch=          36 AvBLen=         4.8
 IPart= 26 NShTot=         142 NBatch=          21 AvBLen=         6.8
 IPart= 17 NShTot=         149 NBatch=          22 AvBLen=         6.8
 IPart= 28 NShTot=         141 NBatch=          21 AvBLen=         6.7
 IPart=  2 NShTot=         185 NBatch=          48 AvBLen=         3.9
 IPart= 25 NShTot=         143 NBatch=          21 AvBLen=         6.8
 IPart=  4 NShTot=         173 NBatch=          36 AvBLen=         4.8
 IPart= 12 NShTot=         159 NBatch=          27 AvBLen=         5.9
 IPart= 31 NShTot=         138 NBatch=          20 AvBLen=         6.9
 IPart=  8 NShTot=         165 NBatch=          29 AvBLen=         5.7
 IPart=  6 NShTot=         171 NBatch=          34 AvBLen=         5.0
 IPart= 22 NShTot=         145 NBatch=          21 AvBLen=         6.9
 IPart= 19 NShTot=         147 NBatch=          21 AvBLen=         7.0
 IPart= 18 NShTot=         147 NBatch=          21 AvBLen=         7.0
 IPart=  1 NShTot=         196 NBatch=          58 AvBLen=         3.4
 IPart=  3 NShTot=         182 NBatch=          45 AvBLen=         4.0
 IPart=  0 NShTot=         202 NBatch=          64 AvBLen=         3.2
 IPart= 21 NShTot=         145 NBatch=          21 AvBLen=         6.9
 PrSmSu:  NxtVal=             33.
 Entering OneElI...
 Calculate potential energy integrals
    NBasis = 300  MinDer = 1  MaxDer = 1
 Requested accuracy = 0.1000D-12
 PrsmSu:  NPrtUS=  32 ThrOK=T IAlg=1 NPAlg=1 LenDen=           0.
 PRISM was handed    13008187 working-precision words and  4836 shell-pairs
 PRISM was handed    13008187 working-precision words and  4836 shell-pairs
 PRISM was handed    13008187 working-precision words and  4836 shell-pairs
 PRISM was handed    13008187 working-precision words and  4836 shell-pairs
 PRISM was handed    13008187 working-precision words and  4836 shell-pairs
 PRISM was handed    13008187 working-precision words and  4836 shell-pairs
 PRISM was handed    13008187 working-precision words and  4836 shell-pairs
 PRISM was handed    13008187 working-precision words and  4836 shell-pairs
 PRISM was handed    13008187 working-precision words and  4836 shell-pairs
 PRISM was handed    13008187 working-precision words and  4836 shell-pairs
 PRISM was handed    13008187 working-precision words and  4836 shell-pairs
 PRISM was handed    13008187 working-precision words and  4836 shell-pairs
 PRISM was handed    13008187 working-precision words and  4836 shell-pairs
 PRISM was handed    13008187 working-precision words and  4836 shell-pairs
 PRISM was handed    13008187 working-precision words and  4836 shell-pairs
 PRISM was handed    13008187 working-precision words and  4836 shell-pairs
 PRISM was handed    13008187 working-precision words and  4836 shell-pairs
 PRISM was handed    13008187 working-precision words and  4836 shell-pairs
 PRISM was handed    13008187 working-precision words and  4836 shell-pairs
 PRISM was handed    13008187 working-precision words and  4836 shell-pairs
 PRISM was handed    13008187 working-precision words and  4836 shell-pairs
 PRISM was handed    13008187 working-precision words and  4836 shell-pairs
 PRISM was handed    13008187 working-precision words and  4836 shell-pairs
 PRISM was handed    13008187 working-precision words and  4836 shell-pairs
 PRISM was handed    13008187 working-precision words and  4836 shell-pairs
 PRISM was handed    13008187 working-precision words and  4836 shell-pairs
 PRISM was handed    13008187 working-precision words and  4836 shell-pairs
 PRISM was handed    13008187 working-precision words and  4836 shell-pairs
 PRISM was handed    13008187 working-precision words and  4836 shell-pairs
 Prism:   IPart=     0 DynPar=F LinDyn=F Incr=          18.
 PRISM was handed    13008187 working-precision words and  4836 shell-pairs
 PRISM was handed    13008187 working-precision words and  4836 shell-pairs
 PRISM was handed    13008187 working-precision words and  4836 shell-pairs
 IPart= 25 NShTot=        1668 NBatch=         139 AvBLen=        12.0
 IPart=  1 NShTot=        2160 NBatch=         180 AvBLen=        12.0
 IPart= 19 NShTot=        1728 NBatch=         144 AvBLen=        12.0
 IPart= 24 NShTot=        1692 NBatch=         141 AvBLen=        12.0
 IPart= 12 NShTot=        1836 NBatch=         153 AvBLen=        12.0
 IPart= 10 NShTot=        1872 NBatch=         156 AvBLen=        12.0
 IPart= 22 NShTot=        1704 NBatch=         142 AvBLen=        12.0
 IPart= 16 NShTot=        1728 NBatch=         144 AvBLen=        12.0
 IPart= 31 NShTot=        1560 NBatch=         130 AvBLen=        12.0
 IPart= 21 NShTot=        1704 NBatch=         142 AvBLen=        12.0
 IPart= 29 NShTot=        1596 NBatch=         133 AvBLen=        12.0
 IPart= 14 NShTot=        1764 NBatch=         147 AvBLen=        12.0
 IPart= 15 NShTot=        1752 NBatch=         146 AvBLen=        12.0
 IPart=  4 NShTot=        2016 NBatch=         168 AvBLen=        12.0
 IPart=  8 NShTot=        1932 NBatch=         161 AvBLen=        12.0
 IPart=  7 NShTot=        1956 NBatch=         163 AvBLen=        12.0
 IPart=  9 NShTot=        1896 NBatch=         158 AvBLen=        12.0
 IPart=  5 NShTot=        1992 NBatch=         166 AvBLen=        12.0
 IPart= 26 NShTot=        1656 NBatch=         138 AvBLen=        12.0
 IPart= 27 NShTot=        1644 NBatch=         137 AvBLen=        12.0
 IPart=  0 NShTot=        2280 NBatch=         190 AvBLen=        12.0
 IPart= 23 NShTot=        1692 NBatch=         141 AvBLen=        12.0
 IPart= 18 NShTot=        1728 NBatch=         144 AvBLen=        12.0
 IPart= 30 NShTot=        1572 NBatch=         131 AvBLen=        12.0
 IPart=  3 NShTot=        2112 NBatch=         176 AvBLen=        12.0
 IPart= 20 NShTot=        1716 NBatch=         143 AvBLen=        12.0
 IPart= 13 NShTot=        1788 NBatch=         149 AvBLen=        12.0
 IPart= 11 NShTot=        1848 NBatch=         154 AvBLen=        12.0
 IPart= 28 NShTot=        1632 NBatch=         136 AvBLen=        12.0
 IPart=  6 NShTot=        1956 NBatch=         163 AvBLen=        12.0
 IPart= 17 NShTot=        1728 NBatch=         144 AvBLen=        12.0
 IPart=  2 NShTot=        2124 NBatch=         177 AvBLen=        12.0
 PrSmSu:  NxtVal=            577.
 l701 out
 I=    0 X=  -4.840771287041D-01 Y=   1.451807741007D-01 Z=  -1.718846599426D-01
 I=    1 X=   1.352752217303D+00 Y=   2.367332579313D+00 Z=  -2.893224972850D+00
 I=    2 X=   3.241432885619D+00 Y=   1.222960858862D+00 Z=   8.974879689651D+00
 I=    3 X=   3.495917593499D+00 Y=   2.537471927973D-01 Z=  -1.339088029308D+00
 I=    4 X=  -1.932803196237D+00 Y=   2.784822707805D+00 Z=  -1.576198798518D+00
 I=    5 X=  -3.150814513817D+00 Y=   5.216754556705D-01 Z=   2.583239251217D+00
 I=    6 X=  -1.341435441773D+00 Y=  -2.620001448536D+00 Z=  -2.506450577612D-01
 I=    7 X=  -4.352328008596D-01 Y=  -1.251661023458D+00 Z=  -3.732079439533D+00
 I=    8 X=  -3.353020442031D+00 Y=  -5.163453207794D-01 Z=   1.444943618612D+00
 I=    9 X=   2.005814681016D+00 Y=  -2.845220200105D+00 Z=   1.486585246812D+00
 I=   10 X=  -1.110236389811D+00 Y=  -2.608090422226D+00 Z=  -1.655345457421D+00
 I=   11 X=  -1.760184731058D+00 Y=   2.381525543035D+00 Z=  -1.557538357151D+00
 I=   12 X=   2.987810138148D+00 Y=   3.092540776227D-01 Z=  -1.485527693750D+00
 ICntrl=      2127.
 Calling FoFJK, ICntrl=      2127 FMM=F ISym2X=0 I1Cent= 0 IOpClX= 1 NMat=1 NMatS=1 NMatT=0.
 FoFJK:  IHMeth= 1 ICntrl=    2127 DoSepK=T KAlg= 0 I1Cent=   0 FoldK=F
 IRaf=         1 NMat=   1 IRICut=       1 DoRegI=T DoRafI=F ISym2E= 0.
 FoFCou: FMM=F IPFlag=           0 FMFlag=      100000 FMFlg1=         800
         NFxFlg=           0 DoJE=F BraDBF=F KetDBF=F FulRan=T
         wScrn=  0.000000 ICntrl=    2527 IOpCl=  0 I1Cent=           0 NGrid=           0
         NMat0=    1 NMatS0=      1 NMatT0=    0 NMatD0=    1 NMtDS0=    0 NMtDT0=    0
 Symmetry not used in FoFCou.
 FoFCou:  KetSym=F NOpSet=  1 NOpAb=1 NOp=  1.
 FoFCou:  CnvScl= 1.00D+00 Thresh= 1.00D-10 IAcrcy=      10.
 PrismS was handed   418921662 working-precision words and  4916 shell-pairs
 FoFCou: LinMIO=F DoNuc=F BraDBF=F KetDBF=F HaveP=T PDBF=F HaveZ=T HaveW=F
         NIJTC =      10 NIJTAt=       0 NIJTCD=       0 NIJTT =      10
         IJTBeg=       1 IJTEnd=      10 KLTBeg=       1 KLTEnd=      10
         IPTBeg=       1 IPTEnd=      10 IPTBCv=       1 IPTECv=      10
         IZTBeg=       1 IZTEnd=      10 IZTBCv=       1 IZTECv=      10
         IWTBeg=      11 IWTEnd=      10 IWTBCv=      11 IWTECv=      10
         INTBeg=       1 INTEnd=       0 IFTBCv=       1 IFTECv=      10
 NCel replicated for PrismC:     1
 CoulSu:  IncDef=  1024 NBBP=       12085986 NTPThr=   100 NPartT=   32 Incr=        1024 LDynOK=F.
 CoulSu:  NPrtUS=  32 ThrOK=T IAlg=1 NPAlg=1 LenDen=           0 LWGrdD=           0 DoCopy=F.
 Enter PrismC: JobTyp=21 DoJE=F Cont=F.
 PrismC:  IPart=     0 DynPar=T LinDyn=F Incr=        1024 UseFst=F UseS4=T IGathr=2.
 PrismC was handed    13001092 working-precision words and  4916 shell-pairs
 Enter PrismC: JobTyp=21 DoJE=F Cont=F.
 Enter PrismC: JobTyp=21 DoJE=F Cont=F.
 Enter PrismC: JobTyp=21 DoJE=F Cont=F.
 PrismC was handed    13001092 working-precision words and  4916 shell-pairs
 Enter PrismC: JobTyp=21 DoJE=F Cont=F.
 Enter PrismC: JobTyp=21 DoJE=F Cont=F.
 Enter PrismC: JobTyp=21 DoJE=F Cont=F.
 Enter PrismC: JobTyp=21 DoJE=F Cont=F.
 Enter PrismC: JobTyp=21 DoJE=F Cont=F.
 PrismC was handed    13001092 working-precision words and  4916 shell-pairs
 Enter PrismC: JobTyp=21 DoJE=F Cont=F.
 PrismC was handed    13001092 working-precision words and  4916 shell-pairs
 Enter PrismC: JobTyp=21 DoJE=F Cont=F.
 Enter PrismC: JobTyp=21 DoJE=F Cont=F.
 Enter PrismC: JobTyp=21 DoJE=F Cont=F.
 PrismC was handed    13001092 working-precision words and  4916 shell-pairs
 Enter PrismC: JobTyp=21 DoJE=F Cont=F.
 PrismC was handed    13001092 working-precision words and  4916 shell-pairs
 Enter PrismC: JobTyp=21 DoJE=F Cont=F.
 Enter PrismC: JobTyp=21 DoJE=F Cont=F.
 Enter PrismC: JobTyp=21 DoJE=F Cont=F.
 Enter PrismC: JobTyp=21 DoJE=F Cont=F.
 PrismC was handed    13001092 working-precision words and  4916 shell-pairs
 Enter PrismC: JobTyp=21 DoJE=F Cont=F.
 Enter PrismC: JobTyp=21 DoJE=F Cont=F.
 PrismC was handed    13001092 working-precision words and  4916 shell-pairs
 Enter PrismC: JobTyp=21 DoJE=F Cont=F.
 Enter PrismC: JobTyp=21 DoJE=F Cont=F.
 PrismC was handed    13001092 working-precision words and  4916 shell-pairs
 Enter PrismC: JobTyp=21 DoJE=F Cont=F.
 Enter PrismC: JobTyp=21 DoJE=F Cont=F.
 PrismC was handed    13001092 working-precision words and  4916 shell-pairs
 Enter PrismC: JobTyp=21 DoJE=F Cont=F.
 PrismC was handed    13001092 working-precision words and  4916 shell-pairs
 PrismC was handed    13001092 working-precision words and  4916 shell-pairs
 PrismC was handed    13001092 working-precision words and  4916 shell-pairs
 PrismC was handed    13001092 working-precision words and  4916 shell-pairs
 PrismC was handed    13001092 working-precision words and  4916 shell-pairs
 PrismC was handed    13001092 working-precision words and  4916 shell-pairs
 PrismC was handed    13001092 working-precision words and  4916 shell-pairs
 Enter PrismC: JobTyp=21 DoJE=F Cont=F.
 Enter PrismC: JobTyp=21 DoJE=F Cont=F.
 PrismC was handed    13001092 working-precision words and  4916 shell-pairs
 PrismC was handed    13001092 working-precision words and  4916 shell-pairs
 Enter PrismC: JobTyp=21 DoJE=F Cont=F.
 Enter PrismC: JobTyp=21 DoJE=F Cont=F.
 PrismC was handed    13001092 working-precision words and  4916 shell-pairs
 PrismC was handed    13001092 working-precision words and  4916 shell-pairs
 PrismC was handed    13001092 working-precision words and  4916 shell-pairs
 PrismC was handed    13001092 working-precision words and  4916 shell-pairs
 Enter PrismC: JobTyp=21 DoJE=F Cont=F.
 PrismC was handed    13001092 working-precision words and  4916 shell-pairs
 PrismC was handed    13001092 working-precision words and  4916 shell-pairs
 Enter PrismC: JobTyp=21 DoJE=F Cont=F.
 Enter PrismC: JobTyp=21 DoJE=F Cont=F.
 PrismC was handed    13001092 working-precision words and  4916 shell-pairs
 PrismC was handed    13001092 working-precision words and  4916 shell-pairs
 PrismC was handed    13001092 working-precision words and  4916 shell-pairs
 PrismC was handed    13001092 working-precision words and  4916 shell-pairs
 PrismC was handed    13001092 working-precision words and  4916 shell-pairs
 PrismC was handed    13001092 working-precision words and  4916 shell-pairs
 PrismC was handed    13001092 working-precision words and  4916 shell-pairs
 IPart= 26 NShTot=      272100 NShNF=      272100 NShFF=           0 NBatch=        1851 AvBLen=       147.0
 IPart=  0 NShTot=      496458 NShNF=      496458 NShFF=           0 NBatch=        2530 AvBLen=       196.2
 IPart= 17 NShTot=      472695 NShNF=      472695 NShFF=           0 NBatch=        2418 AvBLen=       195.5
 IPart= 25 NShTot=      349330 NShNF=      349330 NShFF=           0 NBatch=        2700 AvBLen=       129.4
 IPart= 24 NShTot=      264469 NShNF=      264469 NShFF=           0 NBatch=        2254 AvBLen=       117.3
 IPart=  9 NShTot=      328752 NShNF=      328752 NShFF=           0 NBatch=        2535 AvBLen=       129.7
 IPart= 11 NShTot=      200218 NShNF=      200218 NShFF=           0 NBatch=        1904 AvBLen=       105.2
 IPart= 12 NShTot=      325855 NShNF=      325855 NShFF=           0 NBatch=        2396 AvBLen=       136.0
 IPart= 23 NShTot=      318567 NShNF=      318567 NShFF=           0 NBatch=        2606 AvBLen=       122.2
 IPart= 28 NShTot=      257339 NShNF=      257339 NShFF=           0 NBatch=        2026 AvBLen=       127.0
 IPart= 16 NShTot=      234409 NShNF=      234409 NShFF=           0 NBatch=        2167 AvBLen=       108.2
 IPart= 31 NShTot=      306052 NShNF=      306052 NShFF=           0 NBatch=        2438 AvBLen=       125.5
 IPart= 13 NShTot=      227198 NShNF=      227198 NShFF=           0 NBatch=        2180 AvBLen=       104.2
 IPart= 29 NShTot=      418551 NShNF=      418551 NShFF=           0 NBatch=        2622 AvBLen=       159.6
 IPart= 21 NShTot=      326519 NShNF=      326519 NShFF=           0 NBatch=        2658 AvBLen=       122.8
 IPart= 27 NShTot=      286363 NShNF=      286363 NShFF=           0 NBatch=        2291 AvBLen=       125.0
 IPart= 20 NShTot=      275804 NShNF=      275804 NShFF=           0 NBatch=        2097 AvBLen=       131.5
 IPart= 14 NShTot=      346509 NShNF=      346509 NShFF=           0 NBatch=        2776 AvBLen=       124.8
 IPart= 22 NShTot=      278381 NShNF=      278381 NShFF=           0 NBatch=        2644 AvBLen=       105.3
 IPart=  3 NShTot=      276839 NShNF=      276839 NShFF=           0 NBatch=        2028 AvBLen=       136.5
 IPart= 15 NShTot=      212857 NShNF=      212857 NShFF=           0 NBatch=        1979 AvBLen=       107.6
 IPart=  7 NShTot=      305285 NShNF=      305285 NShFF=           0 NBatch=        2409 AvBLen=       126.7
 IPart=  8 NShTot=      327750 NShNF=      327750 NShFF=           0 NBatch=        2296 AvBLen=       142.7
 IPart= 19 NShTot=      232011 NShNF=      232011 NShFF=           0 NBatch=        2019 AvBLen=       114.9
 IPart=  5 NShTot=      328486 NShNF=      328486 NShFF=           0 NBatch=        2315 AvBLen=       141.9
 IPart= 18 NShTot=      369485 NShNF=      369485 NShFF=           0 NBatch=        2582 AvBLen=       143.1
 IPart= 30 NShTot=      329574 NShNF=      329574 NShFF=           0 NBatch=        2444 AvBLen=       134.9
 IPart=  6 NShTot=      239349 NShNF=      239349 NShFF=           0 NBatch=        2009 AvBLen=       119.1
 IPart=  4 NShTot=      379014 NShNF=      379014 NShFF=           0 NBatch=        2760 AvBLen=       137.3
 IPart=  2 NShTot=      285505 NShNF=      285505 NShFF=           0 NBatch=        2444 AvBLen=       116.8
 IPart= 10 NShTot=      253797 NShNF=      253797 NShFF=           0 NBatch=        1809 AvBLen=       140.3
 IPart=  1 NShTot=      340593 NShNF=      340593 NShFF=           0 NBatch=        2555 AvBLen=       133.3
 CoulSu:  NxtVal=       13085697.
 FoFCou: FMM=F IPFlag=           0 FMFlag=      100000 FMFlg1=         800
         NFxFlg=           0 DoJE=F BraDBF=F KetDBF=F FulRan=T
         wScrn=  0.000000 ICntrl=    2127 IOpCl=  1 I1Cent=           0 NGrid=           0
         NMat0=    1 NMatS0=      0 NMatT0=    1 NMatD0=    1 NMtDS0=    0 NMtDT0=    0
         CW=    0.222036    0.777964
         WU=    0.000000   12.500000
 Symmetry not used in FoFCou.
 FoFCou:  KetSym=F NOpSet=  1 NOpAb=1 NOp=  1.
 FoFCou:  CnvScl= 1.00D+00 Thresh= 1.00D-10 IAcrcy=      10.
 PrismS was handed   418916696 working-precision words and  4916 shell-pairs
 FoFCou: LinMIO=F DoNuc=F BraDBF=F KetDBF=F HaveP=T PDBF=F HaveZ=T HaveW=F
         NIJTC =      10 NIJTAt=       0 NIJTCD=       0 NIJTT =      10
         IJTBeg=       1 IJTEnd=      10 KLTBeg=       1 KLTEnd=      10
         IPTBeg=       1 IPTEnd=      10 IPTBCv=       1 IPTECv=      10
         IZTBeg=       1 IZTEnd=      10 IZTBCv=       1 IZTECv=      10
         IWTBeg=      11 IWTEnd=      10 IWTBCv=      11 IWTECv=      10
         INTBeg=       1 INTEnd=       0 IFTBCv=       1 IFTECv=      10
 NCel replicated for PrismC:     1
 CoulSu:  IncDef=  1024 NBBP=       12085986 NTPThr=   100 NPartT=   32 Incr=        1024 LDynOK=F.
 CoulSu:  NPrtUS=  32 ThrOK=T IAlg=1 NPAlg=1 LenDen=           0 LWGrdD=           0 DoCopy=F.
 Enter PrismC: JobTyp=21 DoJE=F Cont=F.
 Linear combination for Coulomb/exchange, wScrn=  0.000000
 CW=    0.222036    0.777964
 WU=    0.000000   12.500000
 Enter PrismC: JobTyp=21 DoJE=F Cont=F.
 Enter PrismC: JobTyp=21 DoJE=F Cont=F.
 Linear combination for Coulomb/exchange, wScrn=  0.000000
 CW=    0.222036    0.777964
 WU=    0.000000   12.500000
 Enter PrismC: JobTyp=21 DoJE=F Cont=F.
 Enter PrismC: JobTyp=21 DoJE=F Cont=F.
 Linear combination for Coulomb/exchange, wScrn=  0.000000
 CW=    0.222036    0.777964
 WU=    0.000000   12.500000
 Enter PrismC: JobTyp=21 DoJE=F Cont=F.
 Linear combination for Coulomb/exchange, wScrn=  0.000000
 Enter PrismC: JobTyp=21 DoJE=F Cont=F.
 Enter PrismC: JobTyp=21 DoJE=F Cont=F.
 Linear combination for Coulomb/exchange, wScrn=  0.000000
 Enter PrismC: JobTyp=21 DoJE=F Cont=F.
 Enter PrismC: JobTyp=21 DoJE=F Cont=F.
 Linear combination for Coulomb/exchange, wScrn=  0.000000
 CW=    0.222036    0.777964
 WU=    0.000000   12.500000
 PrismC was handed    13000937 working-precision words and  4916 shell-pairs
 PrismC was handed    13000937 working-precision words and  4916 shell-pairs
 Linear combination for Coulomb/exchange, wScrn=  0.000000
 CW=    0.222036    0.777964
 Enter PrismC: JobTyp=21 DoJE=F Cont=F.
 Enter PrismC: JobTyp=21 DoJE=F Cont=F.
 Linear combination for Coulomb/exchange, wScrn=  0.000000
 Enter PrismC: JobTyp=21 DoJE=F Cont=F.
 Linear combination for Coulomb/exchange, wScrn=  0.000000
 CW=    0.222036    0.777964
 WU=    0.000000   12.500000
 PrismC was handed    13000937 working-precision words and  4916 shell-pairs
 Enter PrismC: JobTyp=21 DoJE=F Cont=F.
 Linear combination for Coulomb/exchange, wScrn=  0.000000
 CW=    0.222036    0.777964
 WU=    0.000000   12.500000
 PrismC was handed    13000937 working-precision words and  4916 shell-pairs
 CW=    0.222036    0.777964
 WU=    0.000000   12.500000
 PrismC was handed    13000937 working-precision words and  4916 shell-pairs
 Enter PrismC: JobTyp=21 DoJE=F Cont=F.
 Linear combination for Coulomb/exchange, wScrn=  0.000000
 CW=    0.222036    0.777964
 WU=    0.000000   12.500000
 Enter PrismC: JobTyp=21 DoJE=F Cont=F.
 Linear combination for Coulomb/exchange, wScrn=  0.000000
 CW=    0.222036    0.777964
 WU=    0.000000   12.500000
 PrismC was handed    13000937 working-precision words and  4916 shell-pairs
 Enter PrismC: JobTyp=21 DoJE=F Cont=F.
 Linear combination for Coulomb/exchange, wScrn=  0.000000
 CW=    0.222036    0.777964
 WU=    0.000000   12.500000
 PrismC was handed    13000937 working-precision words and  4916 shell-pairs
 CW=    0.222036    0.777964
 WU=    0.000000   12.500000
 Enter PrismC: JobTyp=21 DoJE=F Cont=F.
 Linear combination for Coulomb/exchange, wScrn=  0.000000
 CW=    0.222036    0.777964
 WU=    0.000000   12.500000
 PrismC was handed    13000937 working-precision words and  4916 shell-pairs
 Enter PrismC: JobTyp=21 DoJE=F Cont=F.
 Linear combination for Coulomb/exchange, wScrn=  0.000000
 CW=    0.222036    0.777964
 WU=    0.000000   12.500000
 Linear combination for Coulomb/exchange, wScrn=  0.000000
 CW=    0.222036    0.777964
 WU=    0.000000   12.500000
 PrismC was handed    13000937 working-precision words and  4916 shell-pairs
 Enter PrismC: JobTyp=21 DoJE=F Cont=F.
 Linear combination for Coulomb/exchange, wScrn=  0.000000
 CW=    0.222036    0.777964
 WU=    0.000000   12.500000
 PrismC was handed    13000937 working-precision words and  4916 shell-pairs
 Enter PrismC: JobTyp=21 DoJE=F Cont=F.
 Linear combination for Coulomb/exchange, wScrn=  0.000000
 CW=    0.222036    0.777964
 WU=    0.000000   12.500000
 Enter PrismC: JobTyp=21 DoJE=F Cont=F.
 Linear combination for Coulomb/exchange, wScrn=  0.000000
 CW=    0.222036    0.777964
 WU=    0.000000   12.500000
 PrismC was handed    13000937 working-precision words and  4916 shell-pairs
 PrismC was handed    13000937 working-precision words and  4916 shell-pairs
 PrismC was handed    13000937 working-precision words and  4916 shell-pairs
 Enter PrismC: JobTyp=21 DoJE=F Cont=F.
 Linear combination for Coulomb/exchange, wScrn=  0.000000
 CW=    0.222036    0.777964
 WU=    0.000000   12.500000
 PrismC was handed    13000937 working-precision words and  4916 shell-pairs
 CW=    0.222036    0.777964
 WU=    0.000000   12.500000
 PrismC was handed    13000937 working-precision words and  4916 shell-pairs
 Enter PrismC: JobTyp=21 DoJE=F Cont=F.
 Linear combination for Coulomb/exchange, wScrn=  0.000000
 PrismC was handed    13000937 working-precision words and  4916 shell-pairs
 Linear combination for Coulomb/exchange, wScrn=  0.000000
 CW=    0.222036    0.777964
 WU=    0.000000   12.500000
 PrismC was handed    13000937 working-precision words and  4916 shell-pairs
 Enter PrismC: JobTyp=21 DoJE=F Cont=F.
 Linear combination for Coulomb/exchange, wScrn=  0.000000
 CW=    0.222036    0.777964
 WU=    0.000000   12.500000
 Enter PrismC: JobTyp=21 DoJE=F Cont=F.
 Linear combination for Coulomb/exchange, wScrn=  0.000000
 CW=    0.222036    0.777964
 WU=    0.000000   12.500000
 PrismC:  IPart=     0 DynPar=T LinDyn=F Incr=        1024 UseFst=F UseS4=T IGathr=2.
 PrismC was handed    13000937 working-precision words and  4916 shell-pairs
 PrismC was handed    13000937 working-precision words and  4916 shell-pairs
 PrismC was handed    13000937 working-precision words and  4916 shell-pairs
 WU=    0.000000   12.500000
 PrismC was handed    13000937 working-precision words and  4916 shell-pairs
 CW=    0.222036    0.777964
 WU=    0.000000   12.500000
 PrismC was handed    13000937 working-precision words and  4916 shell-pairs
 Enter PrismC: JobTyp=21 DoJE=F Cont=F.
 Linear combination for Coulomb/exchange, wScrn=  0.000000
 CW=    0.222036    0.777964
 WU=    0.000000   12.500000
 Enter PrismC: JobTyp=21 DoJE=F Cont=F.
 Linear combination for Coulomb/exchange, wScrn=  0.000000
 CW=    0.222036    0.777964
 WU=    0.000000   12.500000
 PrismC was handed    13000937 working-precision words and  4916 shell-pairs
 Linear combination for Coulomb/exchange, wScrn=  0.000000
 CW=    0.222036    0.777964
 WU=    0.000000   12.500000
 PrismC was handed    13000937 working-precision words and  4916 shell-pairs
 Linear combination for Coulomb/exchange, wScrn=  0.000000
 CW=    0.222036    0.777964
 WU=    0.000000   12.500000
 PrismC was handed    13000937 working-precision words and  4916 shell-pairs
 Enter PrismC: JobTyp=21 DoJE=F Cont=F.
 Linear combination for Coulomb/exchange, wScrn=  0.000000
 CW=    0.222036    0.777964
 WU=    0.000000   12.500000
 Enter PrismC: JobTyp=21 DoJE=F Cont=F.
 Linear combination for Coulomb/exchange, wScrn=  0.000000
 CW=    0.222036    0.777964
 WU=    0.000000   12.500000
 PrismC was handed    13000937 working-precision words and  4916 shell-pairs
 PrismC was handed    13000937 working-precision words and  4916 shell-pairs
 PrismC was handed    13000937 working-precision words and  4916 shell-pairs
 PrismC was handed    13000937 working-precision words and  4916 shell-pairs
 Enter PrismC: JobTyp=21 DoJE=F Cont=F.
 Linear combination for Coulomb/exchange, wScrn=  0.000000
 CW=    0.222036    0.777964
 WU=    0.000000   12.500000
 PrismC was handed    13000937 working-precision words and  4916 shell-pairs
 PrismC was handed    13000937 working-precision words and  4916 shell-pairs
 Enter PrismC: JobTyp=21 DoJE=F Cont=F.
 Linear combination for Coulomb/exchange, wScrn=  0.000000
 CW=    0.222036    0.777964
 WU=    0.000000   12.500000
 PrismC was handed    13000937 working-precision words and  4916 shell-pairs
 IPart=  5 NShTot=      255983 NShNF=      255983 NShFF=           0 NBatch=        2279 AvBLen=       112.3
 IPart= 21 NShTot=      257007 NShNF=      257007 NShFF=           0 NBatch=        2658 AvBLen=        96.7
 IPart= 16 NShTot=      276699 NShNF=      276699 NShFF=           0 NBatch=        2768 AvBLen=       100.0
 IPart= 12 NShTot=      327636 NShNF=      327636 NShFF=           0 NBatch=        3018 AvBLen=       108.6
 IPart= 11 NShTot=      314971 NShNF=      314971 NShFF=           0 NBatch=        2751 AvBLen=       114.5
 IPart= 31 NShTot=      322395 NShNF=      322395 NShFF=           0 NBatch=        3132 AvBLen=       102.9
 IPart= 30 NShTot=      311822 NShNF=      311822 NShFF=           0 NBatch=        2848 AvBLen=       109.5
 IPart=  4 NShTot=      331664 NShNF=      331664 NShFF=           0 NBatch=        3239 AvBLen=       102.4
 IPart= 25 NShTot=      397832 NShNF=      397832 NShFF=           0 NBatch=        3739 AvBLen=       106.4
 IPart= 28 NShTot=      259922 NShNF=      259922 NShFF=           0 NBatch=        2995 AvBLen=        86.8
 IPart= 20 NShTot=      293770 NShNF=      293770 NShFF=           0 NBatch=        2944 AvBLen=        99.8
 IPart= 24 NShTot=      296550 NShNF=      296550 NShFF=           0 NBatch=        2754 AvBLen=       107.7
 IPart= 29 NShTot=      340241 NShNF=      340241 NShFF=           0 NBatch=        3142 AvBLen=       108.3
 IPart= 26 NShTot=      245606 NShNF=      245606 NShFF=           0 NBatch=        2815 AvBLen=        87.2
 IPart=  0 NShTot=      382979 NShNF=      382979 NShFF=           0 NBatch=        3003 AvBLen=       127.5
 IPart= 18 NShTot=      362005 NShNF=      362005 NShFF=           0 NBatch=        3308 AvBLen=       109.4
 IPart= 14 NShTot=      296252 NShNF=      296252 NShFF=           0 NBatch=        2700 AvBLen=       109.7
 IPart=  8 NShTot=      296913 NShNF=      296913 NShFF=           0 NBatch=        2834 AvBLen=       104.8
 IPart=  1 NShTot=      269235 NShNF=      269235 NShFF=           0 NBatch=        2410 AvBLen=       111.7
 IPart= 15 NShTot=      322808 NShNF=      322808 NShFF=           0 NBatch=        2912 AvBLen=       110.9
 IPart= 13 NShTot=      352247 NShNF=      352247 NShFF=           0 NBatch=        3056 AvBLen=       115.3
 IPart= 10 NShTot=      259626 NShNF=      259626 NShFF=           0 NBatch=        2749 AvBLen=        94.4
 IPart= 17 NShTot=      344482 NShNF=      344482 NShFF=           0 NBatch=        2713 AvBLen=       127.0
 IPart= 23 NShTot=      358847 NShNF=      358847 NShFF=           0 NBatch=        3282 AvBLen=       109.3
 IPart= 19 NShTot=      261839 NShNF=      261839 NShFF=           0 NBatch=        2526 AvBLen=       103.7
 IPart=  7 NShTot=      233689 NShNF=      233689 NShFF=           0 NBatch=        2472 AvBLen=        94.5
 IPart= 27 NShTot=      302070 NShNF=      302070 NShFF=           0 NBatch=        2794 AvBLen=       108.1
 IPart=  3 NShTot=      271188 NShNF=      271188 NShFF=           0 NBatch=        2501 AvBLen=       108.4
 IPart=  9 NShTot=      326050 NShNF=      326050 NShFF=           0 NBatch=        3125 AvBLen=       104.3
 IPart=  6 NShTot=      286698 NShNF=      286698 NShFF=           0 NBatch=        2761 AvBLen=       103.8
 IPart=  2 NShTot=      308104 NShNF=      308104 NShFF=           0 NBatch=        2471 AvBLen=       124.7
 IPart= 22 NShTot=      366062 NShNF=      366062 NShFF=           0 NBatch=        3238 AvBLen=       113.1
 CoulSu:  NxtVal=       13085697.
 ReadGW:  IGet=0 IStart=           1 Next=           1 LGW=           0.
 Remaining memory in FofDFT      399.83 Mw
 CkSvGd:  ISavGI=        -1 IRadAn=       5 IRASav=       5 ISavGd=        -1.
 CalDSu:  NPrtUS=  32 ThrOK=T IAlg=1 NPAlg=2 DoDPD=T LenP=       45150 LenD1P=             0.
 IPart=  0 IRanGd=          0 ScrnBf=T ScrnGd=T RCrit=4.00D+00 DoMicB=T.
 IPart= 30         7583 of         9490 points in      14 batches and       38 microbatches, Max-NSigAt=      12 Max-NSgAt2=      12
 IPart= 20         9257 of        10612 points in      16 batches and       39 microbatches, Max-NSigAt=      12 Max-NSgAt2=      12
 IPart= 16         7662 of         8000 points in      13 batches and       45 microbatches, Max-NSigAt=      12 Max-NSgAt2=      12
 IPart=  7         8669 of         9264 points in      14 batches and       52 microbatches, Max-NSigAt=      12 Max-NSgAt2=      12
 IPart= 22         9671 of        10762 points in      15 batches and       47 microbatches, Max-NSigAt=      12 Max-NSgAt2=      12
 IPart=  9         5736 of         6916 points in      11 batches and       41 microbatches, Max-NSigAt=      12 Max-NSgAt2=      12
 IPart=  6         7621 of         8256 points in      13 batches and       46 microbatches, Max-NSigAt=      12 Max-NSgAt2=      12
 IPart=  4        11668 of        14508 points in      22 batches and       52 microbatches, Max-NSigAt=      12 Max-NSgAt2=      12
 IPart=  0        10080 of        11968 points in      17 batches and       35 microbatches, Max-NSigAt=      12 Max-NSgAt2=      12
 IPart= 15         5972 of         7008 points in      10 batches and       51 microbatches, Max-NSigAt=      12 Max-NSgAt2=      12
 IPart= 13         8526 of         9482 points in      14 batches and       69 microbatches, Max-NSigAt=      12 Max-NSgAt2=      12
 IPart= 25         7117 of         7396 points in      12 batches and       36 microbatches, Max-NSigAt=      12 Max-NSgAt2=      12
 IPart= 11         6547 of         7438 points in      12 batches and       59 microbatches, Max-NSigAt=      12 Max-NSgAt2=      12
 IPart= 10        16114 of        20000 points in      30 batches and       92 microbatches, Max-NSigAt=      12 Max-NSgAt2=      12
 IPart= 12         6761 of         7702 points in      12 batches and       61 microbatches, Max-NSigAt=      12 Max-NSgAt2=      12
 IPart= 29         7178 of         8252 points in      13 batches and       63 microbatches, Max-NSigAt=      12 Max-NSgAt2=      12
 IPart= 18         7514 of         7992 points in      13 batches and       33 microbatches, Max-NSigAt=      12 Max-NSgAt2=      12
 IPart=  2         6871 of         7748 points in      12 batches and       41 microbatches, Max-NSigAt=      12 Max-NSgAt2=      12
 IPart=  1         6828 of         7410 points in      13 batches and       63 microbatches, Max-NSigAt=      12 Max-NSgAt2=      12
 IPart=  5         6942 of         7080 points in      12 batches and       28 microbatches, Max-NSigAt=      12 Max-NSgAt2=      12
 IPart= 17         4834 of         5338 points in       9 batches and       38 microbatches, Max-NSigAt=      12 Max-NSgAt2=      12
 IPart=  3         7477 of         7804 points in      12 batches and       37 microbatches, Max-NSigAt=      12 Max-NSgAt2=      12
 IPart= 21         6035 of         6848 points in      11 batches and       55 microbatches, Max-NSigAt=      12 Max-NSgAt2=      12
 IPart= 26         6718 of         8192 points in      12 batches and       44 microbatches, Max-NSigAt=      12 Max-NSgAt2=      12
 IPart=  8         8142 of         8736 points in      14 batches and       45 microbatches, Max-NSigAt=      12 Max-NSgAt2=      12
 IPart= 23         6149 of         7006 points in      12 batches and       56 microbatches, Max-NSigAt=      12 Max-NSgAt2=      12
 IPart= 28         5623 of         5772 points in       8 batches and       22 microbatches, Max-NSigAt=      12 Max-NSgAt2=      12
 IPart= 31         6672 of         7492 points in      12 batches and       50 microbatches, Max-NSigAt=      12 Max-NSgAt2=      12
 IPart= 19         5850 of         7076 points in      10 batches and       46 microbatches, Max-NSigAt=      12 Max-NSgAt2=      12
 IPart= 14         6183 of         7002 points in      11 batches and       56 microbatches, Max-NSigAt=      12 Max-NSgAt2=      12
 IPart= 27         7168 of         8174 points in      13 batches and       57 microbatches, Max-NSigAt=      12 Max-NSgAt2=      12
 IPart= 24         6002 of         7722 points in      12 batches and       41 microbatches, Max-NSigAt=      12 Max-NSgAt2=      12
 Forces at end of L703
 I=    0 X=  -4.840771287041D-01 Y=   1.451807741007D-01 Z=  -1.718846599426D-01
 I=    1 X=   2.502375763482D-02 Y=   5.899984593130D-02 Z=   2.629455899833D-02
 I=    2 X=  -4.970824378470D-05 Y=   4.215480848524D-05 Z=  -1.914535904568D-05
 I=    3 X=  -2.989596225245D-06 Y=  -3.734754903395D-05 Z=  -1.150932309235D-05
 I=    4 X=   2.296454735040D-06 Y=   8.484707275436D-06 Z=   1.265594802669D-05
 I=    5 X=  -6.263174663346D-06 Y=  -5.319804373594D-05 Z=   2.828197772864D-05
 I=    6 X=  -2.498377717717D-02 Y=  -5.913509635474D-02 Z=  -2.639553532096D-02
 I=    7 X=  -5.351294532846D-05 Y=  -1.339533281852D-05 Z=   8.376286036871D-05
 I=    8 X=   4.672357418745D-06 Y=   1.050876167881D-04 Z=   7.221802833524D-06
 I=    9 X=   4.249702339720D-05 Y=   5.458674478787D-05 Z=   3.163210105206D-05
 I=   10 X=   1.946802677755D-05 Y=   6.473419098096D-06 Z=  -8.254638209859D-06
 I=   11 X=  -2.299331880451D-06 Y=   1.666224409647D-05 Z=  -1.553499947904D-05
 I=   12 X=   5.858971952044D-06 Y=   5.741808521975D-06 Z=  -8.134047433384D-06
 FrcOut:
 IF    =    61 IFX   =    97 IFXYZ =   133
 IFFX  =   169 IFFFX =   169 IFLen =    36
 IFFLen=     0 IFFFLn=     0 IEDerv=   169
 LEDerv=  1781 IFroze=  2356 ICStrt=146681
 -------------------------------------------------------------------
 Center     Atomic                   Forces (Hartrees/Bohr)
 Number     Number              X              Y              Z
 -------------------------------------------------------------------
      1        6          -0.025023758   -0.058999846   -0.026294559
      2        8           0.000049708   -0.000042155    0.000019145
      3        1           0.000002990    0.000037348    0.000011509
      4        1          -0.000002296   -0.000008485   -0.000012656
      5        1           0.000006263    0.000053198   -0.000028282
      6        6           0.024983777    0.059135096    0.026395535
      7        6           0.000053513    0.000013395   -0.000083763
      8        1          -0.000004672   -0.000105088   -0.000007222
      9        1          -0.000042497   -0.000054587   -0.000031632
     10        1          -0.000019468   -0.000006473    0.000008255
     11        1           0.000002299   -0.000016662    0.000015535
     12        1          -0.000005859   -0.000005742    0.000008134
 -------------------------------------------------------------------
 Cartesian Forces:  Max     0.059135096 RMS     0.016343947
 From PutF, contents of force:
   1   -0.9136618683D-05
   2   -0.1213152550D-05
   3    0.1086330524D-05
   4   -0.1190761334D-04
   5   -0.2419914761D-04
   6    0.2779600698D-04
   7   -0.4663439601D-04
   8   -0.1354950704D-04
   9    0.5190384834D-04
  10    0.4984784684D-05
  11   -0.1952507826D-05
  12    0.8658915941D-05
  13   -0.1931725980D-04
  14   -0.8807815997D-05
  15   -0.4916596181D-05
  16   -0.5762051441D-04
  17   -0.2806178981D-04
  18   -0.2088159852D-04
  19   -0.1221153496D-04
  20   -0.1304507548D-03
  21   -0.1335990890D-04
  22    0.8745291723D-05
  23   -0.1301276970D-03
  24    0.9621277843D-06
  25    0.4033550192D-04
  26   -0.9124553045D-04
  27    0.2458120205D-04
  28   -0.2046542758D-04
  29    0.6764930628D-04
  30   -0.6922120138D-01
 -----------------------------------------------------------------------------------------------
                       Internal Coordinate Forces (Hartree/Bohr or radian)
  Cent   Atom   N1       Length/X         N2         Alpha/Y        N3         Beta/Z          J
 -----------------------------------------------------------------------------------------------
      1  C 
      2  O        1  -0.000009(     1)
      3  H        1  -0.000001(     2)      2  -0.000024(    12)
      4  H        1   0.000001(     3)      2   0.000028(    13)      3  -0.000014(    22)     0
      5  H        2  -0.000012(     4)      1  -0.000047(    14)      3  -0.000091(    23)     0
      6  C        1  -0.069221(     5)      2   0.000068(    15)      3  -0.000020(    24)     0
      7  C        6   0.000052(     6)      1  -0.000130(    16)      2   0.000001(    25)     0
      8  H        6   0.000005(     7)      7  -0.000005(    17)      1   0.000040(    26)     0
      9  H        6  -0.000002(     8)      7  -0.000058(    18)      8  -0.000130(    27)     0
     10  H        7   0.000009(     9)      6  -0.000028(    19)      8   0.000025(    28)     0
     11  H        7  -0.000019(    10)      6  -0.000021(    20)     10  -0.000013(    29)     0
     12  H        7  -0.000009(    11)      6  -0.000012(    21)     10   0.000009(    30)     0
 -----------------------------------------------------------------------------------------------
 Internal  Forces:  Max     0.069221201 RMS     0.012638086
 Final forces over variables, Energy=-1.94292454D+02:
 -9.13661868D-06-1.21315255D-06 1.08633052D-06-1.19076133D-05
 -2.41991476D-05 2.77960070D-05-4.66343960D-05-1.35495070D-05
  5.19038483D-05 4.98478468D-06-1.95250783D-06 8.65891594D-06
 -1.93172598D-05-8.80781600D-06-4.91659618D-06-5.76205144D-05
 -2.80617898D-05-2.08815985D-05-1.22115350D-05-1.30450755D-04
 -1.33599089D-05 8.74529172D-06-1.30127697D-04 9.62127784D-07
  4.03355019D-05-9.12455304D-05 2.45812021D-05-2.04654276D-05
  6.76493063D-05-6.92212014D-02

 GradGradGradGradGradGradGradGradGradGradGradGradGradGradGradGradGradGrad
 Berny optimization.
 Search for a local minimum.
 Step number   5 out of a maximum of   50
 All quantities printed in internal units (Hartrees-Bohrs-Radians)
 Update second derivatives using D2CorN and points    1    2    3    4    5

 DE= -4.35D-06 DEPred=-3.16D-06 R= 1.37D+00
 TightC=F SS=  1.41D+00  RLast= 1.78D-02 DXNew= 5.0454D-01 5.3376D-02
 Trust test= 1.37D+00 RLast= 1.78D-02 DXMaxT set to 3.00D-01
 ITU=  1  1  1  1  0
     Eigenvalues ---    0.01286   0.02347   0.04201   0.06324   0.08504
     Eigenvalues ---    0.11717   0.13488   0.13848   0.15354   0.16008
     Eigenvalues ---    0.24368   0.26933   0.28786   0.31658   0.34427
     Eigenvalues ---    0.34469   0.34681   0.34727   0.34755   0.35065
     Eigenvalues ---    0.35256   0.35440   0.38127   0.39210   0.39360
     Eigenvalues ---    0.39814   0.39878   0.48127   0.561881000.00000
 RFO step:  Lambda=-4.30621230D-07 EMin= 1.28588935D-02
 Quartic linear search produced a step of  0.32420.
 Variable       Old X    -DE/DX   Delta X   Delta X   Delta X     New X
                                 (Linear)    (Quad)   (Total)
    R1        2.58976  -0.00001  -0.00016   0.00014  -0.00002   2.58974
    R2        2.04571  -0.00000   0.00001   0.00001   0.00002   2.04573
    R3        2.05593   0.00000  -0.00001   0.00003   0.00002   2.05595
    R4        1.80813  -0.00001  -0.00001  -0.00002  -0.00003   1.80810
    A2        1.92713  -0.00002   0.00018  -0.00033  -0.00014   1.92699
    A3        2.01886   0.00003   0.00001   0.00001   0.00002   2.01888
    A4        1.90924  -0.00005   0.00022  -0.00051  -0.00029   1.90895
    D3        3.99422  -0.00001   0.00003   0.00057   0.00060   3.99482
   R21        2.83628   0.00005  -0.00009   0.00029   0.00020   2.83647
   R22        2.05196   0.00000  -0.00004   0.00005   0.00001   2.05197
   R23        2.04956  -0.00000  -0.00002   0.00002   0.00000   2.04956
   R24        2.06848   0.00001  -0.00001   0.00002   0.00001   2.06850
   R25        2.06155  -0.00002   0.00006  -0.00010  -0.00004   2.06151
   R26        2.06090  -0.00001   0.00005  -0.00005  -0.00000   2.06090
   A22        2.01201  -0.00000   0.00009  -0.00007   0.00002   2.01203
   A23        2.01991  -0.00006   0.00009  -0.00051  -0.00042   2.01948
   A24        1.94544  -0.00003   0.00029  -0.00034  -0.00006   1.94538
   A25        1.94566  -0.00002   0.00001  -0.00009  -0.00008   1.94558
   A26        1.94424  -0.00001   0.00000   0.00004   0.00004   1.94428
   D23        2.32996  -0.00013   0.00046  -0.00153  -0.00107   2.32889
   D25        2.08948  -0.00001   0.00010  -0.00020  -0.00010   2.08938
   D26        4.19377   0.00001  -0.00008   0.00001  -0.00007   4.19370
   ANG2       1.88322  -0.00013  -0.00103   0.00019  -0.00085   1.88238
   DH2        3.15407   0.00000  -0.00179   0.00022  -0.00157   3.15250
   DH3        1.98247   0.00004  -0.00023   0.00100   0.00076   1.98323
    D4        3.07424  -0.00009  -0.00524  -0.00073  -0.00598   3.06826
   D24        5.12979   0.00002  -0.00045   0.00110   0.00065   5.13044
   DH1        1.97144  -0.00002   0.00007   0.00024   0.00030   1.97175
   ANG1       1.96039   0.00007   0.00090  -0.00010   0.00080   1.96119
    BB        4.15740  -0.06922   0.00000   0.00000   0.00000   4.15740
         Item               Value     Threshold  Converged?
 Maximum Force            0.000130     0.000450     YES
 RMS     Force            0.000046     0.000300     YES
 Maximum Displacement     0.005977     0.001800     NO 
 RMS     Displacement     0.001190     0.001200     YES
 Predicted change in Energy=-4.452763D-07
 GradGradGradGradGradGradGradGradGradGradGradGradGradGradGradGradGradGrad

 ---------------------------------------------------------------------------------------------------
                            Z-MATRIX (ANGSTROMS AND DEGREES)
   CD    Cent   Atom    N1       Length/X        N2       Alpha/Y        N3        Beta/Z          J
 ---------------------------------------------------------------------------------------------------
      1      1  C 
      2      2  O        1   1.370432(     1)
      3      3  H        1   1.082556(     2)      2  110.408(    12)
      4      4  H        1   1.087963(     3)      2  115.673(    13)      3  228.886(    22)      0
      5      5  H        2   0.956805(     4)      1  109.375(    14)      3  175.799(    23)      0
      6      6  C        1   2.200000(     5)      2  112.368(    15)      3  112.973(    24)      0
      7      7  C        6   1.500997(     6)      1  107.852(    16)      2  180.625(    25)      0
      8      8  H        6   1.085854(     7)      7  115.281(    17)      1  113.631(    26)      0
      9      9  H        6   1.084580(     8)      7  115.708(    18)      8  133.436(    27)      0
     10     10  H        7   1.094601(     9)      6  111.462(    19)      8  293.953(    28)      0
     11     11  H        7   1.090906(    10)      6  111.474(    20)     10  119.713(    29)      0
     12     12  H        7   1.090580(    11)      6  111.399(    21)     10  240.282(    30)      0
 ---------------------------------------------------------------------------------------------------
                         Z-Matrix orientation:                         
 ---------------------------------------------------------------------
 Center     Atomic      Atomic             Coordinates (Angstroms)
 Number     Number       Type             X           Y           Z
 ---------------------------------------------------------------------
      1          6           0        0.000000    0.000000    0.000000
      2          8           0        0.000000    0.000000    1.370432
      3          1           0        1.014605    0.000000   -0.377495
      4          1           0       -0.644772    0.738760   -0.471344
      5          1           0       -0.900193    0.066129    1.687851
      6          6           0       -0.794041   -1.873118   -0.837215
      7          6           0       -0.733584   -1.770426   -2.333474
      8          1           0       -1.793740   -1.911062   -0.415028
      9          1           0       -0.135222   -2.608982   -0.389137
     10          1           0       -1.122199   -2.674415   -2.812988
     11          1           0       -1.325927   -0.931045   -2.700416
     12          1           0        0.290912   -1.635038   -2.681959
 ---------------------------------------------------------------------
                    Distance matrix (angstroms):
                    1          2          3          4          5
     1  C    0.000000
     2  O    1.370432   0.000000
     3  H    1.082556   2.021058   0.000000
     4  H    1.087963   2.086537   1.818820   0.000000
     5  H    1.914043   0.956805   2.817176   2.275917   0.000000
     6  C    2.200000   3.002129   2.644072   2.641599   3.185578
     7  C    3.019545   4.170309   3.164874   3.125928   4.423997
     8  H    2.653660   3.171361   3.397112   2.888747   3.021558
     9  H    2.641306   3.149786   2.851144   3.387296   3.472071
    10  H    4.040387   5.090465   4.201197   4.166653   5.274222
    11  H    3.149154   4.381408   3.426499   2.867225   4.520232
    12  H    3.154502   4.379481   2.916785   3.375980   4.838176
                    6          7          8          9         10
     6  C    0.000000
     7  C    1.500997   0.000000
     8  H    1.085854   2.196394   0.000000
     9  H    1.084580   2.200378   1.799568   0.000000
    10  H    2.157184   1.094601   2.604590   2.617911   0.000000
    11  H    2.154511   1.090906   2.530273   3.094392   1.758840
    12  H    2.153343   1.090580   3.092077   2.527290   1.759079
                   11         12
    11  H    0.000000
    12  H    1.763552   0.000000
 Symmetry turned off by external request.
 Stoichiometry    C3H8O
 Framework group  C1[X(C3H8O)]
 Deg. of freedom    30
 Full point group                 C1      NOp   1
 Rotational constants (GHZ):     20.9993811      2.9610522      2.7516599
 Standard basis: Jun-CC-pVTZ (5D, 7F)
   268 basis functions,   384 primitive gaussians,   300 cartesian basis functions
    17 alpha electrons       17 beta electrons
       nuclear repulsion energy       120.8041665381 Hartrees.
 NAtoms=   12 NActive=   12 NUniq=   12 SFac= 1.00D+00 NAtFMM=   60 NAOKFM=F Big=F
 Integral buffers will be    131072 words long.
 Raffenetti 2 integral format.
 Two-electron integral symmetry is turned off.
 Nuclear repulsion after empirical dispersion term =      120.7996321790 Hartrees.
 One-electron integrals computed using PRISM.
 NBasis=   268 RedAO= T EigKep=  1.06D-04  NBF=   268
 NBsUse=   268 1.00D-06 EigRej= -1.00D+00 NBFU=   268
 ExpMin= 3.57D-02 ExpMax= 1.53D+04 ExpMxC= 5.22D+02 IAcc=3 IRadAn=         5 AccDes= 0.00D+00
 Harris functional with IExCor= 4639 and IRadAn=       5 diagonalized for initial guess.
 HarFok:  IExCor= 4639 AccDes= 0.00D+00 IRadAn=         5 IDoV= 1 UseB2=F ITyADJ=14
 ICtDFT=  3500011 ScaDFX=  1.000000  1.000000  1.000000  1.000000
 FoFCou: FMM=F IPFlag=           0 FMFlag=      100000 FMFlg1=           0
         NFxFlg=           0 DoJE=T BraDBF=F KetDBF=T FulRan=T
         wScrn=  0.000000 ICntrl=     500 IOpCl=  0 I1Cent=   200000004 NGrid=           0
         NMat0=    1 NMatS0=      1 NMatT0=    0 NMatD0=    1 NMtDS0=    0 NMtDT0=    0
 Symmetry not used in FoFCou.
 Mixing orbitals, IMix= 1 IMixAn=  0 NRI=1 NE=   17 Coef=  7.07106781D-01  7.07106781D-01
 Mixing orbitals, IMix= 1 IMixAn=  0 NRI=1 NE=   17 Coef= -7.07106781D-01  7.07106781D-01
 Initial guess <Sx>= 0.0000 <Sy>= 0.0000 <Sz>= 0.0000 <S**2>= 1.0000 S= 0.6180
 Requested convergence on RMS density matrix=1.00D-08 within 128 cycles.
 Requested convergence on MAX density matrix=1.00D-06.
 Requested convergence on             energy=1.00D-06.
 No special actions if energy rises.
 SCF Done:  E(UwB97XD) =  -194.292454511     A.U. after   16 cycles
            NFock= 16  Conv=0.94D-08     -V/T= 2.0080
 <Sx>= 0.0000 <Sy>= 0.0000 <Sz>= 0.0000 <S**2>= 0.0000 S= 0.0000
 <L.S>=  0.00000000000    
 Annihilation of the first spin contaminant:
 S**2 before annihilation     0.0000,   after    -0.0000
 DipInt: DoE/N= T T RetVal/Mat= T F Init=T NMatP=  1 IDeriv=0 Min/MaxMlt=  1  1
 Entering OneElI...
 Multipole integrals L=1 to 1 MinM= 0 MaxM= 0.
 Requested accuracy = 0.1000D-12
 PrsmSu:  NPrtUS=   1 ThrOK=F IAlg=1 NPAlg=1 LenDen=           0.
 Prism:   IPart=     0 DynPar=F LinDyn=F Incr=          49.
 PRISM was handed   419015286 working-precision words and  4948 shell-pairs
 IPart=  0 NShTot=        4948 NBatch=          63 AvBLen=        78.5
 PrSmSu:  NxtVal=             50.
 Entering OneElI...
 Calculate overlap and kinetic energy integrals
    NBasis = 300  MinDer = 1  MaxDer = 1
 Requested accuracy = 0.1000D-12
 PrsmSu:  NPrtUS=  32 ThrOK=T IAlg=1 NPAlg=1 LenDen=           0.
 PRISM was handed    12993843 working-precision words and  5025 shell-pairs
 PRISM was handed    12993843 working-precision words and  5025 shell-pairs
 PRISM was handed    12993843 working-precision words and  5025 shell-pairs
 PRISM was handed    12993843 working-precision words and  5025 shell-pairs
 Prism:   IPart=     0 DynPar=F LinDyn=F Incr=           1.
 PRISM was handed    12993843 working-precision words and  5025 shell-pairs
 PRISM was handed    12993843 working-precision words and  5025 shell-pairs
 PRISM was handed    12993843 working-precision words and  5025 shell-pairs
 PRISM was handed    12993843 working-precision words and  5025 shell-pairs
 PRISM was handed    12993843 working-precision words and  5025 shell-pairs
 PRISM was handed    12993843 working-precision words and  5025 shell-pairs
 PRISM was handed    12993843 working-precision words and  5025 shell-pairs
 PRISM was handed    12993843 working-precision words and  5025 shell-pairs
 PRISM was handed    12993843 working-precision words and  5025 shell-pairs
 PRISM was handed    12993843 working-precision words and  5025 shell-pairs
 PRISM was handed    12993843 working-precision words and  5025 shell-pairs
 PRISM was handed    12993843 working-precision words and  5025 shell-pairs
 PRISM was handed    12993843 working-precision words and  5025 shell-pairs
 PRISM was handed    12993843 working-precision words and  5025 shell-pairs
 PRISM was handed    12993843 working-precision words and  5025 shell-pairs
 PRISM was handed    12993843 working-precision words and  5025 shell-pairs
 PRISM was handed    12993843 working-precision words and  5025 shell-pairs
 PRISM was handed    12993843 working-precision words and  5025 shell-pairs
 PRISM was handed    12993843 working-precision words and  5025 shell-pairs
 PRISM was handed    12993843 working-precision words and  5025 shell-pairs
 PRISM was handed    12993843 working-precision words and  5025 shell-pairs
 PRISM was handed    12993843 working-precision words and  5025 shell-pairs
 PRISM was handed    12993843 working-precision words and  5025 shell-pairs
 PRISM was handed    12993843 working-precision words and  5025 shell-pairs
 PRISM was handed    12993843 working-precision words and  5025 shell-pairs
 PRISM was handed    12993843 working-precision words and  5025 shell-pairs
 PRISM was handed    12993843 working-precision words and  5025 shell-pairs
 PRISM was handed    12993843 working-precision words and  5025 shell-pairs
 IPart= 13 NShTot=         158 NBatch=          26 AvBLen=         6.1
 IPart=  3 NShTot=         182 NBatch=          45 AvBLen=         4.0
 IPart= 27 NShTot=         141 NBatch=          21 AvBLen=         6.7
 IPart=  0 NShTot=         202 NBatch=          64 AvBLen=         3.2
 IPart=  6 NShTot=         171 NBatch=          34 AvBLen=         5.0
 IPart=  4 NShTot=         173 NBatch=          36 AvBLen=         4.8
 IPart= 14 NShTot=         157 NBatch=          25 AvBLen=         6.3
 IPart= 26 NShTot=         142 NBatch=          21 AvBLen=         6.8
 IPart=  7 NShTot=         167 NBatch=          31 AvBLen=         5.4
 IPart= 19 NShTot=         147 NBatch=          21 AvBLen=         7.0
 IPart= 10 NShTot=         161 NBatch=          27 AvBLen=         6.0
 IPart= 12 NShTot=         159 NBatch=          27 AvBLen=         5.9
 IPart= 22 NShTot=         145 NBatch=          21 AvBLen=         6.9
 IPart= 21 NShTot=         145 NBatch=          21 AvBLen=         6.9
 IPart= 28 NShTot=         141 NBatch=          21 AvBLen=         6.7
 IPart= 18 NShTot=         147 NBatch=          21 AvBLen=         7.0
 IPart= 23 NShTot=         144 NBatch=          21 AvBLen=         6.9
 IPart= 29 NShTot=         140 NBatch=          20 AvBLen=         7.0
 IPart= 17 NShTot=         149 NBatch=          22 AvBLen=         6.8
 IPart= 25 NShTot=         143 NBatch=          21 AvBLen=         6.8
 IPart=  1 NShTot=         196 NBatch=          58 AvBLen=         3.4
 IPart= 24 NShTot=         143 NBatch=          21 AvBLen=         6.8
 IPart= 11 NShTot=         159 NBatch=          27 AvBLen=         5.9
 IPart=  5 NShTot=         173 NBatch=          36 AvBLen=         4.8
 IPart= 31 NShTot=         138 NBatch=          20 AvBLen=         6.9
 IPart= 16 NShTot=         150 NBatch=          22 AvBLen=         6.8
 IPart= 15 NShTot=         154 NBatch=          22 AvBLen=         7.0
 IPart=  8 NShTot=         165 NBatch=          29 AvBLen=         5.7
 IPart= 20 NShTot=         145 NBatch=          21 AvBLen=         6.9
 IPart= 30 NShTot=         139 NBatch=          20 AvBLen=         7.0
 IPart=  2 NShTot=         185 NBatch=          48 AvBLen=         3.9
 IPart=  9 NShTot=         164 NBatch=          29 AvBLen=         5.7
 PrSmSu:  NxtVal=             33.
 Entering OneElI...
 Calculate potential energy integrals
    NBasis = 300  MinDer = 1  MaxDer = 1
 Requested accuracy = 0.1000D-12
 PrsmSu:  NPrtUS=  32 ThrOK=T IAlg=1 NPAlg=1 LenDen=           0.
 Prism:   IPart=     0 DynPar=F LinDyn=F Incr=          18.
 PRISM was handed    13008195 working-precision words and  4836 shell-pairs
 PRISM was handed    13008195 working-precision words and  4836 shell-pairs
 PRISM was handed    13008195 working-precision words and  4836 shell-pairs
 PRISM was handed    13008195 working-precision words and  4836 shell-pairs
 PRISM was handed    13008195 working-precision words and  4836 shell-pairs
 PRISM was handed    13008195 working-precision words and  4836 shell-pairs
 PRISM was handed    13008195 working-precision words and  4836 shell-pairs
 PRISM was handed    13008195 working-precision words and  4836 shell-pairs
 PRISM was handed    13008195 working-precision words and  4836 shell-pairs
 PRISM was handed    13008195 working-precision words and  4836 shell-pairs
 PRISM was handed    13008195 working-precision words and  4836 shell-pairs
 PRISM was handed    13008195 working-precision words and  4836 shell-pairs
 PRISM was handed    13008195 working-precision words and  4836 shell-pairs
 PRISM was handed    13008195 working-precision words and  4836 shell-pairs
 PRISM was handed    13008195 working-precision words and  4836 shell-pairs
 PRISM was handed    13008195 working-precision words and  4836 shell-pairs
 PRISM was handed    13008195 working-precision words and  4836 shell-pairs
 PRISM was handed    13008195 working-precision words and  4836 shell-pairs
 PRISM was handed    13008195 working-precision words and  4836 shell-pairs
 PRISM was handed    13008195 working-precision words and  4836 shell-pairs
 PRISM was handed    13008195 working-precision words and  4836 shell-pairs
 PRISM was handed    13008195 working-precision words and  4836 shell-pairs
 PRISM was handed    13008195 working-precision words and  4836 shell-pairs
 PRISM was handed    13008195 working-precision words and  4836 shell-pairs
 PRISM was handed    13008195 working-precision words and  4836 shell-pairs
 PRISM was handed    13008195 working-precision words and  4836 shell-pairs
 PRISM was handed    13008195 working-precision words and  4836 shell-pairs
 PRISM was handed    13008195 working-precision words and  4836 shell-pairs
 PRISM was handed    13008195 working-precision words and  4836 shell-pairs
 PRISM was handed    13008195 working-precision words and  4836 shell-pairs
 PRISM was handed    13008195 working-precision words and  4836 shell-pairs
 PRISM was handed    13008195 working-precision words and  4836 shell-pairs
 IPart= 29 NShTot=        1608 NBatch=         134 AvBLen=        12.0
 IPart= 20 NShTot=        1716 NBatch=         143 AvBLen=        12.0
 IPart= 30 NShTot=        1572 NBatch=         131 AvBLen=        12.0
 IPart=  9 NShTot=        1896 NBatch=         158 AvBLen=        12.0
 IPart= 22 NShTot=        1704 NBatch=         142 AvBLen=        12.0
 IPart=  1 NShTot=        2160 NBatch=         180 AvBLen=        12.0
 IPart= 21 NShTot=        1704 NBatch=         142 AvBLen=        12.0
 IPart=  3 NShTot=        2112 NBatch=         176 AvBLen=        12.0
 IPart= 31 NShTot=        1560 NBatch=         130 AvBLen=        12.0
 IPart= 26 NShTot=        1656 NBatch=         138 AvBLen=        12.0
 IPart=  7 NShTot=        1956 NBatch=         163 AvBLen=        12.0
 IPart= 14 NShTot=        1764 NBatch=         147 AvBLen=        12.0
 IPart= 27 NShTot=        1644 NBatch=         137 AvBLen=        12.0
 IPart= 17 NShTot=        1728 NBatch=         144 AvBLen=        12.0
 IPart= 12 NShTot=        1836 NBatch=         153 AvBLen=        12.0
 IPart=  4 NShTot=        2016 NBatch=         168 AvBLen=        12.0
 IPart=  0 NShTot=        2280 NBatch=         190 AvBLen=        12.0
 IPart= 28 NShTot=        1632 NBatch=         136 AvBLen=        12.0
 IPart=  2 NShTot=        2124 NBatch=         177 AvBLen=        12.0
 IPart= 16 NShTot=        1728 NBatch=         144 AvBLen=        12.0
 IPart= 15 NShTot=        1752 NBatch=         146 AvBLen=        12.0
 IPart= 18 NShTot=        1728 NBatch=         144 AvBLen=        12.0
 IPart=  8 NShTot=        1920 NBatch=         160 AvBLen=        12.0
 IPart=  6 NShTot=        1956 NBatch=         163 AvBLen=        12.0
 IPart= 13 NShTot=        1788 NBatch=         149 AvBLen=        12.0
 IPart= 10 NShTot=        1872 NBatch=         156 AvBLen=        12.0
 IPart= 25 NShTot=        1668 NBatch=         139 AvBLen=        12.0
 IPart= 24 NShTot=        1692 NBatch=         141 AvBLen=        12.0
 IPart=  5 NShTot=        1992 NBatch=         166 AvBLen=        12.0
 IPart= 23 NShTot=        1692 NBatch=         141 AvBLen=        12.0
 IPart= 11 NShTot=        1848 NBatch=         154 AvBLen=        12.0
 IPart= 19 NShTot=        1728 NBatch=         144 AvBLen=        12.0
 PrSmSu:  NxtVal=            577.
 l701 out
 I=    0 X=  -4.839085132042D-01 Y=   1.488464307740D-01 Z=  -1.714159334846D-01
 I=    1 X=   1.351942194348D+00 Y=   2.363382776385D+00 Z=  -2.890782887914D+00
 I=    2 X=   3.240087026759D+00 Y=   1.204035081907D+00 Z=   8.977403298857D+00
 I=    3 X=   3.495846120145D+00 Y=   2.529247030697D-01 Z=  -1.337997683271D+00
 I=    4 X=  -1.931320165330D+00 Y=   2.785024363085D+00 Z=  -1.575676356441D+00
 I=    5 X=  -3.148308336883D+00 Y=   5.410925003828D-01 Z=   2.581491079858D+00
 I=    6 X=  -1.339284432202D+00 Y=  -2.620581536010D+00 Z=  -2.495858669604D-01
 I=    7 X=  -4.370200331205D-01 Y=  -1.245292177142D+00 Z=  -3.731276447463D+00
 I=    8 X=  -3.351721758187D+00 Y=  -5.249910206515D-01 Z=   1.445967651982D+00
 I=    9 X=   2.006145115707D+00 Y=  -2.847605729892D+00 Z=   1.478608689968D+00
 I=   10 X=  -1.110440629239D+00 Y=  -2.605189916306D+00 Z=  -1.659714337973D+00
 I=   11 X=  -1.762756302586D+00 Y=   2.383730065479D+00 Z=  -1.551049907393D+00
 I=   12 X=   2.986831200588D+00 Y=   3.134708896936D-01 Z=  -1.487387233249D+00
 ICntrl=      2127.
 Calling FoFJK, ICntrl=      2127 FMM=F ISym2X=0 I1Cent= 0 IOpClX= 1 NMat=1 NMatS=1 NMatT=0.
 FoFJK:  IHMeth= 1 ICntrl=    2127 DoSepK=T KAlg= 0 I1Cent=   0 FoldK=F
 IRaf=         1 NMat=   1 IRICut=       1 DoRegI=T DoRafI=F ISym2E= 0.
 FoFCou: FMM=F IPFlag=           0 FMFlag=      100000 FMFlg1=         800
         NFxFlg=           0 DoJE=F BraDBF=F KetDBF=F FulRan=T
         wScrn=  0.000000 ICntrl=    2527 IOpCl=  0 I1Cent=           0 NGrid=           0
         NMat0=    1 NMatS0=      1 NMatT0=    0 NMatD0=    1 NMtDS0=    0 NMtDT0=    0
 Symmetry not used in FoFCou.
 FoFCou:  KetSym=F NOpSet=  1 NOpAb=1 NOp=  1.
 FoFCou:  CnvScl= 1.00D+00 Thresh= 1.00D-10 IAcrcy=      10.
 PrismS was handed   418921689 working-precision words and  4915 shell-pairs
 FoFCou: LinMIO=F DoNuc=F BraDBF=F KetDBF=F HaveP=T PDBF=F HaveZ=T HaveW=F
         NIJTC =      10 NIJTAt=       0 NIJTCD=       0 NIJTT =      10
         IJTBeg=       1 IJTEnd=      10 KLTBeg=       1 KLTEnd=      10
         IPTBeg=       1 IPTEnd=      10 IPTBCv=       1 IPTECv=      10
         IZTBeg=       1 IZTEnd=      10 IZTBCv=       1 IZTECv=      10
         IWTBeg=      11 IWTEnd=      10 IWTBCv=      11 IWTECv=      10
         INTBeg=       1 INTEnd=       0 IFTBCv=       1 IFTECv=      10
 NCel replicated for PrismC:     1
 CoulSu:  IncDef=  1024 NBBP=       12081070 NTPThr=   100 NPartT=   32 Incr=        1024 LDynOK=F.
 CoulSu:  NPrtUS=  32 ThrOK=T IAlg=1 NPAlg=1 LenDen=           0 LWGrdD=           0 DoCopy=F.
 Enter PrismC: JobTyp=21 DoJE=F Cont=F.
 Enter PrismC: JobTyp=21 DoJE=F Cont=F.
 Enter PrismC: JobTyp=21 DoJE=F Cont=F.
 Enter PrismC: JobTyp=21 DoJE=F Cont=F.
 PrismC:  IPart=     0 DynPar=T LinDyn=F Incr=        1024 UseFst=F UseS4=T IGathr=2.
 PrismC was handed    13001101 working-precision words and  4915 shell-pairs
 Enter PrismC: JobTyp=21 DoJE=F Cont=F.
 PrismC was handed    13001101 working-precision words and  4915 shell-pairs
 Enter PrismC: JobTyp=21 DoJE=F Cont=F.
 PrismC was handed    13001101 working-precision words and  4915 shell-pairs
 Enter PrismC: JobTyp=21 DoJE=F Cont=F.
 PrismC was handed    13001101 working-precision words and  4915 shell-pairs
 Enter PrismC: JobTyp=21 DoJE=F Cont=F.
 PrismC was handed    13001101 working-precision words and  4915 shell-pairs
 Enter PrismC: JobTyp=21 DoJE=F Cont=F.
 Enter PrismC: JobTyp=21 DoJE=F Cont=F.
 Enter PrismC: JobTyp=21 DoJE=F Cont=F.
 Enter PrismC: JobTyp=21 DoJE=F Cont=F.
 Enter PrismC: JobTyp=21 DoJE=F Cont=F.
 PrismC was handed    13001101 working-precision words and  4915 shell-pairs
 Enter PrismC: JobTyp=21 DoJE=F Cont=F.
 PrismC was handed    13001101 working-precision words and  4915 shell-pairs
 Enter PrismC: JobTyp=21 DoJE=F Cont=F.
 PrismC was handed    13001101 working-precision words and  4915 shell-pairs
 Enter PrismC: JobTyp=21 DoJE=F Cont=F.
 PrismC was handed    13001101 working-precision words and  4915 shell-pairs
 Enter PrismC: JobTyp=21 DoJE=F Cont=F.
 Enter PrismC: JobTyp=21 DoJE=F Cont=F.
 Enter PrismC: JobTyp=21 DoJE=F Cont=F.
 PrismC was handed    13001101 working-precision words and  4915 shell-pairs
 Enter PrismC: JobTyp=21 DoJE=F Cont=F.
 Enter PrismC: JobTyp=21 DoJE=F Cont=F.
 Enter PrismC: JobTyp=21 DoJE=F Cont=F.
 Enter PrismC: JobTyp=21 DoJE=F Cont=F.
 Enter PrismC: JobTyp=21 DoJE=F Cont=F.
 Enter PrismC: JobTyp=21 DoJE=F Cont=F.
 PrismC was handed    13001101 working-precision words and  4915 shell-pairs
 PrismC was handed    13001101 working-precision words and  4915 shell-pairs
 PrismC was handed    13001101 working-precision words and  4915 shell-pairs
 Enter PrismC: JobTyp=21 DoJE=F Cont=F.
 PrismC was handed    13001101 working-precision words and  4915 shell-pairs
 Enter PrismC: JobTyp=21 DoJE=F Cont=F.
 PrismC was handed    13001101 working-precision words and  4915 shell-pairs
 Enter PrismC: JobTyp=21 DoJE=F Cont=F.
 PrismC was handed    13001101 working-precision words and  4915 shell-pairs
 PrismC was handed    13001101 working-precision words and  4915 shell-pairs
 PrismC was handed    13001101 working-precision words and  4915 shell-pairs
 PrismC was handed    13001101 working-precision words and  4915 shell-pairs
 PrismC was handed    13001101 working-precision words and  4915 shell-pairs
 Enter PrismC: JobTyp=21 DoJE=F Cont=F.
 PrismC was handed    13001101 working-precision words and  4915 shell-pairs
 Enter PrismC: JobTyp=21 DoJE=F Cont=F.
 Enter PrismC: JobTyp=21 DoJE=F Cont=F.
 PrismC was handed    13001101 working-precision words and  4915 shell-pairs
 PrismC was handed    13001101 working-precision words and  4915 shell-pairs
 Enter PrismC: JobTyp=21 DoJE=F Cont=F.
 PrismC was handed    13001101 working-precision words and  4915 shell-pairs
 PrismC was handed    13001101 working-precision words and  4915 shell-pairs
 PrismC was handed    13001101 working-precision words and  4915 shell-pairs
 PrismC was handed    13001101 working-precision words and  4915 shell-pairs
 PrismC was handed    13001101 working-precision words and  4915 shell-pairs
 PrismC was handed    13001101 working-precision words and  4915 shell-pairs
 PrismC was handed    13001101 working-precision words and  4915 shell-pairs
 PrismC was handed    13001101 working-precision words and  4915 shell-pairs
 PrismC was handed    13001101 working-precision words and  4915 shell-pairs
 IPart=  8 NShTot=      329755 NShNF=      329755 NShFF=           0 NBatch=        2290 AvBLen=       144.0
 IPart= 27 NShTot=      286506 NShNF=      286506 NShFF=           0 NBatch=        2744 AvBLen=       104.4
 IPart= 14 NShTot=      331878 NShNF=      331878 NShFF=           0 NBatch=        2812 AvBLen=       118.0
 IPart=  2 NShTot=      379696 NShNF=      379696 NShFF=           0 NBatch=        2844 AvBLen=       133.5
 IPart= 16 NShTot=      302063 NShNF=      302063 NShFF=           0 NBatch=        2268 AvBLen=       133.2
 IPart=  5 NShTot=      318966 NShNF=      318966 NShFF=           0 NBatch=        2113 AvBLen=       151.0
 IPart= 13 NShTot=      308044 NShNF=      308044 NShFF=           0 NBatch=        2368 AvBLen=       130.1
 IPart= 29 NShTot=      339845 NShNF=      339845 NShFF=           0 NBatch=        2360 AvBLen=       144.0
 IPart= 10 NShTot=      298542 NShNF=      298542 NShFF=           0 NBatch=        2707 AvBLen=       110.3
 IPart= 26 NShTot=      220066 NShNF=      220066 NShFF=           0 NBatch=        1766 AvBLen=       124.6
 IPart=  3 NShTot=      268743 NShNF=      268743 NShFF=           0 NBatch=        2183 AvBLen=       123.1
 IPart= 15 NShTot=      503036 NShNF=      503036 NShFF=           0 NBatch=        3012 AvBLen=       167.0
 IPart= 24 NShTot=      335671 NShNF=      335671 NShFF=           0 NBatch=        2197 AvBLen=       152.8
 IPart= 18 NShTot=      252945 NShNF=      252945 NShFF=           0 NBatch=        1785 AvBLen=       141.7
 IPart= 31 NShTot=      282050 NShNF=      282050 NShFF=           0 NBatch=        2369 AvBLen=       119.1
 IPart= 19 NShTot=      386959 NShNF=      386959 NShFF=           0 NBatch=        2428 AvBLen=       159.4
 IPart=  1 NShTot=      272003 NShNF=      272003 NShFF=           0 NBatch=        2458 AvBLen=       110.7
 IPart= 25 NShTot=      328322 NShNF=      328322 NShFF=           0 NBatch=        2226 AvBLen=       147.5
 IPart=  7 NShTot=      305880 NShNF=      305880 NShFF=           0 NBatch=        2312 AvBLen=       132.3
 IPart= 28 NShTot=      284169 NShNF=      284169 NShFF=           0 NBatch=        1877 AvBLen=       151.4
 IPart= 30 NShTot=      296344 NShNF=      296344 NShFF=           0 NBatch=        2270 AvBLen=       130.5
 IPart= 11 NShTot=      372539 NShNF=      372539 NShFF=           0 NBatch=        2840 AvBLen=       131.2
 IPart= 22 NShTot=      290570 NShNF=      290570 NShFF=           0 NBatch=        2098 AvBLen=       138.5
 IPart=  4 NShTot=      271970 NShNF=      271970 NShFF=           0 NBatch=        2288 AvBLen=       118.9
 IPart=  6 NShTot=      316030 NShNF=      316030 NShFF=           0 NBatch=        2417 AvBLen=       130.8
 IPart=  9 NShTot=      313203 NShNF=      313203 NShFF=           0 NBatch=        2390 AvBLen=       131.0
 IPart= 21 NShTot=      320080 NShNF=      320080 NShFF=           0 NBatch=        2375 AvBLen=       134.8
 IPart=  0 NShTot=      306214 NShNF=      306214 NShFF=           0 NBatch=        2202 AvBLen=       139.1
 IPart= 20 NShTot=      264448 NShNF=      264448 NShFF=           0 NBatch=        2118 AvBLen=       124.9
 IPart= 23 NShTot=      306481 NShNF=      306481 NShFF=           0 NBatch=        2402 AvBLen=       127.6
 IPart= 17 NShTot=      212073 NShNF=      212073 NShFF=           0 NBatch=        1952 AvBLen=       108.6
 IPart= 12 NShTot=      260361 NShNF=      260361 NShFF=           0 NBatch=        2268 AvBLen=       114.8
 CoulSu:  NxtVal=       13080577.
 FoFCou: FMM=F IPFlag=           0 FMFlag=      100000 FMFlg1=         800
         NFxFlg=           0 DoJE=F BraDBF=F KetDBF=F FulRan=T
         wScrn=  0.000000 ICntrl=    2127 IOpCl=  1 I1Cent=           0 NGrid=           0
         NMat0=    1 NMatS0=      0 NMatT0=    1 NMatD0=    1 NMtDS0=    0 NMtDT0=    0
         CW=    0.222036    0.777964
         WU=    0.000000   12.500000
 Symmetry not used in FoFCou.
 FoFCou:  KetSym=F NOpSet=  1 NOpAb=1 NOp=  1.
 FoFCou:  CnvScl= 1.00D+00 Thresh= 1.00D-10 IAcrcy=      10.
 PrismS was handed   418916723 working-precision words and  4915 shell-pairs
 FoFCou: LinMIO=F DoNuc=F BraDBF=F KetDBF=F HaveP=T PDBF=F HaveZ=T HaveW=F
         NIJTC =      10 NIJTAt=       0 NIJTCD=       0 NIJTT =      10
         IJTBeg=       1 IJTEnd=      10 KLTBeg=       1 KLTEnd=      10
         IPTBeg=       1 IPTEnd=      10 IPTBCv=       1 IPTECv=      10
         IZTBeg=       1 IZTEnd=      10 IZTBCv=       1 IZTECv=      10
         IWTBeg=      11 IWTEnd=      10 IWTBCv=      11 IWTECv=      10
         INTBeg=       1 INTEnd=       0 IFTBCv=       1 IFTECv=      10
 NCel replicated for PrismC:     1
 CoulSu:  IncDef=  1024 NBBP=       12081070 NTPThr=   100 NPartT=   32 Incr=        1024 LDynOK=F.
 CoulSu:  NPrtUS=  32 ThrOK=T IAlg=1 NPAlg=1 LenDen=           0 LWGrdD=           0 DoCopy=F.
 Enter PrismC: JobTyp=21 DoJE=F Cont=F.
 Enter PrismC: JobTyp=21 DoJE=F Cont=F.
 Enter PrismC: JobTyp=21 DoJE=F Cont=F.
 Enter PrismC: JobTyp=21 DoJE=F Cont=F.
 Enter PrismC: JobTyp=21 DoJE=F Cont=F.
 Linear combination for Coulomb/exchange, wScrn=  0.000000
 Enter PrismC: JobTyp=21 DoJE=F Cont=F.
 Linear combination for Coulomb/exchange, wScrn=  0.000000
 CW=    0.222036    0.777964
 WU=    0.000000   12.500000
 PrismC was handed    13000946 working-precision words and  4915 shell-pairs
 Enter PrismC: JobTyp=21 DoJE=F Cont=F.
 Linear combination for Coulomb/exchange, wScrn=  0.000000
 CW=    0.222036    0.777964
 WU=    0.000000   12.500000
 Enter PrismC: JobTyp=21 DoJE=F Cont=F.
 Linear combination for Coulomb/exchange, wScrn=  0.000000
 CW=    0.222036    0.777964
 WU=    0.000000   12.500000
 PrismC was handed    13000946 working-precision words and  4915 shell-pairs
 Linear combination for Coulomb/exchange, wScrn=  0.000000
 CW=    0.222036    0.777964
 WU=    0.000000   12.500000
 PrismC was handed    13000946 working-precision words and  4915 shell-pairs
 Enter PrismC: JobTyp=21 DoJE=F Cont=F.
 Linear combination for Coulomb/exchange, wScrn=  0.000000
 CW=    0.222036    0.777964
 WU=    0.000000   12.500000
 Enter PrismC: JobTyp=21 DoJE=F Cont=F.
 Linear combination for Coulomb/exchange, wScrn=  0.000000
 CW=    0.222036    0.777964
 WU=    0.000000   12.500000
 Enter PrismC: JobTyp=21 DoJE=F Cont=F.
 Linear combination for Coulomb/exchange, wScrn=  0.000000
 CW=    0.222036    0.777964
 WU=    0.000000   12.500000
 Enter PrismC: JobTyp=21 DoJE=F Cont=F.
 Linear combination for Coulomb/exchange, wScrn=  0.000000
 Enter PrismC: JobTyp=21 DoJE=F Cont=F.
 Enter PrismC: JobTyp=21 DoJE=F Cont=F.
 Linear combination for Coulomb/exchange, wScrn=  0.000000
 CW=    0.222036    0.777964
 WU=    0.000000   12.500000
 Enter PrismC: JobTyp=21 DoJE=F Cont=F.
 Linear combination for Coulomb/exchange, wScrn=  0.000000
 CW=    0.222036    0.777964
 WU=    0.000000   12.500000
 Enter PrismC: JobTyp=21 DoJE=F Cont=F.
 Linear combination for Coulomb/exchange, wScrn=  0.000000
 CW=    0.222036    0.777964
 Enter PrismC: JobTyp=21 DoJE=F Cont=F.
 Linear combination for Coulomb/exchange, wScrn=  0.000000
 CW=    0.222036    0.777964
 PrismC was handed    13000946 working-precision words and  4915 shell-pairs
 Enter PrismC: JobTyp=21 DoJE=F Cont=F.
 Linear combination for Coulomb/exchange, wScrn=  0.000000
 CW=    0.222036    0.777964
 WU=    0.000000   12.500000
 Linear combination for Coulomb/exchange, wScrn=  0.000000
 CW=    0.222036    0.777964
 WU=    0.000000   12.500000
 Enter PrismC: JobTyp=21 DoJE=F Cont=F.
 Linear combination for Coulomb/exchange, wScrn=  0.000000
 CW=    0.222036    0.777964
 WU=    0.000000   12.500000
 Enter PrismC: JobTyp=21 DoJE=F Cont=F.
 Linear combination for Coulomb/exchange, wScrn=  0.000000
 CW=    0.222036    0.777964
 WU=    0.000000   12.500000
 PrismC was handed    13000946 working-precision words and  4915 shell-pairs
 Enter PrismC: JobTyp=21 DoJE=F Cont=F.
 Linear combination for Coulomb/exchange, wScrn=  0.000000
 CW=    0.222036    0.777964
 WU=    0.000000   12.500000
 PrismC was handed    13000946 working-precision words and  4915 shell-pairs
 CW=    0.222036    0.777964
 WU=    0.000000   12.500000
 PrismC was handed    13000946 working-precision words and  4915 shell-pairs
 Linear combination for Coulomb/exchange, wScrn=  0.000000
 CW=    0.222036    0.777964
 WU=    0.000000   12.500000
 Enter PrismC: JobTyp=21 DoJE=F Cont=F.
 Linear combination for Coulomb/exchange, wScrn=  0.000000
 CW=    0.222036    0.777964
 WU=    0.000000   12.500000
 PrismC was handed    13000946 working-precision words and  4915 shell-pairs
 PrismC was handed    13000946 working-precision words and  4915 shell-pairs
 WU=    0.000000   12.500000
 PrismC was handed    13000946 working-precision words and  4915 shell-pairs
 Enter PrismC: JobTyp=21 DoJE=F Cont=F.
 Linear combination for Coulomb/exchange, wScrn=  0.000000
 CW=    0.222036    0.777964
 WU=    0.000000   12.500000
 PrismC was handed    13000946 working-precision words and  4915 shell-pairs
 WU=    0.000000   12.500000
 PrismC was handed    13000946 working-precision words and  4915 shell-pairs
 Enter PrismC: JobTyp=21 DoJE=F Cont=F.
 Linear combination for Coulomb/exchange, wScrn=  0.000000
 CW=    0.222036    0.777964
 WU=    0.000000   12.500000
 PrismC was handed    13000946 working-precision words and  4915 shell-pairs
 Enter PrismC: JobTyp=21 DoJE=F Cont=F.
 Linear combination for Coulomb/exchange, wScrn=  0.000000
 CW=    0.222036    0.777964
 WU=    0.000000   12.500000
 PrismC was handed    13000946 working-precision words and  4915 shell-pairs
 Enter PrismC: JobTyp=21 DoJE=F Cont=F.
 PrismC was handed    13000946 working-precision words and  4915 shell-pairs
 PrismC was handed    13000946 working-precision words and  4915 shell-pairs
 PrismC was handed    13000946 working-precision words and  4915 shell-pairs
 CW=    0.222036    0.777964
 WU=    0.000000   12.500000
 PrismC was handed    13000946 working-precision words and  4915 shell-pairs
 PrismC was handed    13000946 working-precision words and  4915 shell-pairs
 Linear combination for Coulomb/exchange, wScrn=  0.000000
 CW=    0.222036    0.777964
 WU=    0.000000   12.500000
 PrismC was handed    13000946 working-precision words and  4915 shell-pairs
 Enter PrismC: JobTyp=21 DoJE=F Cont=F.
 Linear combination for Coulomb/exchange, wScrn=  0.000000
 CW=    0.222036    0.777964
 WU=    0.000000   12.500000
 PrismC was handed    13000946 working-precision words and  4915 shell-pairs
 PrismC was handed    13000946 working-precision words and  4915 shell-pairs
 Enter PrismC: JobTyp=21 DoJE=F Cont=F.
 Linear combination for Coulomb/exchange, wScrn=  0.000000
 CW=    0.222036    0.777964
 WU=    0.000000   12.500000
 PrismC was handed    13000946 working-precision words and  4915 shell-pairs
 Linear combination for Coulomb/exchange, wScrn=  0.000000
 CW=    0.222036    0.777964
 WU=    0.000000   12.500000
 PrismC was handed    13000946 working-precision words and  4915 shell-pairs
 Enter PrismC: JobTyp=21 DoJE=F Cont=F.
 Linear combination for Coulomb/exchange, wScrn=  0.000000
 CW=    0.222036    0.777964
 WU=    0.000000   12.500000
 Enter PrismC: JobTyp=21 DoJE=F Cont=F.
 Linear combination for Coulomb/exchange, wScrn=  0.000000
 CW=    0.222036    0.777964
 WU=    0.000000   12.500000
 PrismC:  IPart=     0 DynPar=T LinDyn=F Incr=        1024 UseFst=F UseS4=T IGathr=2.
 PrismC was handed    13000946 working-precision words and  4915 shell-pairs
 Linear combination for Coulomb/exchange, wScrn=  0.000000
 CW=    0.222036    0.777964
 WU=    0.000000   12.500000
 PrismC was handed    13000946 working-precision words and  4915 shell-pairs
 Enter PrismC: JobTyp=21 DoJE=F Cont=F.
 Linear combination for Coulomb/exchange, wScrn=  0.000000
 CW=    0.222036    0.777964
 WU=    0.000000   12.500000
 Enter PrismC: JobTyp=21 DoJE=F Cont=F.
 Linear combination for Coulomb/exchange, wScrn=  0.000000
 CW=    0.222036    0.777964
 WU=    0.000000   12.500000
 PrismC was handed    13000946 working-precision words and  4915 shell-pairs
 PrismC was handed    13000946 working-precision words and  4915 shell-pairs
 PrismC was handed    13000946 working-precision words and  4915 shell-pairs
 PrismC was handed    13000946 working-precision words and  4915 shell-pairs
 PrismC was handed    13000946 working-precision words and  4915 shell-pairs
 PrismC was handed    13000946 working-precision words and  4915 shell-pairs
 IPart= 30 NShTot=      279965 NShNF=      279965 NShFF=           0 NBatch=        2886 AvBLen=        97.0
 IPart= 22 NShTot=      286598 NShNF=      286598 NShFF=           0 NBatch=        2845 AvBLen=       100.7
 IPart= 24 NShTot=      292400 NShNF=      292400 NShFF=           0 NBatch=        2626 AvBLen=       111.3
 IPart= 16 NShTot=      294771 NShNF=      294771 NShFF=           0 NBatch=        2929 AvBLen=       100.6
 IPart=  8 NShTot=      270585 NShNF=      270585 NShFF=           0 NBatch=        2596 AvBLen=       104.2
 IPart=  6 NShTot=      302719 NShNF=      302719 NShFF=           0 NBatch=        2868 AvBLen=       105.6
 IPart= 29 NShTot=      317478 NShNF=      317478 NShFF=           0 NBatch=        2887 AvBLen=       110.0
 IPart= 14 NShTot=      300255 NShNF=      300255 NShFF=           0 NBatch=        3052 AvBLen=        98.4
 IPart= 20 NShTot=      319734 NShNF=      319734 NShFF=           0 NBatch=        3006 AvBLen=       106.4
 IPart= 10 NShTot=      313249 NShNF=      313249 NShFF=           0 NBatch=        2812 AvBLen=       111.4
 IPart=  9 NShTot=      280140 NShNF=      280140 NShFF=           0 NBatch=        2954 AvBLen=        94.8
 IPart=  0 NShTot=      319432 NShNF=      319432 NShFF=           0 NBatch=        2806 AvBLen=       113.8
 IPart=  4 NShTot=      334181 NShNF=      334181 NShFF=           0 NBatch=        2897 AvBLen=       115.4
 IPart=  1 NShTot=      291128 NShNF=      291128 NShFF=           0 NBatch=        2755 AvBLen=       105.7
 IPart= 18 NShTot=      315710 NShNF=      315710 NShFF=           0 NBatch=        2776 AvBLen=       113.7
 IPart= 19 NShTot=      320404 NShNF=      320404 NShFF=           0 NBatch=        2972 AvBLen=       107.8
 IPart=  7 NShTot=      312148 NShNF=      312148 NShFF=           0 NBatch=        2769 AvBLen=       112.7
 IPart= 12 NShTot=      325894 NShNF=      325894 NShFF=           0 NBatch=        2843 AvBLen=       114.6
 IPart= 28 NShTot=      308199 NShNF=      308199 NShFF=           0 NBatch=        2786 AvBLen=       110.6
 IPart= 26 NShTot=      296446 NShNF=      296446 NShFF=           0 NBatch=        2739 AvBLen=       108.2
 IPart=  3 NShTot=      296610 NShNF=      296610 NShFF=           0 NBatch=        2883 AvBLen=       102.9
 IPart= 13 NShTot=      311762 NShNF=      311762 NShFF=           0 NBatch=        2957 AvBLen=       105.4
 IPart= 11 NShTot=      324142 NShNF=      324142 NShFF=           0 NBatch=        2858 AvBLen=       113.4
 IPart= 23 NShTot=      328290 NShNF=      328290 NShFF=           0 NBatch=        3142 AvBLen=       104.5
 IPart= 31 NShTot=      300541 NShNF=      300541 NShFF=           0 NBatch=        2903 AvBLen=       103.5
 IPart=  5 NShTot=      294174 NShNF=      294174 NShFF=           0 NBatch=        2903 AvBLen=       101.3
 IPart= 27 NShTot=      338549 NShNF=      338549 NShFF=           0 NBatch=        3022 AvBLen=       112.0
 IPart= 15 NShTot=      302722 NShNF=      302722 NShFF=           0 NBatch=        2945 AvBLen=       102.8
 IPart= 21 NShTot=      321470 NShNF=      321470 NShFF=           0 NBatch=        2836 AvBLen=       113.4
 IPart= 17 NShTot=      295968 NShNF=      295968 NShFF=           0 NBatch=        2794 AvBLen=       105.9
 IPart= 25 NShTot=      330552 NShNF=      330552 NShFF=           0 NBatch=        2988 AvBLen=       110.6
 IPart=  2 NShTot=      306675 NShNF=      306675 NShFF=           0 NBatch=        2865 AvBLen=       107.0
 CoulSu:  NxtVal=       13080577.
 ReadGW:  IGet=0 IStart=           1 Next=           1 LGW=           0.
 Remaining memory in FofDFT      399.83 Mw
 CkSvGd:  ISavGI=        -1 IRadAn=       5 IRASav=       5 ISavGd=        -1.
 CalDSu:  NPrtUS=  32 ThrOK=T IAlg=1 NPAlg=2 DoDPD=T LenP=       45150 LenD1P=             0.
 IPart=  0 IRanGd=          0 ScrnBf=T ScrnGd=T RCrit=4.00D+00 DoMicB=T.
 IPart= 28         6905 of         8746 points in      13 batches and       50 microbatches, Max-NSigAt=      12 Max-NSgAt2=      12
 IPart= 26         6547 of         8096 points in      13 batches and       49 microbatches, Max-NSigAt=      12 Max-NSgAt2=      12
 IPart=  0         6834 of         7678 points in      12 batches and       51 microbatches, Max-NSigAt=      12 Max-NSgAt2=      12
 IPart= 10         6367 of         7452 points in      12 batches and       45 microbatches, Max-NSigAt=      12 Max-NSgAt2=      12
 IPart= 22         8416 of         9104 points in      13 batches and       52 microbatches, Max-NSigAt=      12 Max-NSgAt2=      12
 IPart=  2         6725 of         7838 points in      12 batches and       72 microbatches, Max-NSigAt=      12 Max-NSgAt2=      12
 IPart= 15         9964 of        10984 points in      16 batches and       41 microbatches, Max-NSigAt=      12 Max-NSgAt2=      12
 IPart= 23         7956 of         9284 points in      14 batches and       50 microbatches, Max-NSigAt=      12 Max-NSgAt2=      12
 IPart= 31         7078 of         8722 points in      13 batches and       55 microbatches, Max-NSigAt=      12 Max-NSgAt2=      12
 IPart=  5         7872 of         8392 points in      13 batches and       32 microbatches, Max-NSigAt=      12 Max-NSgAt2=      12
 IPart=  3         8433 of         9964 points in      15 batches and       46 microbatches, Max-NSigAt=      12 Max-NSgAt2=      12
 IPart= 14         8736 of         8970 points in      13 batches and       25 microbatches, Max-NSigAt=      12 Max-NSgAt2=      12
 IPart= 12         9843 of        12576 points in      19 batches and       55 microbatches, Max-NSigAt=      12 Max-NSgAt2=      12
 IPart= 11         8612 of        10590 points in      16 batches and       45 microbatches, Max-NSigAt=      12 Max-NSgAt2=      12
 IPart= 17         7308 of         7726 points in      12 batches and       36 microbatches, Max-NSigAt=      12 Max-NSgAt2=      12
 IPart= 20         7383 of         7790 points in      12 batches and       40 microbatches, Max-NSigAt=      12 Max-NSgAt2=      12
 IPart= 19        10693 of        13290 points in      20 batches and       54 microbatches, Max-NSigAt=      12 Max-NSgAt2=      12
 IPart= 30         7715 of         8312 points in      13 batches and       48 microbatches, Max-NSigAt=      12 Max-NSgAt2=      12
 IPart= 24         7948 of         9016 points in      13 batches and       57 microbatches, Max-NSigAt=      12 Max-NSgAt2=      12
 IPart=  7         7077 of         8380 points in      13 batches and       53 microbatches, Max-NSigAt=      12 Max-NSgAt2=      12
 IPart= 18         6562 of         7294 points in      12 batches and       60 microbatches, Max-NSigAt=      12 Max-NSgAt2=      12
 IPart= 16         7466 of         8344 points in      14 batches and       69 microbatches, Max-NSigAt=      12 Max-NSgAt2=      12
 IPart=  6         7788 of         9128 points in      13 batches and       51 microbatches, Max-NSigAt=      12 Max-NSgAt2=      12
 IPart= 29         7246 of         7740 points in      12 batches and       42 microbatches, Max-NSigAt=      12 Max-NSgAt2=      12
 IPart= 27         6520 of         7108 points in      12 batches and       49 microbatches, Max-NSigAt=      12 Max-NSgAt2=      12
 IPart=  8         7502 of         8092 points in      13 batches and       52 microbatches, Max-NSigAt=      12 Max-NSgAt2=      12
 IPart=  1         6949 of         7080 points in      12 batches and       26 microbatches, Max-NSigAt=      12 Max-NSgAt2=      12
 IPart=  4         6888 of         7080 points in      12 batches and       30 microbatches, Max-NSigAt=      12 Max-NSgAt2=      12
 IPart= 21         6422 of         7108 points in      12 batches and       47 microbatches, Max-NSigAt=      12 Max-NSgAt2=      12
 IPart= 13         6778 of         7520 points in      11 batches and       48 microbatches, Max-NSigAt=      12 Max-NSgAt2=      12
 IPart= 25         6250 of         8208 points in      13 batches and       58 microbatches, Max-NSigAt=      12 Max-NSgAt2=      12
 IPart=  9         6379 of         6834 points in      11 batches and       40 microbatches, Max-NSigAt=      12 Max-NSgAt2=      12
 Forces at end of L703
 I=    0 X=  -4.839085132042D-01 Y=   1.488464307740D-01 Z=  -1.714159334846D-01
 I=    1 X=   2.497499854268D-02 Y=   5.893170267003D-02 Z=   2.633209780835D-02
 I=    2 X=  -3.668893544972D-06 Y=   5.700290065525D-06 Z=   1.853117783490D-05
 I=    3 X=   3.942328762108D-06 Y=   5.471426970993D-06 Z=   8.297644593203D-06
 I=    4 X=   7.657963375429D-06 Y=   1.807247470875D-05 Z=  -8.254131913521D-07
 I=    5 X=   2.812111177253D-06 Y=  -7.030730472146D-06 Z=  -1.232394917983D-05
 I=    6 X=  -2.499860318053D-02 Y=  -5.904588128772D-02 Z=  -2.637438312621D-02
 I=    7 X=  -1.821227820215D-05 Y=   7.839636799956D-06 Z=   3.444609348113D-05
 I=    8 X=   2.781079238012D-06 Y=   4.916209740657D-05 Z=   7.226634357149D-06
 I=    9 X=   1.097015125184D-05 Y=   2.489083621171D-05 Z=   4.669027229287D-06
 I=   10 X=   1.090952230287D-05 Y=   5.255103245894D-07 Z=  -4.172346363740D-06
 I=   11 X=   1.780456735156D-06 Y=   3.838909056864D-06 Z=  -2.083812115972D-06
 I=   12 X=   4.632196782151D-06 Y=   5.708166635587D-06 Z=  -1.147973877202D-05
 FrcOut:
 IF    =    61 IFX   =    97 IFXYZ =   133
 IFFX  =   169 IFFFX =   169 IFLen =    36
 IFFLen=     0 IFFFLn=     0 IEDerv=   169
 LEDerv=  1781 IFroze=  2356 ICStrt=146681
 -------------------------------------------------------------------
 Center     Atomic                   Forces (Hartrees/Bohr)
 Number     Number              X              Y              Z
 -------------------------------------------------------------------
      1        6          -0.024974999   -0.058931703   -0.026332098
      2        8           0.000003669   -0.000005700   -0.000018531
      3        1          -0.000003942   -0.000005471   -0.000008298
      4        1          -0.000007658   -0.000018072    0.000000825
      5        1          -0.000002812    0.000007031    0.000012324
      6        6           0.024998603    0.059045881    0.026374383
      7        6           0.000018212   -0.000007840   -0.000034446
      8        1          -0.000002781   -0.000049162   -0.000007227
      9        1          -0.000010970   -0.000024891   -0.000004669
     10        1          -0.000010910   -0.000000526    0.000004172
     11        1          -0.000001780   -0.000003839    0.000002084
     12        1          -0.000004632   -0.000005708    0.000011480
 -------------------------------------------------------------------
 Cartesian Forces:  Max     0.059045881 RMS     0.016327411
 From PutF, contents of force:
   1   -0.6207228655D-05
   2   -0.8014254164D-06
   3   -0.8090940230D-05
   4    0.7220107503D-05
   5    0.1872159974D-04
   6    0.6113173717D-05
   7    0.1902973877D-04
   8   -0.3271119286D-04
   9    0.1546782355D-04
  10    0.1468596400D-05
  11    0.8295224084D-05
  12    0.2479406304D-05
  13   -0.2687950402D-05
  14   -0.8728389230D-05
  15   -0.9883988786D-05
  16   -0.1389360760D-04
  17   -0.1231711881D-04
  18   -0.3162547208D-05
  19   -0.1955828560D-04
  20   -0.4697031528D-04
  21   -0.6828863117D-05
  22    0.8489890337D-05
  23   -0.1432612738D-04
  24    0.8382585296D-05
  25    0.2446395653D-04
  26   -0.1160868490D-04
  27    0.2043385889D-04
  28   -0.3166236827D-05
  29    0.2769867712D-04
  30   -0.6923836707D-01
 -----------------------------------------------------------------------------------------------
                       Internal Coordinate Forces (Hartree/Bohr or radian)
  Cent   Atom   N1       Length/X         N2         Alpha/Y        N3         Beta/Z          J
 -----------------------------------------------------------------------------------------------
      1  C 
      2  O        1  -0.000006(     1)
      3  H        1  -0.000001(     2)      2   0.000019(    12)
      4  H        1  -0.000008(     3)      2   0.000006(    13)      3  -0.000033(    22)     0
      5  H        2   0.000007(     4)      1   0.000019(    14)      3  -0.000012(    23)     0
      6  C        1  -0.069238(     5)      2   0.000028(    15)      3  -0.000003(    24)     0
      7  C        6   0.000015(     6)      1  -0.000014(    16)      2   0.000008(    25)     0
      8  H        6   0.000001(     7)      7  -0.000010(    17)      1   0.000024(    26)     0
      9  H        6   0.000008(     8)      7  -0.000014(    18)      8  -0.000047(    27)     0
     10  H        7   0.000002(     9)      6  -0.000012(    19)      8   0.000020(    28)     0
     11  H        7  -0.000003(    10)      6  -0.000003(    20)     10  -0.000007(    29)     0
     12  H        7  -0.000009(    11)      6  -0.000020(    21)     10   0.000008(    30)     0
 -----------------------------------------------------------------------------------------------
 Internal  Forces:  Max     0.069238367 RMS     0.012641149
 Final forces over variables, Energy=-1.94292455D+02:
 -6.20722866D-06-8.01425416D-07-8.09094023D-06 7.22010750D-06
  1.87215997D-05 6.11317372D-06 1.90297388D-05-3.27111929D-05
  1.54678235D-05 1.46859640D-06 8.29522408D-06 2.47940630D-06
 -2.68795040D-06-8.72838923D-06-9.88398879D-06-1.38936076D-05
 -1.23171188D-05-3.16254721D-06-1.95582856D-05-4.69703153D-05
 -6.82886312D-06 8.48989034D-06-1.43261274D-05 8.38258530D-06
  2.44639565D-05-1.16086849D-05 2.04338589D-05-3.16623683D-06
  2.76986771D-05-6.92383671D-02

 GradGradGradGradGradGradGradGradGradGradGradGradGradGradGradGradGradGrad
 Berny optimization.
 Search for a local minimum.
 Step number   6 out of a maximum of   50
 All quantities printed in internal units (Hartrees-Bohrs-Radians)
 Update second derivatives using D2CorN and points    1    2    3    4    5
                                                          6
 DE= -5.45D-07 DEPred=-4.45D-07 R= 1.22D+00
 Trust test= 1.22D+00 RLast= 6.52D-03 DXMaxT set to 3.00D-01
 ITU=  0  1  1  1  1  0
     Eigenvalues ---    0.01358   0.02288   0.03934   0.06276   0.08462
     Eigenvalues ---    0.11691   0.13485   0.13838   0.15356   0.16020
     Eigenvalues ---    0.24369   0.26891   0.28781   0.31653   0.34421
     Eigenvalues ---    0.34468   0.34680   0.34727   0.34754   0.35066
     Eigenvalues ---    0.35256   0.35440   0.38112   0.39208   0.39364
     Eigenvalues ---    0.39757   0.39825   0.48129   0.561881000.00000
 RFO step:  Lambda=-5.66459480D-08 EMin= 1.35839207D-02
 Quartic linear search produced a step of  0.19466.
 Variable       Old X    -DE/DX   Delta X   Delta X   Delta X     New X
                                 (Linear)    (Quad)   (Total)
    R1        2.58974  -0.00001  -0.00000   0.00001   0.00001   2.58975
    R2        2.04573  -0.00000   0.00000   0.00000   0.00000   2.04574
    R3        2.05595  -0.00001   0.00000  -0.00002  -0.00002   2.05593
    R4        1.80810   0.00001  -0.00001   0.00002   0.00001   1.80811
    A2        1.92699   0.00002  -0.00003   0.00014   0.00012   1.92710
    A3        2.01888   0.00001   0.00000  -0.00000   0.00000   2.01888
    A4        1.90895   0.00002  -0.00006   0.00019   0.00013   1.90908
    D3        3.99482  -0.00003   0.00012  -0.00026  -0.00014   3.99468
   R21        2.83647   0.00002   0.00004   0.00003   0.00007   2.83654
   R22        2.05197   0.00000   0.00000   0.00001   0.00001   2.05198
   R23        2.04956   0.00001   0.00000   0.00003   0.00003   2.04959
   R24        2.06850   0.00000   0.00000   0.00000   0.00000   2.06850
   R25        2.06151  -0.00000  -0.00001   0.00000  -0.00001   2.06151
   R26        2.06090  -0.00001  -0.00000  -0.00003  -0.00003   2.06087
   A22        2.01203  -0.00001   0.00000  -0.00006  -0.00006   2.01197
   A23        2.01948  -0.00001  -0.00008  -0.00011  -0.00019   2.01929
   A24        1.94538  -0.00001  -0.00001  -0.00006  -0.00007   1.94531
   A25        1.94558  -0.00000  -0.00002   0.00003   0.00001   1.94559
   A26        1.94428  -0.00002   0.00001  -0.00007  -0.00006   1.94422
   D23        2.32889  -0.00005  -0.00021  -0.00041  -0.00061   2.32828
   D25        2.08938  -0.00001  -0.00002  -0.00003  -0.00005   2.08933
   D26        4.19370   0.00001  -0.00001   0.00003   0.00001   4.19372
   ANG2       1.88238  -0.00001  -0.00016   0.00017   0.00001   1.88238
   DH2        3.15250   0.00001  -0.00030   0.00029  -0.00001   3.15249
   DH3        1.98323   0.00002   0.00015   0.00032   0.00046   1.98370
    D4        3.06826  -0.00001  -0.00116   0.00028  -0.00089   3.06738
   D24        5.13044   0.00002   0.00013   0.00049   0.00061   5.13106
   DH1        1.97175  -0.00000   0.00006  -0.00008  -0.00002   1.97173
   ANG1       1.96119   0.00003   0.00016  -0.00008   0.00008   1.96127
    BB        4.15740  -0.06924   0.00000   0.00000   0.00000   4.15740
         Item               Value     Threshold  Converged?
 Maximum Force            0.000047     0.000450     YES
 RMS     Force            0.000016     0.000300     YES
 Maximum Displacement     0.000887     0.001800     YES
 RMS     Displacement     0.000250     0.001200     YES
 Predicted change in Energy=-3.868046D-08
 Optimization completed.
    -- Stationary point found.
                       ----------------------------
                       !   Optimized Parameters   !
                       ! (Angstroms and Degrees)  !
 ----------------------                            ----------------------
 !      Name          Value   Derivative information (Atomic Units)     !
 ------------------------------------------------------------------------
 !       R1          1.3704   -DE/DX =    0.0                           !
 !       R2          1.0826   -DE/DX =    0.0                           !
 !       R3          1.088    -DE/DX =    0.0                           !
 !       R4          0.9568   -DE/DX =    0.0                           !
 !       A2        110.4083   -DE/DX =    0.0                           !
 !       A3        115.6731   -DE/DX =    0.0                           !
 !       A4        109.375    -DE/DX =    0.0                           !
 !       D3        228.8863   -DE/DX =    0.0                           !
 !       R21         1.501    -DE/DX =    0.0                           !
 !       R22         1.0859   -DE/DX =    0.0                           !
 !       R23         1.0846   -DE/DX =    0.0                           !
 !       R24         1.0946   -DE/DX =    0.0                           !
 !       R25         1.0909   -DE/DX =    0.0                           !
 !       R26         1.0906   -DE/DX =    0.0                           !
 !       A22       115.2806   -DE/DX =    0.0                           !
 !       A23       115.7079   -DE/DX =    0.0                           !
 !       A24       111.4622   -DE/DX =    0.0                           !
 !       A25       111.4737   -DE/DX =    0.0                           !
 !       A26       111.3992   -DE/DX =    0.0                           !
 !       D23       133.4357   -DE/DX =    0.0                           !
 !       D25       119.7126   -DE/DX =    0.0                           !
 !       D26       240.2816   -DE/DX =    0.0                           !
 !      ANG2       107.8522   -DE/DX =    0.0                           !
 !       DH2       180.6249   -DE/DX =    0.0                           !
 !       DH3       113.6308   -DE/DX =    0.0                           !
 !       D4        175.7986   -DE/DX =    0.0                           !
 !       D24       293.9528   -DE/DX =    0.0                           !
 !       DH1       112.9728   -DE/DX =    0.0                           !
 !      ANG1       112.3679   -DE/DX =    0.0                           !
 !       BB          2.2      -DE/DX =   -0.0692                        !
 ------------------------------------------------------------------------
 GradGradGradGradGradGradGradGradGradGradGradGradGradGradGradGradGradGrad

 ---------------------------------------------------------------------------------------------------
                            Z-MATRIX (ANGSTROMS AND DEGREES)
   CD    Cent   Atom    N1       Length/X        N2       Alpha/Y        N3        Beta/Z          J
 ---------------------------------------------------------------------------------------------------
      1      1  C 
      2      2  O        1   1.370432(     1)
      3      3  H        1   1.082556(     2)      2  110.408(    12)
      4      4  H        1   1.087963(     3)      2  115.673(    13)      3  228.886(    22)      0
      5      5  H        2   0.956805(     4)      1  109.375(    14)      3  175.799(    23)      0
      6      6  C        1   2.200000(     5)      2  112.368(    15)      3  112.973(    24)      0
      7      7  C        6   1.500997(     6)      1  107.852(    16)      2  180.625(    25)      0
      8      8  H        6   1.085854(     7)      7  115.281(    17)      1  113.631(    26)      0
      9      9  H        6   1.084580(     8)      7  115.708(    18)      8  133.436(    27)      0
     10     10  H        7   1.094601(     9)      6  111.462(    19)      8  293.953(    28)      0
     11     11  H        7   1.090906(    10)      6  111.474(    20)     10  119.713(    29)      0
     12     12  H        7   1.090580(    11)      6  111.399(    21)     10  240.282(    30)      0
 ---------------------------------------------------------------------------------------------------
                         Z-Matrix orientation:                         
 ---------------------------------------------------------------------
 Center     Atomic      Atomic             Coordinates (Angstroms)
 Number     Number       Type             X           Y           Z
 ---------------------------------------------------------------------
      1          6           0        0.000000    0.000000    0.000000
      2          8           0        0.000000    0.000000    1.370432
      3          1           0        1.014605    0.000000   -0.377495
      4          1           0       -0.644772    0.738760   -0.471344
      5          1           0       -0.900193    0.066129    1.687851
      6          6           0       -0.794041   -1.873118   -0.837215
      7          6           0       -0.733584   -1.770426   -2.333474
      8          1           0       -1.793740   -1.911062   -0.415028
      9          1           0       -0.135222   -2.608982   -0.389137
     10          1           0       -1.122199   -2.674415   -2.812988
     11          1           0       -1.325927   -0.931045   -2.700416
     12          1           0        0.290912   -1.635038   -2.681959
 ---------------------------------------------------------------------
                    Distance matrix (angstroms):
                    1          2          3          4          5
     1  C    0.000000
     2  O    1.370432   0.000000
     3  H    1.082556   2.021058   0.000000
     4  H    1.087963   2.086537   1.818820   0.000000
     5  H    1.914043   0.956805   2.817176   2.275917   0.000000
     6  C    2.200000   3.002129   2.644072   2.641599   3.185578
     7  C    3.019545   4.170309   3.164874   3.125928   4.423997
     8  H    2.653660   3.171361   3.397112   2.888747   3.021558
     9  H    2.641306   3.149786   2.851144   3.387296   3.472071
    10  H    4.040387   5.090465   4.201197   4.166653   5.274222
    11  H    3.149154   4.381408   3.426499   2.867225   4.520232
    12  H    3.154502   4.379481   2.916785   3.375980   4.838176
                    6          7          8          9         10
     6  C    0.000000
     7  C    1.500997   0.000000
     8  H    1.085854   2.196394   0.000000
     9  H    1.084580   2.200378   1.799568   0.000000
    10  H    2.157184   1.094601   2.604590   2.617911   0.000000
    11  H    2.154511   1.090906   2.530273   3.094392   1.758840
    12  H    2.153343   1.090580   3.092077   2.527290   1.759079
                   11         12
    11  H    0.000000
    12  H    1.763552   0.000000
 Symmetry turned off by external request.
 Stoichiometry    C3H8O
 Framework group  C1[X(C3H8O)]
 Deg. of freedom    30
 Full point group                 C1      NOp   1
 Rotational constants (GHZ):     20.9993811      2.9610522      2.7516599

 **********************************************************************

            Population analysis using the SCF density.

 **********************************************************************

 Alpha  occ. eigenvalues --  -19.27339 -10.35185 -10.29245 -10.27265  -1.15030
 Alpha  occ. eigenvalues --   -0.84595  -0.76229  -0.68849  -0.60925  -0.53854
 Alpha  occ. eigenvalues --   -0.52063  -0.49475  -0.47656  -0.45247  -0.42768
 Alpha  occ. eigenvalues --   -0.42041  -0.29071
 Alpha virt. eigenvalues --    0.05484   0.05913   0.06133   0.07597   0.08698
 Alpha virt. eigenvalues --    0.09138   0.10209   0.10547   0.11225   0.11710
 Alpha virt. eigenvalues --    0.14834   0.16439   0.17247   0.18520   0.20183
 Alpha virt. eigenvalues --    0.21079   0.22115   0.23765   0.25158   0.25658
 Alpha virt. eigenvalues --    0.25976   0.26791   0.27957   0.28947   0.30383
 Alpha virt. eigenvalues --    0.30623   0.31475   0.32066   0.33287   0.34151
 Alpha virt. eigenvalues --    0.34968   0.35413   0.36782   0.38171   0.41514
 Alpha virt. eigenvalues --    0.42042   0.45019   0.45817   0.46246   0.47980
 Alpha virt. eigenvalues --    0.50994   0.52556   0.55056   0.55600   0.58715
 Alpha virt. eigenvalues --    0.59723   0.60844   0.62581   0.64262   0.66007
 Alpha virt. eigenvalues --    0.66421   0.67103   0.70196   0.70976   0.71315
 Alpha virt. eigenvalues --    0.71924   0.73882   0.74792   0.76693   0.78506
 Alpha virt. eigenvalues --    0.79930   0.81579   0.83681   0.87184   0.88085
 Alpha virt. eigenvalues --    0.89561   0.91183   0.93236   0.95162   0.98627
 Alpha virt. eigenvalues --    0.99383   1.00740   1.02771   1.04023   1.08114
 Alpha virt. eigenvalues --    1.12874   1.14294   1.16160   1.17352   1.19609
 Alpha virt. eigenvalues --    1.21473   1.22964   1.23970   1.24645   1.26806
 Alpha virt. eigenvalues --    1.28330   1.30083   1.34555   1.36365   1.39067
 Alpha virt. eigenvalues --    1.40167   1.41736   1.41811   1.46315   1.49370
 Alpha virt. eigenvalues --    1.49841   1.51549   1.52332   1.53118   1.54813
 Alpha virt. eigenvalues --    1.55598   1.60565   1.63256   1.66950   1.68432
 Alpha virt. eigenvalues --    1.74230   1.75066   1.75876   1.84758   1.88691
 Alpha virt. eigenvalues --    2.03905   2.13492   2.16105   2.25635   2.25814
 Alpha virt. eigenvalues --    2.38103   2.51687   2.53839   2.55137   2.57995
 Alpha virt. eigenvalues --    2.59536   2.61441   2.65797   2.66594   2.69865
 Alpha virt. eigenvalues --    2.73777   2.75778   2.77421   2.84214   2.87983
 Alpha virt. eigenvalues --    2.88990   2.93982   2.95057   2.96646   2.98715
 Alpha virt. eigenvalues --    3.00446   3.04535   3.04711   3.07490   3.11529
 Alpha virt. eigenvalues --    3.12302   3.13150   3.14070   3.16642   3.17332
 Alpha virt. eigenvalues --    3.18621   3.20987   3.22277   3.24892   3.28501
 Alpha virt. eigenvalues --    3.28637   3.30558   3.35513   3.37676   3.41023
 Alpha virt. eigenvalues --    3.42296   3.44040   3.46105   3.47949   3.50089
 Alpha virt. eigenvalues --    3.52300   3.54438   3.58959   3.60906   3.64560
 Alpha virt. eigenvalues --    3.66911   3.67943   3.69451   3.75655   3.77523
 Alpha virt. eigenvalues --    3.79705   3.82988   3.85216   3.87339   3.91431
 Alpha virt. eigenvalues --    3.96798   3.97432   3.99251   4.00976   4.02801
 Alpha virt. eigenvalues --    4.04705   4.04985   4.05768   4.08627   4.10823
 Alpha virt. eigenvalues --    4.11336   4.14247   4.17478   4.19626   4.22214
 Alpha virt. eigenvalues --    4.24482   4.24492   4.30909   4.32077   4.33686
 Alpha virt. eigenvalues --    4.35121   4.39709   4.41299   4.43030   4.46226
 Alpha virt. eigenvalues --    4.50915   4.53111   4.59563   4.64874   4.70833
 Alpha virt. eigenvalues --    4.76465   4.83627   4.86338   4.92842   4.94802
 Alpha virt. eigenvalues --    4.97187   4.97793   4.98255   5.01399   5.05571
 Alpha virt. eigenvalues --    5.08632   5.10740   5.17197   5.21452   5.22004
 Alpha virt. eigenvalues --    5.26967   5.32052   5.35888   5.38286   5.45349
 Alpha virt. eigenvalues --    5.47530   5.49277   5.50520   5.60964   5.64635
 Alpha virt. eigenvalues --    5.69375   5.72898   5.98402   6.05465   6.13918
 Alpha virt. eigenvalues --    6.15609   6.18286   6.21463   6.55872   6.67203
 Alpha virt. eigenvalues --    6.78654   6.83696   6.89773   6.99556   7.14346
 Alpha virt. eigenvalues --    7.36935   7.65514  12.68732  12.98496  13.12565
 Alpha virt. eigenvalues --   13.82568
  Beta  occ. eigenvalues --  -19.27339 -10.35185 -10.29245 -10.27265  -1.15030
  Beta  occ. eigenvalues --   -0.84595  -0.76229  -0.68849  -0.60925  -0.53854
  Beta  occ. eigenvalues --   -0.52063  -0.49475  -0.47656  -0.45247  -0.42768
  Beta  occ. eigenvalues --   -0.42041  -0.29071
  Beta virt. eigenvalues --    0.05484   0.05913   0.06133   0.07597   0.08698
  Beta virt. eigenvalues --    0.09138   0.10209   0.10547   0.11225   0.11710
  Beta virt. eigenvalues --    0.14834   0.16439   0.17247   0.18520   0.20183
  Beta virt. eigenvalues --    0.21079   0.22115   0.23765   0.25158   0.25658
  Beta virt. eigenvalues --    0.25976   0.26791   0.27957   0.28947   0.30383
  Beta virt. eigenvalues --    0.30623   0.31475   0.32066   0.33287   0.34151
  Beta virt. eigenvalues --    0.34968   0.35413   0.36782   0.38171   0.41514
  Beta virt. eigenvalues --    0.42042   0.45019   0.45817   0.46246   0.47980
  Beta virt. eigenvalues --    0.50994   0.52556   0.55056   0.55600   0.58715
  Beta virt. eigenvalues --    0.59723   0.60844   0.62581   0.64262   0.66007
  Beta virt. eigenvalues --    0.66421   0.67103   0.70196   0.70976   0.71315
  Beta virt. eigenvalues --    0.71924   0.73882   0.74792   0.76693   0.78506
  Beta virt. eigenvalues --    0.79930   0.81579   0.83681   0.87184   0.88085
  Beta virt. eigenvalues --    0.89561   0.91183   0.93236   0.95162   0.98627
  Beta virt. eigenvalues --    0.99383   1.00740   1.02771   1.04023   1.08114
  Beta virt. eigenvalues --    1.12874   1.14294   1.16160   1.17352   1.19609
  Beta virt. eigenvalues --    1.21473   1.22964   1.23970   1.24645   1.26806
  Beta virt. eigenvalues --    1.28330   1.30083   1.34555   1.36365   1.39067
  Beta virt. eigenvalues --    1.40167   1.41736   1.41811   1.46315   1.49370
  Beta virt. eigenvalues --    1.49841   1.51549   1.52332   1.53118   1.54813
  Beta virt. eigenvalues --    1.55598   1.60565   1.63256   1.66950   1.68432
  Beta virt. eigenvalues --    1.74230   1.75066   1.75876   1.84758   1.88691
  Beta virt. eigenvalues --    2.03905   2.13492   2.16105   2.25635   2.25814
  Beta virt. eigenvalues --    2.38103   2.51687   2.53839   2.55137   2.57995
  Beta virt. eigenvalues --    2.59536   2.61441   2.65797   2.66594   2.69865
  Beta virt. eigenvalues --    2.73777   2.75778   2.77421   2.84214   2.87983
  Beta virt. eigenvalues --    2.88990   2.93982   2.95057   2.96646   2.98715
  Beta virt. eigenvalues --    3.00446   3.04535   3.04711   3.07490   3.11529
  Beta virt. eigenvalues --    3.12302   3.13150   3.14070   3.16642   3.17332
  Beta virt. eigenvalues --    3.18621   3.20987   3.22277   3.24892   3.28501
  Beta virt. eigenvalues --    3.28637   3.30558   3.35513   3.37676   3.41023
  Beta virt. eigenvalues --    3.42296   3.44040   3.46105   3.47949   3.50089
  Beta virt. eigenvalues --    3.52300   3.54438   3.58959   3.60906   3.64560
  Beta virt. eigenvalues --    3.66911   3.67943   3.69451   3.75655   3.77523
  Beta virt. eigenvalues --    3.79705   3.82988   3.85216   3.87339   3.91431
  Beta virt. eigenvalues --    3.96798   3.97432   3.99251   4.00976   4.02801
  Beta virt. eigenvalues --    4.04705   4.04985   4.05768   4.08627   4.10823
  Beta virt. eigenvalues --    4.11336   4.14247   4.17478   4.19626   4.22214
  Beta virt. eigenvalues --    4.24482   4.24492   4.30909   4.32077   4.33686
  Beta virt. eigenvalues --    4.35121   4.39709   4.41299   4.43030   4.46226
  Beta virt. eigenvalues --    4.50915   4.53111   4.59563   4.64874   4.70833
  Beta virt. eigenvalues --    4.76465   4.83627   4.86338   4.92842   4.94802
  Beta virt. eigenvalues --    4.97187   4.97793   4.98255   5.01399   5.05571
  Beta virt. eigenvalues --    5.08632   5.10740   5.17197   5.21452   5.22004
  Beta virt. eigenvalues --    5.26967   5.32052   5.35888   5.38286   5.45349
  Beta virt. eigenvalues --    5.47530   5.49277   5.50520   5.60964   5.64635
  Beta virt. eigenvalues --    5.69375   5.72898   5.98402   6.05465   6.13918
  Beta virt. eigenvalues --    6.15609   6.18286   6.21463   6.55872   6.67203
  Beta virt. eigenvalues --    6.78654   6.83696   6.89773   6.99556   7.14346
  Beta virt. eigenvalues --    7.36935   7.65514  12.68732  12.98496  13.12565
  Beta virt. eigenvalues --   13.82568
          Condensed to atoms (all electrons):
               1          2          3          4          5          6
     1  C    4.915081   0.156711   0.420736   0.414188   0.013787   0.321636
     2  O    0.156711   8.038517  -0.054033  -0.037168   0.201952  -0.016701
     3  H    0.420736  -0.054033   0.495668  -0.019699   0.007465  -0.018980
     4  H    0.414188  -0.037168  -0.019699   0.495495  -0.009399  -0.019913
     5  H    0.013787   0.201952   0.007465  -0.009399   0.624091  -0.009657
     6  C    0.321636  -0.016701  -0.018980  -0.019913  -0.009657   5.195976
     7  C   -0.029261   0.000701   0.005621   0.004416   0.001792   0.258390
     8  H   -0.010129   0.001096   0.001198  -0.000441   0.000490   0.408971
     9  H   -0.010596   0.003055  -0.000073   0.001312   0.000986   0.421247
    10  H    0.007403  -0.000349  -0.000240  -0.000254  -0.000032  -0.042328
    11  H   -0.005587  -0.000134   0.000591   0.000604   0.000056  -0.025833
    12  H   -0.004838   0.000055   0.000344   0.000480   0.000003  -0.028702
               7          8          9         10         11         12
     1  C   -0.029261  -0.010129  -0.010596   0.007403  -0.005587  -0.004838
     2  O    0.000701   0.001096   0.003055  -0.000349  -0.000134   0.000055
     3  H    0.005621   0.001198  -0.000073  -0.000240   0.000591   0.000344
     4  H    0.004416  -0.000441   0.001312  -0.000254   0.000604   0.000480
     5  H    0.001792   0.000490   0.000986  -0.000032   0.000056   0.000003
     6  C    0.258390   0.408971   0.421247  -0.042328  -0.025833  -0.028702
     7  C    5.010295  -0.024436  -0.029029   0.403973   0.411440   0.413682
     8  H   -0.024436   0.470667  -0.019966  -0.005373  -0.003994   0.004073
     9  H   -0.029029  -0.019966   0.460748  -0.004522   0.003653  -0.004343
    10  H    0.403973  -0.005373  -0.004522   0.497109  -0.015874  -0.016144
    11  H    0.411440  -0.003994   0.003653  -0.015874   0.493624  -0.018750
    12  H    0.413682   0.004073  -0.004343  -0.016144  -0.018750   0.492070
          Atomic-Atomic Spin Densities.
               1          2          3          4          5          6
     1  C   -0.000000   0.000000   0.000000   0.000000  -0.000000  -0.000000
     2  O    0.000000  -0.000000   0.000000  -0.000000   0.000000   0.000000
     3  H    0.000000   0.000000  -0.000000  -0.000000  -0.000000   0.000000
     4  H    0.000000  -0.000000  -0.000000  -0.000000   0.000000  -0.000000
     5  H   -0.000000   0.000000  -0.000000   0.000000  -0.000000  -0.000000
     6  C   -0.000000   0.000000   0.000000  -0.000000  -0.000000   0.000000
     7  C    0.000000  -0.000000  -0.000000   0.000000  -0.000000  -0.000000
     8  H    0.000000  -0.000000  -0.000000   0.000000   0.000000   0.000000
     9  H    0.000000  -0.000000  -0.000000   0.000000   0.000000   0.000000
    10  H   -0.000000   0.000000   0.000000  -0.000000  -0.000000  -0.000000
    11  H    0.000000  -0.000000  -0.000000  -0.000000   0.000000   0.000000
    12  H    0.000000  -0.000000  -0.000000  -0.000000   0.000000   0.000000
               7          8          9         10         11         12
     1  C    0.000000   0.000000   0.000000  -0.000000   0.000000   0.000000
     2  O   -0.000000  -0.000000  -0.000000   0.000000  -0.000000  -0.000000
     3  H   -0.000000  -0.000000  -0.000000   0.000000  -0.000000  -0.000000
     4  H    0.000000   0.000000   0.000000  -0.000000  -0.000000  -0.000000
     5  H   -0.000000   0.000000   0.000000  -0.000000   0.000000   0.000000
     6  C   -0.000000   0.000000   0.000000  -0.000000   0.000000   0.000000
     7  C    0.000000  -0.000000  -0.000000   0.000000  -0.000000  -0.000000
     8  H   -0.000000   0.000000  -0.000000  -0.000000  -0.000000   0.000000
     9  H   -0.000000  -0.000000   0.000000  -0.000000   0.000000  -0.000000
    10  H    0.000000  -0.000000  -0.000000  -0.000000   0.000000   0.000000
    11  H   -0.000000  -0.000000   0.000000   0.000000   0.000000  -0.000000
    12  H   -0.000000   0.000000  -0.000000   0.000000  -0.000000   0.000000
 Mulliken charges and spin densities:
               1          2
     1  C   -0.189132  -0.000000
     2  O   -0.293704  -0.000000
     3  H    0.161401  -0.000000
     4  H    0.170379  -0.000000
     5  H    0.168466  -0.000000
     6  C   -0.444105  -0.000000
     7  C   -0.427584   0.000000
     8  H    0.177842   0.000000
     9  H    0.177527   0.000000
    10  H    0.176633  -0.000000
    11  H    0.160206   0.000000
    12  H    0.162070   0.000000
 Sum of Mulliken charges =  -0.00000  -0.00000
 Mulliken charges and spin densities with hydrogens summed into heavy atoms:
               1          2
     1  C    0.142649  -0.000000
     2  O   -0.125238  -0.000000
     6  C   -0.088735   0.000000
     7  C    0.071324   0.000000
 Electronic spatial extent (au):  <R**2>=            612.6050
 Charge=             -0.0000 electrons
 Dipole moment (field-independent basis, Debye):
    X=             -1.2300    Y=              0.3783    Z=             -0.4357  Tot=              1.3586
 Quadrupole moment (field-independent basis, Debye-Ang):
   XX=            -24.7178   YY=            -27.3797   ZZ=            -27.3759
   XY=             -0.6665   XZ=             -3.0264   YZ=              0.2015
 Traceless Quadrupole moment (field-independent basis, Debye-Ang):
   XX=              1.7733   YY=             -0.8886   ZZ=             -0.8847
   XY=             -0.6665   XZ=             -3.0264   YZ=              0.2015
 Octapole moment (field-independent basis, Debye-Ang**2):
  XXX=             32.7559  YYY=             77.3194  ZZZ=             49.4903  XYY=             11.6101
  XXY=             26.0684  XXZ=             17.8232  XZZ=              6.0357  YZZ=             26.4095
  YYZ=             14.4727  XYZ=             -0.1073
 Hexadecapole moment (field-independent basis, Debye-Ang**3):
 XXXX=            -98.1662 YYYY=           -337.4941 ZZZZ=           -404.4120 XXXY=            -60.4769
 XXXZ=            -54.6351 YYYX=            -62.6147 YYYZ=           -123.9261 ZZZX=            -61.3669
 ZZZY=           -127.0737 XXYY=            -73.2794 XXZZ=            -77.8963 YYZZ=           -122.8100
 XXYZ=            -41.8881 YYXZ=            -15.2261 ZZXY=            -20.6744
 N-N= 1.207996321790D+02 E-N=-6.943816795047D+02  KE= 1.927495996105D+02
                          Isotropic Fermi Contact Couplings
        Atom                 a.u.       MegaHertz       Gauss      10(-4) cm-1
     1  C(13)              0.00000       0.00008       0.00003       0.00003
     2  O(17)             -0.00000       0.00010       0.00003       0.00003
     3  H(1)               0.00000       0.00000       0.00000       0.00000
     4  H(1)              -0.00000      -0.00003      -0.00001      -0.00001
     5  H(1)              -0.00000      -0.00004      -0.00001      -0.00001
     6  C(13)              0.00000       0.00001       0.00000       0.00000
     7  C(13)             -0.00000      -0.00000      -0.00000      -0.00000
     8  H(1)               0.00000       0.00013       0.00005       0.00004
     9  H(1)               0.00000       0.00014       0.00005       0.00005
    10  H(1)              -0.00000      -0.00016      -0.00006      -0.00005
    11  H(1)               0.00000       0.00004       0.00001       0.00001
    12  H(1)               0.00000       0.00003       0.00001       0.00001
 --------------------------------------------------------
       Center         ----  Spin Dipole Couplings  ----
                      3XX-RR        3YY-RR        3ZZ-RR
 --------------------------------------------------------
     1   Atom        0.000000     -0.000000      0.000000
     2   Atom        0.000001     -0.000001     -0.000000
     3   Atom       -0.000000     -0.000000      0.000000
     4   Atom       -0.000000      0.000000      0.000000
     5   Atom       -0.000000      0.000000      0.000000
     6   Atom       -0.000000      0.000000      0.000000
     7   Atom       -0.000000      0.000000      0.000000
     8   Atom       -0.000000      0.000000     -0.000000
     9   Atom       -0.000000      0.000000     -0.000000
    10   Atom       -0.000000      0.000000      0.000000
    11   Atom        0.000000     -0.000000      0.000000
    12   Atom       -0.000000      0.000000      0.000000
 --------------------------------------------------------
                        XY            XZ            YZ
 --------------------------------------------------------
     1   Atom       -0.000000     -0.000000     -0.000000
     2   Atom       -0.000000     -0.000000      0.000000
     3   Atom        0.000000      0.000000     -0.000000
     4   Atom        0.000000     -0.000000     -0.000000
     5   Atom        0.000000      0.000000     -0.000000
     6   Atom        0.000000      0.000000      0.000000
     7   Atom        0.000000      0.000000      0.000000
     8   Atom        0.000000      0.000000     -0.000000
     9   Atom        0.000000     -0.000000      0.000000
    10   Atom        0.000000      0.000000      0.000000
    11   Atom        0.000000      0.000000      0.000000
    12   Atom       -0.000000     -0.000000      0.000000
 --------------------------------------------------------


 ---------------------------------------------------------------------------------
              Anisotropic Spin Dipole Couplings in Principal Axis System
 ---------------------------------------------------------------------------------

       Atom             a.u.   MegaHertz   Gauss  10(-4) cm-1        Axes

              Baa    -0.0000    -0.000    -0.000    -0.000  0.1098  0.9938  0.0157
     1 C(13)  Bbb     0.0000     0.000     0.000     0.000  0.1485 -0.0321  0.9884
              Bcc     0.0000     0.000     0.000     0.000  0.9828 -0.1062 -0.1511
 
              Baa    -0.0000     0.000     0.000     0.000  0.1400  0.9691 -0.2032
     2 O(17)  Bbb    -0.0000     0.000     0.000     0.000  0.1292  0.1856  0.9741
              Bcc     0.0000    -0.000    -0.000    -0.000  0.9817 -0.1626 -0.0992
 
              Baa    -0.0000    -0.000    -0.000    -0.000  0.7294 -0.5476 -0.4099
     3 H(1)   Bbb     0.0000     0.000     0.000     0.000  0.4518  0.8356 -0.3124
              Bcc     0.0000     0.000     0.000     0.000  0.5136  0.0427  0.8569
 
              Baa    -0.0000    -0.000    -0.000    -0.000  0.8844 -0.0658  0.4620
     4 H(1)   Bbb     0.0000     0.000     0.000     0.000 -0.4120  0.3548  0.8392
              Bcc     0.0000     0.000     0.000     0.000  0.2192  0.9326 -0.2867
 
              Baa    -0.0000    -0.000    -0.000    -0.000  0.9539 -0.2806 -0.1063
     5 H(1)   Bbb     0.0000     0.000     0.000     0.000  0.2848  0.9582  0.0263
              Bcc     0.0000     0.000     0.000     0.000  0.0945 -0.0553  0.9940
 
              Baa    -0.0000    -0.000    -0.000    -0.000  0.9760 -0.2087 -0.0619
     6 C(13)  Bbb    -0.0000    -0.000    -0.000    -0.000 -0.0780 -0.6010  0.7954
              Bcc     0.0000     0.000     0.000     0.000  0.2032  0.7715  0.6029
 
              Baa    -0.0000    -0.000    -0.000    -0.000  0.8946 -0.4469 -0.0070
     7 C(13)  Bbb     0.0000     0.000     0.000     0.000 -0.2373 -0.4882  0.8399
              Bcc     0.0000     0.000     0.000     0.000  0.3787  0.7497  0.5427
 
              Baa    -0.0000    -0.000    -0.000    -0.000  0.7384 -0.3369 -0.5842
     8 H(1)   Bbb     0.0000     0.000     0.000     0.000  0.3717 -0.5195  0.7694
              Bcc     0.0000     0.000     0.000     0.000  0.5627  0.7852  0.2584
 
              Baa    -0.0000    -0.000    -0.000    -0.000  0.7292 -0.3681  0.5769
     9 H(1)   Bbb     0.0000     0.000     0.000     0.000 -0.6676 -0.1976  0.7178
              Bcc     0.0000     0.000     0.000     0.000  0.1502  0.9085  0.3898
 
              Baa    -0.0000    -0.000    -0.000    -0.000  0.9732 -0.2285 -0.0270
    10 H(1)   Bbb    -0.0000    -0.000    -0.000    -0.000  0.1614  0.7615 -0.6277
              Bcc     0.0000     0.000     0.000     0.000  0.1640  0.6065  0.7780
 
              Baa    -0.0000    -0.000    -0.000    -0.000 -0.3904  0.9158 -0.0939
    11 H(1)   Bbb     0.0000     0.000     0.000     0.000 -0.6630 -0.2089  0.7189
              Bcc     0.0000     0.000     0.000     0.000  0.6387  0.3429  0.6888
 
              Baa    -0.0000    -0.000    -0.000    -0.000  0.9323  0.3615  0.0110
    12 H(1)   Bbb    -0.0000    -0.000    -0.000    -0.000  0.2461 -0.6564  0.7131
              Bcc     0.0000     0.000     0.000     0.000 -0.2650  0.6622  0.7010
 

 ---------------------------------------------------------------------------------


 Test job not archived.
 1\1\GINC-NODE-5-2\POpt\UwB97XD\Jun-CC-pVTZ\C3H8O1\MDITEODORO\12-Jun-20
 24\1\\# uwb97xd/jun-cc-pvtz opt=(noeig,intern,maxcyc=50) # int=ultrafi
 ne nosym iop(7/33=1) guess=(mix,always)\\geom 0\\0,1\C\O,1,R1\H,1,R2,2
 ,A2\H,1,R3,2,A3,3,D3,0\H,2,R4,1,A4,3,D4,0\C,1,BB,2,ANG1,3,DH1,0\C,6,R2
 1,1,ANG2,2,DH2,0\H,6,R22,7,A22,1,DH3,0\H,6,R23,7,A23,8,D23,0\H,7,R24,6
 ,A24,8,D24,0\H,7,R25,6,A25,10,D25,0\H,7,R26,6,A26,10,D26,0\\R1=1.37043
 239\R2=1.08255552\R3=1.08796253\R4=0.95680451\A2=110.40827283\A3=115.6
 7308581\A4=109.37497514\D3=228.88634447\R21=1.50099687\R22=1.08585439\
 R23=1.08457965\R24=1.09460143\R25=1.09090613\R26=1.09057976\A22=115.28
 063968\A23=115.70792474\A24=111.46216565\A25=111.47366272\A26=111.3991
 7462\D23=133.4356531\D25=119.7126372\D26=240.28155263\ANG2=107.8522397
 4\DH2=180.62490791\DH3=113.63082531\D4=175.79856632\D24=293.95279053\D
 H1=112.97278121\ANG1=112.36789854\BB=2.2\\Version=EM64L-G09RevD.01\HF=
 -194.2924545\S2=0.\S2-1=0.\S2A=0.\RMSD=9.400e-09\RMSF=1.633e-02\Dipole
 =-0.4839085,0.1488464,-0.1714159\Quadrupole=1.3184397,-0.6606636,-0.65
 77761,-0.4955473,-2.2500815,0.1498277\PG=C01 [X(C3H8O1)]\\@


 If fifty million people say a stupid thing,
 it is still a stupid thing.
                   -- Anatole France
 Job cpu time:       0 days  1 hours 54 minutes 32.2 seconds.
 File lengths (MBytes):  RWF=    113 Int=      0 D2E=      0 Chk=     10 Scr=      1
 Normal termination of Gaussian 09 at Wed Jun 12 09:16:18 2024.
 Initial command:
 /software/cinetica/g09d1/g09d01/d01/build-node-6-2-59348/src/main/l1.exe "/scratch/mdt/200551/Gau-20483.inp" -scrdir="/scratch/mdt/200551/"
 Entering Link 1 = /software/cinetica/g09d1/g09d01/d01/build-node-6-2-59348/src/main/l1.exe PID=     24424.
  
 Copyright (c) 1988,1990,1992,1993,1995,1998,2003,2009,2013,
            Gaussian, Inc.  All Rights Reserved.
  
 This is part of the Gaussian(R) 09 program.  It is based on
 the Gaussian(R) 03 system (copyright 2003, Gaussian, Inc.),
 the Gaussian(R) 98 system (copyright 1998, Gaussian, Inc.),
 the Gaussian(R) 94 system (copyright 1995, Gaussian, Inc.),
 the Gaussian 92(TM) system (copyright 1992, Gaussian, Inc.),
 the Gaussian 90(TM) system (copyright 1990, Gaussian, Inc.),
 the Gaussian 88(TM) system (copyright 1988, Gaussian, Inc.),
 the Gaussian 86(TM) system (copyright 1986, Carnegie Mellon
 University), and the Gaussian 82(TM) system (copyright 1983,
 Carnegie Mellon University). Gaussian is a federally registered
 trademark of Gaussian, Inc.
  
 This software contains proprietary and confidential information,
 including trade secrets, belonging to Gaussian, Inc.
  
 This software is provided under written license and may be
 used, copied, transmitted, or stored only in accord with that
 written license.
  
 The following legend is applicable only to US Government
 contracts under FAR:
  
                    RESTRICTED RIGHTS LEGEND
  
 Use, reproduction and disclosure by the US Government is
 subject to restrictions as set forth in subparagraphs (a)
 and (c) of the Commercial Computer Software - Restricted
 Rights clause in FAR 52.227-19.
  
 Gaussian, Inc.
 340 Quinnipiac St., Bldg. 40, Wallingford CT 06492
  
  
 ---------------------------------------------------------------
 Warning -- This program may not be used in any manner that
 competes with the business of Gaussian, Inc. or will provide
 assistance to any competitor of Gaussian, Inc.  The licensee
 of this program is prohibited from giving any competitor of
 Gaussian, Inc. access to this program.  By using this program,
 the user acknowledges that Gaussian, Inc. is engaged in the
 business of creating and licensing software in the field of
 computational chemistry and represents and warrants to the
 licensee that it is not a competitor of Gaussian, Inc. and that
 it will not use this program in any manner prohibited above.
 ---------------------------------------------------------------
  

 Cite this work as:
 Gaussian 09, Revision D.01,
 M. J. Frisch, G. W. Trucks, H. B. Schlegel, G. E. Scuseria, 
 M. A. Robb, J. R. Cheeseman, G. Scalmani, V. Barone, B. Mennucci, 
 G. A. Petersson, H. Nakatsuji, M. Caricato, X. Li, H. P. Hratchian, 
 A. F. Izmaylov, J. Bloino, G. Zheng, J. L. Sonnenberg, M. Hada, 
 M. Ehara, K. Toyota, R. Fukuda, J. Hasegawa, M. Ishida, T. Nakajima, 
 Y. Honda, O. Kitao, H. Nakai, T. Vreven, J. A. Montgomery, Jr., 
 J. E. Peralta, F. Ogliaro, M. Bearpark, J. J. Heyd, E. Brothers, 
 K. N. Kudin, V. N. Staroverov, T. Keith, R. Kobayashi, J. Normand, 
 K. Raghavachari, A. Rendell, J. C. Burant, S. S. Iyengar, J. Tomasi, 
 M. Cossi, N. Rega, J. M. Millam, M. Klene, J. E. Knox, J. B. Cross, 
 V. Bakken, C. Adamo, J. Jaramillo, R. Gomperts, R. E. Stratmann, 
 O. Yazyev, A. J. Austin, R. Cammi, C. Pomelli, J. W. Ochterski, 
 R. L. Martin, K. Morokuma, V. G. Zakrzewski, G. A. Voth, 
 P. Salvador, J. J. Dannenberg, S. Dapprich, A. D. Daniels, 
 O. Farkas, J. B. Foresman, J. V. Ortiz, J. Cioslowski, 
 and D. J. Fox, Gaussian, Inc., Wallingford CT, 2013.
 
 ******************************************
 Gaussian 09:  EM64L-G09RevD.01 24-Apr-2013
                12-Jun-2024 
 ******************************************
 %mem=400MW
 %chk=tmp
 %NProcShared= 32
 Will use up to   32 processors via shared memory.
 ----------------------------------------------------------------------
 # uwb97xd/jun-cc-pvtz # int=ultrafine nosym freq iop(7/33=1) guess=( )
  #guess=read geom=allcheck
 ----------------------------------------------------------------------
 1/10=4,29=7,30=1,38=1/1,3;
 2/12=2,15=1,40=1/2;
 3/5=16,6=1,7=60,11=2,14=-4,16=1,25=1,30=1,71=2,74=-58,75=-5,116=2,140=1/1,2,3;
 4/5=1/1;
 5/5=2,38=6,98=1/2;
 8/6=4,10=90,11=11/1;
 11/6=1,8=1,9=11,15=111,16=1,31=1/1,2,10;
 10/6=1,31=1/2;
 6/7=2,8=2,9=2,10=2,18=1,28=1/1;
 7/8=1,10=1,25=1,30=1,33=1/1,2,3,16;
 1/10=4,30=1/3;
 99//99;
 Structure from the checkpoint file:  "tmp.chk"
 ------
 geom 0
 ------
 Charge =  0 Multiplicity = 1
 Z-Matrix found in file.
 C
 O,1,R1
 H,1,R2,2,A2
 H,1,R3,2,A3,3,D3,0
 H,2,R4,1,A4,3,D4,0
 C,1,BB,2,ANG1,3,DH1,0
 C,6,R21,1,ANG2,2,DH2,0
 H,6,R22,7,A22,1,DH3,0
 H,6,R23,7,A23,8,D23,0
 H,7,R24,6,A24,8,D24,0
 H,7,R25,6,A25,10,D25,0
 H,7,R26,6,A26,10,D26,0
      Variables:
 R1=1.37043239
 R2=1.08255552
 R3=1.08796253
 R4=0.95680451
 A2=110.40827283
 A3=115.67308581
 A4=109.37497514
 D3=228.88634447
 R21=1.50099687
 R22=1.08585439
 R23=1.08457965
 R24=1.09460143
 R25=1.09090613
 R26=1.09057976
 A22=115.28063968
 A23=115.70792474
 A24=111.46216565
 A25=111.47366272
 A26=111.39917462
 D23=133.4356531
 D25=119.7126372
 D26=240.28155263
 ANG2=107.85223974
 DH2=180.62490791
 DH3=113.63082531
 D4=175.79856632
 D24=293.95279053
 DH1=112.97278121
 ANG1=112.36789854
      Constants:
 BB=2.2
 Recover connectivity data from disk.

 GradGradGradGradGradGradGradGradGradGradGradGradGradGradGradGradGradGrad
 Berny optimization.
 Initialization pass.
                       ----------------------------
                       !    Initial Parameters    !
                       ! (Angstroms and Degrees)  !
 ----------------------                            ----------------------
 !      Name          Value   Derivative information (Atomic Units)     !
 ------------------------------------------------------------------------
 !       R1          1.3704   calculate D2E/DX2 analytically            !
 !       R2          1.0826   calculate D2E/DX2 analytically            !
 !       R3          1.088    calculate D2E/DX2 analytically            !
 !       R4          0.9568   calculate D2E/DX2 analytically            !
 !       A2        110.4083   calculate D2E/DX2 analytically            !
 !       A3        115.6731   calculate D2E/DX2 analytically            !
 !       A4        109.375    calculate D2E/DX2 analytically            !
 !       D3        228.8863   calculate D2E/DX2 analytically            !
 !       R21         1.501    calculate D2E/DX2 analytically            !
 !       R22         1.0859   calculate D2E/DX2 analytically            !
 !       R23         1.0846   calculate D2E/DX2 analytically            !
 !       R24         1.0946   calculate D2E/DX2 analytically            !
 !       R25         1.0909   calculate D2E/DX2 analytically            !
 !       R26         1.0906   calculate D2E/DX2 analytically            !
 !       A22       115.2806   calculate D2E/DX2 analytically            !
 !       A23       115.7079   calculate D2E/DX2 analytically            !
 !       A24       111.4622   calculate D2E/DX2 analytically            !
 !       A25       111.4737   calculate D2E/DX2 analytically            !
 !       A26       111.3992   calculate D2E/DX2 analytically            !
 !       D23       133.4357   calculate D2E/DX2 analytically            !
 !       D25       119.7126   calculate D2E/DX2 analytically            !
 !       D26       240.2816   calculate D2E/DX2 analytically            !
 !      ANG2       107.8522   calculate D2E/DX2 analytically            !
 !       DH2       180.6249   calculate D2E/DX2 analytically            !
 !       DH3       113.6308   calculate D2E/DX2 analytically            !
 !       D4        175.7986   calculate D2E/DX2 analytically            !
 !       D24       293.9528   calculate D2E/DX2 analytically            !
 !       DH1       112.9728   calculate D2E/DX2 analytically            !
 !      ANG1       112.3679   calculate D2E/DX2 analytically            !
 !       BB          2.2      frozen, calculate D2E/DX2 analytically    !
 ------------------------------------------------------------------------
 Trust Radius=3.00D-01 FncErr=1.00D-07 GrdErr=1.00D-07
 Number of steps in this run=      2 maximum allowed number of steps=      2.
 GradGradGradGradGradGradGradGradGradGradGradGradGradGradGradGradGradGrad

                          Input orientation:                          
 ---------------------------------------------------------------------
 Center     Atomic      Atomic             Coordinates (Angstroms)
 Number     Number       Type             X           Y           Z
 ---------------------------------------------------------------------
      1          6           0        0.000000    0.000000    0.000000
      2          8           0        0.000000    0.000000    1.370432
      3          1           0        1.014605    0.000000   -0.377495
      4          1           0       -0.644772    0.738760   -0.471344
      5          1           0       -0.900193    0.066129    1.687851
      6          6           0       -0.794041   -1.873118   -0.837215
      7          6           0       -0.733584   -1.770426   -2.333474
      8          1           0       -1.793740   -1.911062   -0.415028
      9          1           0       -0.135222   -2.608982   -0.389137
     10          1           0       -1.122199   -2.674415   -2.812988
     11          1           0       -1.325927   -0.931045   -2.700416
     12          1           0        0.290912   -1.635038   -2.681959
 ---------------------------------------------------------------------
                    Distance matrix (angstroms):
                    1          2          3          4          5
     1  C    0.000000
     2  O    1.370432   0.000000
     3  H    1.082556   2.021058   0.000000
     4  H    1.087963   2.086537   1.818820   0.000000
     5  H    1.914043   0.956805   2.817176   2.275917   0.000000
     6  C    2.200000   3.002129   2.644072   2.641599   3.185578
     7  C    3.019545   4.170309   3.164874   3.125928   4.423997
     8  H    2.653660   3.171361   3.397112   2.888747   3.021558
     9  H    2.641306   3.149786   2.851144   3.387296   3.472071
    10  H    4.040387   5.090465   4.201197   4.166653   5.274222
    11  H    3.149154   4.381408   3.426499   2.867225   4.520232
    12  H    3.154502   4.379481   2.916785   3.375980   4.838176
                    6          7          8          9         10
     6  C    0.000000
     7  C    1.500997   0.000000
     8  H    1.085854   2.196394   0.000000
     9  H    1.084580   2.200378   1.799568   0.000000
    10  H    2.157184   1.094601   2.604590   2.617911   0.000000
    11  H    2.154511   1.090906   2.530273   3.094392   1.758840
    12  H    2.153343   1.090580   3.092077   2.527290   1.759079
                   11         12
    11  H    0.000000
    12  H    1.763552   0.000000
 Symmetry turned off by external request.
 Stoichiometry    C3H8O
 Framework group  C1[X(C3H8O)]
 Deg. of freedom    30
 Full point group                 C1      NOp   1
 Rotational constants (GHZ):     20.9993811      2.9610522      2.7516599
 Standard basis: Jun-CC-pVTZ (5D, 7F)
   268 basis functions,   384 primitive gaussians,   300 cartesian basis functions
    17 alpha electrons       17 beta electrons
       nuclear repulsion energy       120.8041665381 Hartrees.
 NAtoms=   12 NActive=   12 NUniq=   12 SFac= 1.00D+00 NAtFMM=   60 NAOKFM=F Big=F
 Integral buffers will be    131072 words long.
 Raffenetti 2 integral format.
 Two-electron integral symmetry is turned off.
 Nuclear repulsion after empirical dispersion term =      120.7996321790 Hartrees.
 One-electron integrals computed using PRISM.
 NBasis=   268 RedAO= T EigKep=  1.06D-04  NBF=   268
 NBsUse=   268 1.00D-06 EigRej= -1.00D+00 NBFU=   268
 Initial guess from the checkpoint file:  "tmp.chk"
 B after Tr=     0.000000    0.000000    0.000000
         Rot=    1.000000    0.000000    0.000000    0.000000 Ang=   0.00 deg.
 Initial guess <Sx>= 0.0000 <Sy>= 0.0000 <Sz>= 0.0000 <S**2>= 0.0000 S= 0.0000
 Requested convergence on RMS density matrix=1.00D-08 within 128 cycles.
 Requested convergence on MAX density matrix=1.00D-06.
 Requested convergence on             energy=1.00D-06.
 No special actions if energy rises.
 SCF Done:  E(UwB97XD) =  -194.292454511     A.U. after    1 cycles
            NFock=  1  Conv=0.14D-08     -V/T= 2.0080
 <Sx>= 0.0000 <Sy>= 0.0000 <Sz>= 0.0000 <S**2>= 0.0000 S= 0.0000
 <L.S>=  0.00000000000    
 Annihilation of the first spin contaminant:
 S**2 before annihilation     0.0000,   after    -0.0000
 DoSCS=F DFT=T ScalE2(SS,OS)=  1.000000  1.000000
 Range of M.O.s used for correlation:     1   268
 NBasis=   268 NAE=    17 NBE=    17 NFC=     0 NFV=     0
 NROrb=    268 NOA=    17 NOB=    17 NVA=   251 NVB=   251

 **** Warning!!: The largest alpha MO coefficient is  0.26394369D+02


 **** Warning!!: The largest beta MO coefficient is  0.26394379D+02

 Symmetrizing basis deriv contribution to polar:
 IMax=3 JMax=2 DiffMx= 0.00D+00
 G2DrvN: will do    13 centers at a time, making    1 passes.
 Calling FoFCou, ICntrl=  3107 FMM=F I1Cent=   0 AccDes= 0.00D+00.
 End of G2Drv F.D. properties file   721 does not exist.
 End of G2Drv F.D. properties file   722 does not exist.
 End of G2Drv F.D. properties file   788 does not exist.
          IDoAtm=111111111111
          Differentiating once with respect to electric field.
                with respect to dipole field.
          Differentiating once with respect to nuclear coordinates.
          There are    39 degrees of freedom in the 1st order CPHF.  IDoFFX=6 NUNeed=     3.
     36 vectors produced by pass  0 Test12= 2.19D-14 2.56D-09 XBig12= 5.60D+01 2.14D+00.
 AX will form    36 AO Fock derivatives at one time.
     36 vectors produced by pass  1 Test12= 2.19D-14 2.56D-09 XBig12= 3.19D+00 2.09D-01.
     36 vectors produced by pass  2 Test12= 2.19D-14 2.56D-09 XBig12= 6.92D-02 3.06D-02.
     36 vectors produced by pass  3 Test12= 2.19D-14 2.56D-09 XBig12= 5.95D-04 3.85D-03.
     36 vectors produced by pass  4 Test12= 2.19D-14 2.56D-09 XBig12= 4.92D-06 2.30D-04.
     36 vectors produced by pass  5 Test12= 2.19D-14 2.56D-09 XBig12= 3.13D-08 1.68D-05.
     27 vectors produced by pass  6 Test12= 2.19D-14 2.56D-09 XBig12= 2.07D-10 1.47D-06.
      8 vectors produced by pass  7 Test12= 2.19D-14 2.56D-09 XBig12= 1.35D-12 1.05D-07.
      3 vectors produced by pass  8 Test12= 2.19D-14 2.56D-09 XBig12= 7.89D-15 9.54D-09.
      1 vectors produced by pass  9 Test12= 2.19D-14 2.56D-09 XBig12= 2.25D-16 4.66D-09.
 InvSVY:  IOpt=1 It=  1 EMax= 7.99D-15
 Solved reduced A of dimension   255 with    39 vectors.
 Isotropic polarizability for W=    0.000000       55.38 Bohr**3.
 End of Minotr F.D. properties file   721 does not exist.
 End of Minotr F.D. properties file   722 does not exist.
 End of Minotr F.D. properties file   788 does not exist.

 **********************************************************************

            Population analysis using the SCF density.

 **********************************************************************

 Alpha  occ. eigenvalues --  -19.27339 -10.35185 -10.29245 -10.27265  -1.15030
 Alpha  occ. eigenvalues --   -0.84595  -0.76229  -0.68849  -0.60925  -0.53854
 Alpha  occ. eigenvalues --   -0.52063  -0.49475  -0.47656  -0.45247  -0.42768
 Alpha  occ. eigenvalues --   -0.42041  -0.29071
 Alpha virt. eigenvalues --    0.05484   0.05913   0.06133   0.07597   0.08698
 Alpha virt. eigenvalues --    0.09138   0.10209   0.10547   0.11225   0.11710
 Alpha virt. eigenvalues --    0.14834   0.16439   0.17247   0.18520   0.20183
 Alpha virt. eigenvalues --    0.21079   0.22115   0.23765   0.25158   0.25658
 Alpha virt. eigenvalues --    0.25976   0.26791   0.27957   0.28947   0.30383
 Alpha virt. eigenvalues --    0.30623   0.31475   0.32066   0.33287   0.34151
 Alpha virt. eigenvalues --    0.34968   0.35413   0.36782   0.38171   0.41514
 Alpha virt. eigenvalues --    0.42042   0.45019   0.45817   0.46246   0.47980
 Alpha virt. eigenvalues --    0.50994   0.52556   0.55056   0.55600   0.58715
 Alpha virt. eigenvalues --    0.59723   0.60844   0.62581   0.64262   0.66007
 Alpha virt. eigenvalues --    0.66421   0.67103   0.70196   0.70976   0.71315
 Alpha virt. eigenvalues --    0.71924   0.73882   0.74792   0.76693   0.78506
 Alpha virt. eigenvalues --    0.79930   0.81579   0.83681   0.87184   0.88085
 Alpha virt. eigenvalues --    0.89561   0.91183   0.93236   0.95162   0.98627
 Alpha virt. eigenvalues --    0.99383   1.00740   1.02771   1.04023   1.08114
 Alpha virt. eigenvalues --    1.12874   1.14294   1.16160   1.17352   1.19609
 Alpha virt. eigenvalues --    1.21473   1.22964   1.23970   1.24645   1.26806
 Alpha virt. eigenvalues --    1.28330   1.30083   1.34555   1.36365   1.39067
 Alpha virt. eigenvalues --    1.40167   1.41736   1.41811   1.46315   1.49370
 Alpha virt. eigenvalues --    1.49841   1.51549   1.52332   1.53118   1.54813
 Alpha virt. eigenvalues --    1.55598   1.60565   1.63256   1.66950   1.68432
 Alpha virt. eigenvalues --    1.74230   1.75066   1.75876   1.84758   1.88691
 Alpha virt. eigenvalues --    2.03905   2.13492   2.16105   2.25635   2.25814
 Alpha virt. eigenvalues --    2.38103   2.51687   2.53839   2.55137   2.57995
 Alpha virt. eigenvalues --    2.59536   2.61441   2.65797   2.66594   2.69865
 Alpha virt. eigenvalues --    2.73777   2.75778   2.77421   2.84214   2.87983
 Alpha virt. eigenvalues --    2.88990   2.93982   2.95057   2.96646   2.98715
 Alpha virt. eigenvalues --    3.00446   3.04535   3.04711   3.07490   3.11529
 Alpha virt. eigenvalues --    3.12302   3.13150   3.14070   3.16642   3.17332
 Alpha virt. eigenvalues --    3.18621   3.20987   3.22277   3.24892   3.28501
 Alpha virt. eigenvalues --    3.28637   3.30558   3.35513   3.37676   3.41023
 Alpha virt. eigenvalues --    3.42296   3.44040   3.46105   3.47949   3.50089
 Alpha virt. eigenvalues --    3.52300   3.54438   3.58959   3.60906   3.64560
 Alpha virt. eigenvalues --    3.66911   3.67943   3.69451   3.75655   3.77523
 Alpha virt. eigenvalues --    3.79705   3.82988   3.85216   3.87339   3.91431
 Alpha virt. eigenvalues --    3.96798   3.97432   3.99251   4.00976   4.02801
 Alpha virt. eigenvalues --    4.04705   4.04985   4.05768   4.08627   4.10823
 Alpha virt. eigenvalues --    4.11336   4.14247   4.17478   4.19626   4.22214
 Alpha virt. eigenvalues --    4.24482   4.24492   4.30909   4.32077   4.33686
 Alpha virt. eigenvalues --    4.35121   4.39709   4.41299   4.43030   4.46226
 Alpha virt. eigenvalues --    4.50915   4.53111   4.59563   4.64874   4.70833
 Alpha virt. eigenvalues --    4.76465   4.83627   4.86338   4.92842   4.94802
 Alpha virt. eigenvalues --    4.97187   4.97793   4.98255   5.01399   5.05571
 Alpha virt. eigenvalues --    5.08632   5.10740   5.17197   5.21452   5.22004
 Alpha virt. eigenvalues --    5.26967   5.32052   5.35888   5.38286   5.45349
 Alpha virt. eigenvalues --    5.47530   5.49277   5.50520   5.60964   5.64635
 Alpha virt. eigenvalues --    5.69375   5.72898   5.98402   6.05465   6.13918
 Alpha virt. eigenvalues --    6.15609   6.18286   6.21463   6.55872   6.67203
 Alpha virt. eigenvalues --    6.78654   6.83696   6.89773   6.99556   7.14346
 Alpha virt. eigenvalues --    7.36935   7.65514  12.68732  12.98496  13.12565
 Alpha virt. eigenvalues --   13.82568
  Beta  occ. eigenvalues --  -19.27339 -10.35185 -10.29245 -10.27265  -1.15030
  Beta  occ. eigenvalues --   -0.84595  -0.76229  -0.68849  -0.60925  -0.53854
  Beta  occ. eigenvalues --   -0.52063  -0.49475  -0.47656  -0.45247  -0.42768
  Beta  occ. eigenvalues --   -0.42041  -0.29071
  Beta virt. eigenvalues --    0.05484   0.05913   0.06133   0.07597   0.08698
  Beta virt. eigenvalues --    0.09138   0.10209   0.10547   0.11225   0.11710
  Beta virt. eigenvalues --    0.14834   0.16439   0.17247   0.18520   0.20183
  Beta virt. eigenvalues --    0.21079   0.22115   0.23765   0.25158   0.25658
  Beta virt. eigenvalues --    0.25976   0.26791   0.27957   0.28947   0.30383
  Beta virt. eigenvalues --    0.30623   0.31475   0.32066   0.33287   0.34151
  Beta virt. eigenvalues --    0.34968   0.35413   0.36782   0.38171   0.41514
  Beta virt. eigenvalues --    0.42042   0.45019   0.45817   0.46246   0.47980
  Beta virt. eigenvalues --    0.50994   0.52556   0.55056   0.55600   0.58715
  Beta virt. eigenvalues --    0.59723   0.60844   0.62581   0.64262   0.66007
  Beta virt. eigenvalues --    0.66421   0.67103   0.70196   0.70976   0.71315
  Beta virt. eigenvalues --    0.71924   0.73882   0.74792   0.76693   0.78506
  Beta virt. eigenvalues --    0.79930   0.81579   0.83681   0.87184   0.88085
  Beta virt. eigenvalues --    0.89561   0.91183   0.93236   0.95162   0.98627
  Beta virt. eigenvalues --    0.99383   1.00740   1.02771   1.04023   1.08114
  Beta virt. eigenvalues --    1.12874   1.14294   1.16160   1.17352   1.19609
  Beta virt. eigenvalues --    1.21473   1.22964   1.23970   1.24645   1.26806
  Beta virt. eigenvalues --    1.28330   1.30083   1.34555   1.36365   1.39067
  Beta virt. eigenvalues --    1.40167   1.41736   1.41811   1.46315   1.49370
  Beta virt. eigenvalues --    1.49841   1.51549   1.52332   1.53118   1.54813
  Beta virt. eigenvalues --    1.55598   1.60565   1.63256   1.66950   1.68432
  Beta virt. eigenvalues --    1.74230   1.75066   1.75876   1.84758   1.88691
  Beta virt. eigenvalues --    2.03905   2.13492   2.16105   2.25635   2.25814
  Beta virt. eigenvalues --    2.38103   2.51687   2.53839   2.55137   2.57995
  Beta virt. eigenvalues --    2.59536   2.61441   2.65797   2.66594   2.69865
  Beta virt. eigenvalues --    2.73777   2.75778   2.77421   2.84214   2.87983
  Beta virt. eigenvalues --    2.88990   2.93982   2.95057   2.96646   2.98715
  Beta virt. eigenvalues --    3.00446   3.04535   3.04711   3.07490   3.11529
  Beta virt. eigenvalues --    3.12302   3.13150   3.14070   3.16642   3.17332
  Beta virt. eigenvalues --    3.18621   3.20987   3.22277   3.24892   3.28501
  Beta virt. eigenvalues --    3.28637   3.30558   3.35513   3.37676   3.41023
  Beta virt. eigenvalues --    3.42296   3.44040   3.46105   3.47949   3.50089
  Beta virt. eigenvalues --    3.52300   3.54438   3.58959   3.60906   3.64560
  Beta virt. eigenvalues --    3.66911   3.67943   3.69451   3.75655   3.77523
  Beta virt. eigenvalues --    3.79705   3.82988   3.85216   3.87339   3.91431
  Beta virt. eigenvalues --    3.96798   3.97432   3.99251   4.00976   4.02801
  Beta virt. eigenvalues --    4.04705   4.04985   4.05768   4.08627   4.10823
  Beta virt. eigenvalues --    4.11336   4.14247   4.17478   4.19626   4.22214
  Beta virt. eigenvalues --    4.24482   4.24492   4.30909   4.32077   4.33686
  Beta virt. eigenvalues --    4.35121   4.39709   4.41299   4.43030   4.46226
  Beta virt. eigenvalues --    4.50915   4.53111   4.59563   4.64874   4.70833
  Beta virt. eigenvalues --    4.76465   4.83627   4.86338   4.92842   4.94802
  Beta virt. eigenvalues --    4.97187   4.97793   4.98255   5.01399   5.05571
  Beta virt. eigenvalues --    5.08632   5.10740   5.17197   5.21452   5.22004
  Beta virt. eigenvalues --    5.26967   5.32052   5.35888   5.38286   5.45349
  Beta virt. eigenvalues --    5.47530   5.49277   5.50520   5.60964   5.64635
  Beta virt. eigenvalues --    5.69375   5.72898   5.98402   6.05465   6.13918
  Beta virt. eigenvalues --    6.15609   6.18286   6.21463   6.55872   6.67203
  Beta virt. eigenvalues --    6.78654   6.83696   6.89773   6.99556   7.14346
  Beta virt. eigenvalues --    7.36935   7.65514  12.68732  12.98496  13.12565
  Beta virt. eigenvalues --   13.82568
          Condensed to atoms (all electrons):
               1          2          3          4          5          6
     1  C    4.915081   0.156712   0.420736   0.414188   0.013787   0.321636
     2  O    0.156712   8.038517  -0.054033  -0.037168   0.201952  -0.016701
     3  H    0.420736  -0.054033   0.495668  -0.019699   0.007465  -0.018980
     4  H    0.414188  -0.037168  -0.019699   0.495495  -0.009399  -0.019913
     5  H    0.013787   0.201952   0.007465  -0.009399   0.624091  -0.009657
     6  C    0.321636  -0.016701  -0.018980  -0.019913  -0.009657   5.195976
     7  C   -0.029261   0.000701   0.005621   0.004416   0.001792   0.258390
     8  H   -0.010129   0.001096   0.001198  -0.000441   0.000490   0.408971
     9  H   -0.010596   0.003055  -0.000073   0.001312   0.000986   0.421247
    10  H    0.007403  -0.000349  -0.000240  -0.000254  -0.000032  -0.042328
    11  H   -0.005587  -0.000134   0.000591   0.000604   0.000056  -0.025833
    12  H   -0.004838   0.000055   0.000344   0.000480   0.000003  -0.028702
               7          8          9         10         11         12
     1  C   -0.029261  -0.010129  -0.010596   0.007403  -0.005587  -0.004838
     2  O    0.000701   0.001096   0.003055  -0.000349  -0.000134   0.000055
     3  H    0.005621   0.001198  -0.000073  -0.000240   0.000591   0.000344
     4  H    0.004416  -0.000441   0.001312  -0.000254   0.000604   0.000480
     5  H    0.001792   0.000490   0.000986  -0.000032   0.000056   0.000003
     6  C    0.258390   0.408971   0.421247  -0.042328  -0.025833  -0.028702
     7  C    5.010294  -0.024436  -0.029029   0.403973   0.411440   0.413682
     8  H   -0.024436   0.470667  -0.019966  -0.005373  -0.003994   0.004073
     9  H   -0.029029  -0.019966   0.460748  -0.004522   0.003653  -0.004343
    10  H    0.403973  -0.005373  -0.004522   0.497109  -0.015874  -0.016144
    11  H    0.411440  -0.003994   0.003653  -0.015874   0.493624  -0.018750
    12  H    0.413682   0.004073  -0.004343  -0.016144  -0.018750   0.492070
          Atomic-Atomic Spin Densities.
               1          2          3          4          5          6
     1  C   -0.000000   0.000000   0.000000   0.000000  -0.000000  -0.000000
     2  O    0.000000  -0.000000  -0.000000  -0.000000   0.000000   0.000000
     3  H    0.000000  -0.000000  -0.000000  -0.000000  -0.000000   0.000000
     4  H    0.000000  -0.000000  -0.000000  -0.000000   0.000000  -0.000000
     5  H   -0.000000   0.000000  -0.000000   0.000000  -0.000000  -0.000000
     6  C   -0.000000   0.000000   0.000000  -0.000000  -0.000000   0.000000
     7  C    0.000000  -0.000000  -0.000000   0.000000   0.000000  -0.000000
     8  H    0.000000  -0.000000  -0.000000   0.000000   0.000000   0.000000
     9  H    0.000000  -0.000000  -0.000000   0.000000   0.000000   0.000000
    10  H   -0.000000   0.000000   0.000000  -0.000000  -0.000000  -0.000000
    11  H    0.000000  -0.000000  -0.000000  -0.000000   0.000000  -0.000000
    12  H    0.000000  -0.000000  -0.000000  -0.000000   0.000000  -0.000000
               7          8          9         10         11         12
     1  C    0.000000   0.000000   0.000000  -0.000000   0.000000   0.000000
     2  O   -0.000000  -0.000000  -0.000000   0.000000  -0.000000  -0.000000
     3  H   -0.000000  -0.000000  -0.000000   0.000000  -0.000000  -0.000000
     4  H    0.000000   0.000000   0.000000  -0.000000  -0.000000  -0.000000
     5  H    0.000000   0.000000   0.000000  -0.000000   0.000000   0.000000
     6  C   -0.000000   0.000000   0.000000  -0.000000  -0.000000  -0.000000
     7  C    0.000000  -0.000000  -0.000000   0.000000   0.000000   0.000000
     8  H   -0.000000   0.000000  -0.000000  -0.000000  -0.000000   0.000000
     9  H   -0.000000  -0.000000   0.000000  -0.000000   0.000000  -0.000000
    10  H    0.000000  -0.000000  -0.000000  -0.000000   0.000000   0.000000
    11  H    0.000000  -0.000000   0.000000   0.000000   0.000000  -0.000000
    12  H    0.000000   0.000000  -0.000000   0.000000  -0.000000   0.000000
 Mulliken charges and spin densities:
               1          2
     1  C   -0.189132  -0.000000
     2  O   -0.293704  -0.000000
     3  H    0.161401   0.000000
     4  H    0.170379  -0.000000
     5  H    0.168466  -0.000000
     6  C   -0.444105   0.000000
     7  C   -0.427584   0.000000
     8  H    0.177843   0.000000
     9  H    0.177527   0.000000
    10  H    0.176633  -0.000000
    11  H    0.160206   0.000000
    12  H    0.162070   0.000000
 Sum of Mulliken charges =  -0.00000  -0.00000
 Mulliken charges and spin densities with hydrogens summed into heavy atoms:
               1          2
     1  C    0.142649  -0.000000
     2  O   -0.125238  -0.000000
     6  C   -0.088735   0.000000
     7  C    0.071324   0.000000
 APT charges:
               1
     1  C    0.719696
     2  O   -0.777972
     3  H   -0.043052
     4  H   -0.095646
     5  H    0.274569
     6  C    0.115211
     7  C    0.009472
     8  H   -0.067420
     9  H   -0.056274
    10  H   -0.044167
    11  H   -0.018145
    12  H   -0.016274
 Sum of APT charges =  -0.00000
 APT charges with hydrogens summed into heavy atoms:
               1
     1  C    0.580998
     2  O   -0.503403
     6  C   -0.008482
     7  C   -0.069113
 Electronic spatial extent (au):  <R**2>=            612.6050
 Charge=              0.0000 electrons
 Dipole moment (field-independent basis, Debye):
    X=             -1.2300    Y=              0.3783    Z=             -0.4357  Tot=              1.3586
 Quadrupole moment (field-independent basis, Debye-Ang):
   XX=            -24.7178   YY=            -27.3797   ZZ=            -27.3759
   XY=             -0.6665   XZ=             -3.0264   YZ=              0.2015
 Traceless Quadrupole moment (field-independent basis, Debye-Ang):
   XX=              1.7733   YY=             -0.8886   ZZ=             -0.8847
   XY=             -0.6665   XZ=             -3.0264   YZ=              0.2015
 Octapole moment (field-independent basis, Debye-Ang**2):
  XXX=             32.7559  YYY=             77.3194  ZZZ=             49.4903  XYY=             11.6101
  XXY=             26.0684  XXZ=             17.8232  XZZ=              6.0357  YZZ=             26.4095
  YYZ=             14.4727  XYZ=             -0.1073
 Hexadecapole moment (field-independent basis, Debye-Ang**3):
 XXXX=            -98.1662 YYYY=           -337.4941 ZZZZ=           -404.4120 XXXY=            -60.4769
 XXXZ=            -54.6351 YYYX=            -62.6147 YYYZ=           -123.9261 ZZZX=            -61.3669
 ZZZY=           -127.0736 XXYY=            -73.2794 XXZZ=            -77.8963 YYZZ=           -122.8100
 XXYZ=            -41.8881 YYXZ=            -15.2261 ZZXY=            -20.6744
 N-N= 1.207996321790D+02 E-N=-6.943816809878D+02  KE= 1.927496001828D+02
  Exact polarizability:  45.284   7.729  61.421   4.587  13.544  59.439
 Approx polarizability:  49.442   7.657  63.575   4.058  11.459  55.937
                          Isotropic Fermi Contact Couplings
        Atom                 a.u.       MegaHertz       Gauss      10(-4) cm-1
     1  C(13)              0.00000       0.00003       0.00001       0.00001
     2  O(17)             -0.00000       0.00005       0.00002       0.00002
     3  H(1)               0.00000       0.00001       0.00000       0.00000
     4  H(1)              -0.00000      -0.00001      -0.00000      -0.00000
     5  H(1)              -0.00000      -0.00002      -0.00001      -0.00001
     6  C(13)              0.00000       0.00002       0.00001       0.00001
     7  C(13)              0.00000       0.00000       0.00000       0.00000
     8  H(1)               0.00000       0.00006       0.00002       0.00002
     9  H(1)               0.00000       0.00006       0.00002       0.00002
    10  H(1)              -0.00000      -0.00006      -0.00002      -0.00002
    11  H(1)               0.00000       0.00001       0.00001       0.00000
    12  H(1)               0.00000       0.00001       0.00000       0.00000
 --------------------------------------------------------
       Center         ----  Spin Dipole Couplings  ----
                      3XX-RR        3YY-RR        3ZZ-RR
 --------------------------------------------------------
     1   Atom        0.000000     -0.000000      0.000000
     2   Atom        0.000000     -0.000000      0.000000
     3   Atom       -0.000000     -0.000000      0.000000
     4   Atom       -0.000000      0.000000      0.000000
     5   Atom       -0.000000      0.000000      0.000000
     6   Atom       -0.000000      0.000000     -0.000000
     7   Atom       -0.000000      0.000000      0.000000
     8   Atom       -0.000000      0.000000     -0.000000
     9   Atom       -0.000000      0.000000     -0.000000
    10   Atom       -0.000000      0.000000      0.000000
    11   Atom        0.000000     -0.000000      0.000000
    12   Atom       -0.000000      0.000000      0.000000
 --------------------------------------------------------
                        XY            XZ            YZ
 --------------------------------------------------------
     1   Atom       -0.000000     -0.000000     -0.000000
     2   Atom       -0.000000     -0.000000      0.000000
     3   Atom        0.000000      0.000000     -0.000000
     4   Atom        0.000000     -0.000000      0.000000
     5   Atom        0.000000      0.000000     -0.000000
     6   Atom        0.000000      0.000000      0.000000
     7   Atom        0.000000      0.000000      0.000000
     8   Atom        0.000000      0.000000     -0.000000
     9   Atom        0.000000     -0.000000      0.000000
    10   Atom        0.000000      0.000000      0.000000
    11   Atom        0.000000      0.000000      0.000000
    12   Atom       -0.000000     -0.000000      0.000000
 --------------------------------------------------------


 ---------------------------------------------------------------------------------
              Anisotropic Spin Dipole Couplings in Principal Axis System
 ---------------------------------------------------------------------------------

       Atom             a.u.   MegaHertz   Gauss  10(-4) cm-1        Axes

              Baa    -0.0000    -0.000    -0.000    -0.000  0.1960  0.9784  0.0665
     1 C(13)  Bbb     0.0000     0.000     0.000     0.000  0.9369 -0.2068  0.2818
              Bcc     0.0000     0.000     0.000     0.000 -0.2894 -0.0071  0.9572
 
              Baa    -0.0000     0.000     0.000     0.000  0.2094  0.9772 -0.0362
     2 O(17)  Bbb     0.0000    -0.000    -0.000    -0.000  0.1156  0.0121  0.9932
              Bcc     0.0000    -0.000    -0.000    -0.000  0.9710 -0.2121 -0.1104
 
              Baa    -0.0000    -0.000    -0.000    -0.000  0.7952 -0.4316 -0.4259
     3 H(1)   Bbb     0.0000     0.000     0.000     0.000  0.3886  0.9019 -0.1886
              Bcc     0.0000     0.000     0.000     0.000  0.4655 -0.0155  0.8849
 
              Baa    -0.0000    -0.000    -0.000    -0.000  0.8692 -0.1239  0.4786
     4 H(1)   Bbb     0.0000     0.000     0.000     0.000 -0.4043  0.3790  0.8324
              Bcc     0.0000     0.000     0.000     0.000  0.2845  0.9171 -0.2794
 
              Baa    -0.0000    -0.000    -0.000    -0.000  0.9369 -0.2770 -0.2134
     5 H(1)   Bbb     0.0000     0.000     0.000     0.000  0.2236  0.9438 -0.2436
              Bcc     0.0000     0.000     0.000     0.000  0.2689  0.1805  0.9461
 
              Baa    -0.0000    -0.000    -0.000    -0.000  0.9634 -0.2630 -0.0519
     6 C(13)  Bbb    -0.0000    -0.000    -0.000    -0.000 -0.0959 -0.5190  0.8494
              Bcc     0.0000     0.000     0.000     0.000  0.2504  0.8133  0.5252
 
              Baa    -0.0000    -0.000    -0.000    -0.000  0.8933 -0.4495  0.0003
     7 C(13)  Bbb     0.0000     0.000     0.000     0.000 -0.2830 -0.5618  0.7774
              Bcc     0.0000     0.000     0.000     0.000  0.3493  0.6945  0.6290
 
              Baa    -0.0000    -0.000    -0.000    -0.000  0.7225 -0.3711 -0.5834
     8 H(1)   Bbb     0.0000     0.000     0.000     0.000  0.3692 -0.5063  0.7793
              Bcc     0.0000     0.000     0.000     0.000  0.5846  0.7784  0.2288
 
              Baa    -0.0000    -0.000    -0.000    -0.000  0.7470 -0.3333  0.5752
     9 H(1)   Bbb     0.0000     0.000     0.000     0.000 -0.6461 -0.1598  0.7464
              Bcc     0.0000     0.000     0.000     0.000  0.1569  0.9292  0.3347
 
              Baa    -0.0000    -0.000    -0.000    -0.000  0.9422 -0.3348  0.0096
    10 H(1)   Bbb    -0.0000    -0.000    -0.000    -0.000 -0.2028 -0.5474  0.8119
              Bcc     0.0000     0.000     0.000     0.000  0.2666  0.7670  0.5837
 
              Baa    -0.0000    -0.000    -0.000    -0.000 -0.4256  0.9049 -0.0050
    11 H(1)   Bbb     0.0000     0.000     0.000     0.000  0.6931  0.3224 -0.6448
              Bcc     0.0000     0.000     0.000     0.000  0.5819  0.2778  0.7644
 
              Baa    -0.0000    -0.000    -0.000    -0.000  0.9386  0.3204  0.1275
    12 H(1)   Bbb    -0.0000    -0.000    -0.000    -0.000 -0.1792  0.7690 -0.6137
              Bcc     0.0000     0.000     0.000     0.000 -0.2947  0.5532  0.7792
 

 ---------------------------------------------------------------------------------

 Entering OneElI...
 Calculate overlap and kinetic energy integrals
    NBasis = 300  MinDer = 2  MaxDer = 2
 Requested accuracy = 0.1000D-12
 PrsmSu:  NPrtUS=  32 ThrOK=T IAlg=1 NPAlg=1 LenDen=           0.
 PRISM was handed    12991178 working-precision words and  5043 shell-pairs
 PRISM was handed    12991178 working-precision words and  5043 shell-pairs
 PRISM was handed    12991178 working-precision words and  5043 shell-pairs
 PRISM was handed    12991178 working-precision words and  5043 shell-pairs
 Prism:   IPart=     0 DynPar=F LinDyn=F Incr=           1.
 PRISM was handed    12991178 working-precision words and  5043 shell-pairs
 PRISM was handed    12991178 working-precision words and  5043 shell-pairs
 PRISM was handed    12991178 working-precision words and  5043 shell-pairs
 PRISM was handed    12991178 working-precision words and  5043 shell-pairs
 PRISM was handed    12991178 working-precision words and  5043 shell-pairs
 PRISM was handed    12991178 working-precision words and  5043 shell-pairs
 PRISM was handed    12991178 working-precision words and  5043 shell-pairs
 PRISM was handed    12991178 working-precision words and  5043 shell-pairs
 PRISM was handed    12991178 working-precision words and  5043 shell-pairs
 PRISM was handed    12991178 working-precision words and  5043 shell-pairs
 PRISM was handed    12991178 working-precision words and  5043 shell-pairs
 PRISM was handed    12991178 working-precision words and  5043 shell-pairs
 PRISM was handed    12991178 working-precision words and  5043 shell-pairs
 PRISM was handed    12991178 working-precision words and  5043 shell-pairs
 PRISM was handed    12991178 working-precision words and  5043 shell-pairs
 PRISM was handed    12991178 working-precision words and  5043 shell-pairs
 PRISM was handed    12991178 working-precision words and  5043 shell-pairs
 PRISM was handed    12991178 working-precision words and  5043 shell-pairs
 PRISM was handed    12991178 working-precision words and  5043 shell-pairs
 PRISM was handed    12991178 working-precision words and  5043 shell-pairs
 PRISM was handed    12991178 working-precision words and  5043 shell-pairs
 PRISM was handed    12991178 working-precision words and  5043 shell-pairs
 PRISM was handed    12991178 working-precision words and  5043 shell-pairs
 PRISM was handed    12991178 working-precision words and  5043 shell-pairs
 PRISM was handed    12991178 working-precision words and  5043 shell-pairs
 PRISM was handed    12991178 working-precision words and  5043 shell-pairs
 PRISM was handed    12991178 working-precision words and  5043 shell-pairs
 PRISM was handed    12991178 working-precision words and  5043 shell-pairs
 IPart= 27 NShTot=         141 NBatch=          21 AvBLen=         6.7
 IPart= 20 NShTot=         146 NBatch=          21 AvBLen=         7.0
 IPart=  3 NShTot=         183 NBatch=          46 AvBLen=         4.0
 IPart= 16 NShTot=         151 NBatch=          23 AvBLen=         6.6
 IPart= 29 NShTot=         140 NBatch=          20 AvBLen=         7.0
 IPart= 25 NShTot=         141 NBatch=          21 AvBLen=         6.7
 IPart= 19 NShTot=         146 NBatch=          21 AvBLen=         7.0
 IPart= 26 NShTot=         141 NBatch=          21 AvBLen=         6.7
 IPart= 17 NShTot=         149 NBatch=          22 AvBLen=         6.8
 IPart= 30 NShTot=         138 NBatch=          20 AvBLen=         6.9
 IPart= 10 NShTot=         165 NBatch=          29 AvBLen=         5.7
 IPart= 28 NShTot=         141 NBatch=          21 AvBLen=         6.7
 IPart= 18 NShTot=         148 NBatch=          22 AvBLen=         6.7
 IPart= 12 NShTot=         163 NBatch=          27 AvBLen=         6.0
 IPart= 13 NShTot=         161 NBatch=          26 AvBLen=         6.2
 IPart=  2 NShTot=         184 NBatch=          47 AvBLen=         3.9
 IPart= 22 NShTot=         146 NBatch=          21 AvBLen=         7.0
 IPart=  1 NShTot=         190 NBatch=          53 AvBLen=         3.6
 IPart= 15 NShTot=         154 NBatch=          23 AvBLen=         6.7
 IPart=  9 NShTot=         166 NBatch=          30 AvBLen=         5.5
 IPart= 24 NShTot=         142 NBatch=          21 AvBLen=         6.8
 IPart= 21 NShTot=         146 NBatch=          21 AvBLen=         7.0
 IPart= 11 NShTot=         163 NBatch=          27 AvBLen=         6.0
 IPart= 23 NShTot=         144 NBatch=          21 AvBLen=         6.9
 IPart=  8 NShTot=         167 NBatch=          30 AvBLen=         5.6
 IPart=  7 NShTot=         170 NBatch=          33 AvBLen=         5.2
 IPart=  5 NShTot=         173 NBatch=          36 AvBLen=         4.8
 IPart= 14 NShTot=         158 NBatch=          26 AvBLen=         6.1
 IPart=  0 NShTot=         202 NBatch=          65 AvBLen=         3.1
 IPart=  6 NShTot=         171 NBatch=          34 AvBLen=         5.0
 IPart=  4 NShTot=         176 NBatch=          39 AvBLen=         4.5
 IPart= 31 NShTot=         137 NBatch=          20 AvBLen=         6.8
 PrSmSu:  NxtVal=             33.
 Entering OneElI...
 Calculate potential energy integrals
    NBasis = 300  MinDer = 2  MaxDer = 2
 Requested accuracy = 0.1000D-12
 PrsmSu:  NPrtUS=  32 ThrOK=T IAlg=1 NPAlg=1 LenDen=           0.
 PRISM was handed    13005646 working-precision words and  4852 shell-pairs
 PRISM was handed    13005646 working-precision words and  4852 shell-pairs
 PRISM was handed    13005646 working-precision words and  4852 shell-pairs
 PRISM was handed    13005646 working-precision words and  4852 shell-pairs
 PRISM was handed    13005646 working-precision words and  4852 shell-pairs
 PRISM was handed    13005646 working-precision words and  4852 shell-pairs
 PRISM was handed    13005646 working-precision words and  4852 shell-pairs
 PRISM was handed    13005646 working-precision words and  4852 shell-pairs
 PRISM was handed    13005646 working-precision words and  4852 shell-pairs
 PRISM was handed    13005646 working-precision words and  4852 shell-pairs
 PRISM was handed    13005646 working-precision words and  4852 shell-pairs
 PRISM was handed    13005646 working-precision words and  4852 shell-pairs
 PRISM was handed    13005646 working-precision words and  4852 shell-pairs
 PRISM was handed    13005646 working-precision words and  4852 shell-pairs
 PRISM was handed    13005646 working-precision words and  4852 shell-pairs
 PRISM was handed    13005646 working-precision words and  4852 shell-pairs
 PRISM was handed    13005646 working-precision words and  4852 shell-pairs
 PRISM was handed    13005646 working-precision words and  4852 shell-pairs
 PRISM was handed    13005646 working-precision words and  4852 shell-pairs
 PRISM was handed    13005646 working-precision words and  4852 shell-pairs
 PRISM was handed    13005646 working-precision words and  4852 shell-pairs
 PRISM was handed    13005646 working-precision words and  4852 shell-pairs
 PRISM was handed    13005646 working-precision words and  4852 shell-pairs
 PRISM was handed    13005646 working-precision words and  4852 shell-pairs
 PRISM was handed    13005646 working-precision words and  4852 shell-pairs
 PRISM was handed    13005646 working-precision words and  4852 shell-pairs
 PRISM was handed    13005646 working-precision words and  4852 shell-pairs
 PRISM was handed    13005646 working-precision words and  4852 shell-pairs
 PRISM was handed    13005646 working-precision words and  4852 shell-pairs
 Prism:   IPart=     0 DynPar=F LinDyn=F Incr=          18.
 PRISM was handed    13005646 working-precision words and  4852 shell-pairs
 PRISM was handed    13005646 working-precision words and  4852 shell-pairs
 PRISM was handed    13005646 working-precision words and  4852 shell-pairs
 IPart= 25 NShTot=        1680 NBatch=         140 AvBLen=        12.0
 IPart= 30 NShTot=        1644 NBatch=         137 AvBLen=        12.0
 IPart= 14 NShTot=        1764 NBatch=         147 AvBLen=        12.0
 IPart= 10 NShTot=        1848 NBatch=         154 AvBLen=        12.0
 IPart= 11 NShTot=        1836 NBatch=         153 AvBLen=        12.0
 IPart= 29 NShTot=        1668 NBatch=         139 AvBLen=        12.0
 IPart=  2 NShTot=        2124 NBatch=         177 AvBLen=        12.0
 IPart=  7 NShTot=        1932 NBatch=         161 AvBLen=        12.0
 IPart= 23 NShTot=        1704 NBatch=         142 AvBLen=        12.0
 IPart= 26 NShTot=        1680 NBatch=         140 AvBLen=        12.0
 IPart=  8 NShTot=        1932 NBatch=         161 AvBLen=        12.0
 IPart=  6 NShTot=        1944 NBatch=         162 AvBLen=        12.0
 IPart= 15 NShTot=        1752 NBatch=         146 AvBLen=        12.0
 IPart= 24 NShTot=        1692 NBatch=         141 AvBLen=        12.0
 IPart= 12 NShTot=        1812 NBatch=         151 AvBLen=        12.0
 IPart=  9 NShTot=        1908 NBatch=         159 AvBLen=        12.0
 IPart= 27 NShTot=        1680 NBatch=         140 AvBLen=        12.0
 IPart= 16 NShTot=        1740 NBatch=         145 AvBLen=        12.0
 IPart= 13 NShTot=        1764 NBatch=         147 AvBLen=        12.0
 IPart=  3 NShTot=        2064 NBatch=         172 AvBLen=        12.0
 IPart=  4 NShTot=        1980 NBatch=         165 AvBLen=        12.0
 IPart= 31 NShTot=        1620 NBatch=         135 AvBLen=        12.0
 IPart=  5 NShTot=        1968 NBatch=         164 AvBLen=        12.0
 IPart= 20 NShTot=        1716 NBatch=         143 AvBLen=        12.0
 IPart= 28 NShTot=        1680 NBatch=         140 AvBLen=        12.0
 IPart= 19 NShTot=        1728 NBatch=         144 AvBLen=        12.0
 IPart= 18 NShTot=        1728 NBatch=         144 AvBLen=        12.0
 IPart= 17 NShTot=        1728 NBatch=         144 AvBLen=        12.0
 IPart= 21 NShTot=        1716 NBatch=         143 AvBLen=        12.0
 IPart=  1 NShTot=        2184 NBatch=         182 AvBLen=        12.0
 IPart=  0 NShTot=        2304 NBatch=         192 AvBLen=        12.0
 IPart= 22 NShTot=        1704 NBatch=         142 AvBLen=        12.0
 PrSmSu:  NxtVal=            577.
 Polarizability after L701:
                1             2             3 
      1  0.452835D+02
      2  0.772872D+01  0.614208D+02
      3  0.458670D+01  0.135439D+02  0.594386D+02
 Dipole Derivatives after L701:
                 1             2             3             4             5 
      1   0.284875D+00  0.890386D-01  0.208579D+00 -0.251772D+00 -0.489085D-01
      2   0.109799D+00  0.573022D+00  0.628346D+00 -0.499072D-02 -0.577664D+00
      3   0.104996D+00  0.299369D+00  0.130119D+01  0.506357D-01 -0.160790D+00
                 6             7             8             9            10 
      1  -0.196208D+00 -0.926732D-01 -0.471807D-01  0.225911D-01 -0.317280D-01
      2  -0.656425D+00 -0.468197D-01 -0.368385D-01  0.206179D-02  0.218146D-01
      3  -0.150448D+01  0.475552D-01 -0.668668D-01  0.355961D-03 -0.117261D+00
                11            12            13            14            15 
      1   0.275155D-01 -0.197182D-01  0.141813D+00  0.872579D-02 -0.173145D-01
      2  -0.191699D+00  0.365126D-01 -0.349451D-01  0.365023D+00  0.323779D-01
      3  -0.263652D-01 -0.635098D-01 -0.462179D-01  0.580240D-01  0.316869D+00
                16            17            18            19            20 
      1   0.105180D+00  0.233880D-02  0.425352D-01  0.535111D-01 -0.495255D-01
      2  -0.153707D-02  0.915167D-01  0.101875D+00 -0.591244D-01 -0.532252D-01
      3  -0.139661D-01 -0.426179D-02  0.148937D+00 -0.447714D-01 -0.111455D+00
                21            22            23            24            25 
      1  -0.659501D-03 -0.135271D+00 -0.398880D-01  0.531399D-01 -0.934714D-02
      2  -0.933241D-02 -0.585379D-01 -0.150388D-01 -0.724187D-02  0.561394D-01
      3   0.281311D-01  0.643945D-01 -0.391580D-01 -0.519494D-01 -0.595945D-01
                26            27            28            29            30 
      1   0.429459D-01 -0.311385D-01  0.515398D-01 -0.646770D-01 -0.647200D-01
      2  -0.115347D+00  0.270923D-01 -0.635472D-01 -0.721966D-01 -0.163544D+00
      3   0.155576D-01 -0.441278D-01 -0.434070D-01 -0.104070D+00 -0.111844D+00
                31            32            33            34            35 
      1   0.262741D-02  0.105007D+00 -0.298893D-01 -0.118755D+00 -0.253914D-01
      2   0.907317D-01 -0.457598D-01  0.181045D-01 -0.898296D-02  0.782074D-01
      3  -0.463669D-01  0.105479D+00 -0.113026D-01  0.104004D+00  0.345371D-01
                36 
      1   0.328031D-01
      2  -0.982624D-02
      3  -0.827311D-02
 Hessian after L701:
                1             2             3             4             5 
      1  0.129602D+02
      2 -0.777370D-01  0.129991D+02
      3 -0.597913D-01 -0.683111D+00  0.569670D+01
      4 -0.686915D+01 -0.317927D-01 -0.122745D+00  0.958395D+01
      5 -0.324885D-01 -0.703841D+01  0.298100D-01  0.164385D+00  0.119334D+02
      6 -0.204574D+00  0.245461D-01  0.163727D+01  0.137890D+01 -0.599811D+00
      7 -0.156714D+01 -0.506515D-01 -0.934721D+00  0.163899D+00  0.703940D-02
      8  0.379138D-01 -0.354269D+01 -0.371869D-01 -0.320474D-02  0.476452D-01
      9 -0.900956D+00  0.649055D-02 -0.311666D+01  0.276097D-01 -0.134016D-01
     10 -0.272045D+01 -0.873005D+00  0.651574D+00  0.840719D-01 -0.933732D-01
     11 -0.952544D+00 -0.237358D+01 -0.874556D+00 -0.961631D-01  0.154533D+00
     12  0.649523D+00 -0.804572D+00 -0.286700D+01  0.294664D-01 -0.101935D+00
     13  0.377388D-01 -0.178475D-02 -0.176730D+00 -0.263086D+01 -0.264133D+00
     14 -0.142817D-01 -0.158363D+00  0.180059D-02 -0.279379D+00 -0.522670D+01
     15 -0.100041D+00 -0.113031D-01 -0.246115D-01 -0.156613D+01  0.129580D+00
     16 -0.170558D+01  0.842780D+00  0.455562D+00 -0.191778D+00  0.162458D+00
     17  0.837551D+00 -0.155832D+00  0.110947D+01  0.168939D+00  0.147983D+00
     18  0.467897D+00  0.112335D+01 -0.143464D+01  0.162841D+00  0.381211D+00
     19 -0.134860D+00  0.133394D+00  0.131995D+00 -0.108636D+00  0.191465D-01
     20  0.135996D+00  0.134716D+00  0.318603D+00  0.256727D-01 -0.711190D-01
     21  0.117589D+00  0.272477D+00  0.902333D-01  0.443265D-01  0.820192D-01
     22  0.617170D-01  0.872892D-01  0.351270D-01  0.356254D-01  0.629425D-01
     23  0.316342D-01  0.130882D-01  0.225880D-01  0.408155D-01  0.159872D-02
     24 -0.202178D-01 -0.135671D-01 -0.327144D-01  0.233214D-01  0.217549D-01
     25 -0.310344D-01 -0.487794D-01 -0.648929D-02 -0.466177D-01 -0.268002D-01
     26  0.128670D-01  0.110208D+00  0.435254D-01  0.940569D-02  0.682784D-01
     27  0.546032D-02 -0.212872D-01 -0.354467D-01  0.422355D-03  0.373233D-01
     28 -0.142050D-01  0.244488D-01  0.301923D-01 -0.378609D-02  0.672166D-02
     29  0.252344D-01  0.325903D-01  0.712513D-01  0.962053D-02  0.811642D-02
     30  0.273120D-01  0.629556D-01  0.474793D-01  0.712862D-02  0.112290D-01
     31 -0.243654D-02  0.141624D-01  0.352007D-01 -0.282626D-02  0.431809D-02
     32 -0.625694D-02 -0.161173D-01 -0.174744D-01 -0.762085D-02 -0.155609D-01
     33  0.159387D-01  0.192378D-01  0.188686D-01  0.152472D-01  0.752823D-02
     34 -0.148347D-01 -0.183242D-01 -0.391751D-01 -0.138999D-01 -0.102161D-01
     35  0.211152D-02 -0.471389D-02  0.152821D-01 -0.677418D-03 -0.979711D-02
     36  0.186035D-02  0.247798D-01  0.205203D-01 -0.383401D-03  0.146916D-01
                6             7             8             9            10 
      6  0.264262D+01
      7 -0.313745D-01  0.137108D+01
      8  0.427387D-02 -0.166709D+00  0.349800D+01
      9 -0.136792D+00  0.958312D+00 -0.764004D-02  0.317135D+01
     10  0.618855D-01 -0.114197D+00  0.869987D-01 -0.233399D-01  0.278223D+01
     11 -0.139911D+00  0.670830D-01  0.233423D-01  0.384292D-02  0.969603D+00
     12 -0.526488D-01 -0.296777D-02 -0.487339D-02  0.611550D-01 -0.676908D+00
     13 -0.143958D+01  0.523545D-01 -0.474311D-03 -0.656981D-01  0.160957D-01
     14  0.129731D+00 -0.517417D-02 -0.222043D-01  0.531959D-02 -0.306488D-02
     15 -0.427733D+01 -0.825167D-01  0.663369D-03  0.436317D-01  0.117055D-01
     16  0.135032D+00  0.439105D-01 -0.496736D-02 -0.259680D-01  0.335412D-02
     17  0.338338D+00  0.429737D-01 -0.621756D-02 -0.182878D-01 -0.439210D-01
     18  0.342636D-01  0.227550D-01  0.536097D-02 -0.145961D-01 -0.908126D-02
     19  0.487662D-01  0.246567D-01  0.319769D-01  0.262656D-01 -0.357267D-01
     20  0.107188D+00  0.601872D-01 -0.419396D-02  0.252903D-01 -0.233164D-01
     21  0.115702D+00  0.503352D-01  0.329277D-01 -0.378526D-02 -0.840700D-02
     22  0.607690D-01  0.302832D-01  0.141649D-01 -0.498570D-02 -0.742206D-02
     23  0.364490D-01  0.159171D-01 -0.439468D-03 -0.262579D-02 -0.105639D-02
     24 -0.117246D-01 -0.594015D-02 -0.281391D-02 -0.519840D-02  0.231756D-02
     25 -0.173369D-01 -0.836326D-02  0.340183D-04  0.189014D-02 -0.143620D-02
     26  0.802307D-01  0.211533D-01  0.101898D-01 -0.514331D-02 -0.145088D-01
     27 -0.989361D-02 -0.569758D-02 -0.185149D-02 -0.247491D-02  0.201170D-02
     28  0.913641D-02  0.394655D-02  0.156802D-02 -0.255010D-03 -0.289659D-02
     29  0.215994D-01  0.936915D-02  0.883120D-03 -0.108423D-02 -0.441801D-02
     30  0.739299D-02  0.542352D-02  0.556895D-03 -0.182505D-02 -0.300898D-02
     31  0.223963D-01  0.132306D-01  0.364593D-02  0.609976D-02 -0.829434D-02
     32 -0.116425D-01 -0.533668D-02 -0.379043D-02  0.209779D-02  0.404468D-02
     33  0.252075D-01  0.148703D-01  0.343170D-02  0.230117D-02 -0.190707D-02
     34 -0.240189D-01 -0.136522D-01 -0.947153D-03  0.102522D-02  0.467543D-02
     35  0.900779D-02  0.414818D-02 -0.527246D-03  0.514164D-02 -0.398297D-02
     36  0.259278D-01  0.115207D-01  0.715125D-02  0.289617D-02 -0.684229D-02
               11            12            13            14            15 
     11  0.205344D+01
     12  0.900261D+00  0.292087D+01
     13  0.471702D-02  0.619334D-03  0.254803D+01
     14  0.118561D-01  0.183147D-01  0.292465D+00  0.538290D+01
     15  0.127208D-01 -0.443331D-01  0.172354D+01 -0.203209D+00  0.423797D+01
     16  0.187918D-02  0.281676D-02 -0.461376D-02  0.858046D-02  0.753663D-02
     17  0.216504D-01 -0.356059D-01 -0.673493D-02  0.408891D-02  0.194599D-01
     18  0.231154D-01 -0.409846D-02 -0.218149D-01  0.188252D-01  0.234129D-01
     19  0.306840D-02  0.532082D-03 -0.951138D-02 -0.232966D-03  0.520806D-03
     20  0.601664D-01  0.301161D-01 -0.930995D-02 -0.435218D-02  0.203420D-01
     21  0.557635D-01 -0.918415D-02 -0.103403D-01  0.116434D-01  0.238547D-01
     22  0.178347D-01 -0.612812D-02 -0.101547D-01  0.790162D-02  0.146192D-01
     23  0.854969D-02 -0.289797D-02 -0.130637D-02  0.242110D-02  0.928040D-02
     24 -0.558798D-02 -0.101097D-02  0.174813D-02  0.449875D-02  0.441962D-03
     25 -0.145946D-01  0.256996D-02  0.201045D-02 -0.636042D-02 -0.872618D-02
     26  0.326416D-01 -0.796226D-02 -0.125439D-01  0.119124D-01  0.201687D-01
     27 -0.760268D-02 -0.502639D-02 -0.218041D-02  0.747393D-02  0.160421D-02
     28  0.284587D-02 -0.877685D-03 -0.188580D-02  0.594299D-03  0.197382D-02
     29  0.844039D-02 -0.163675D-02 -0.378734D-02  0.138070D-02  0.575410D-02
     30  0.426160D-02 -0.222656D-02 -0.313789D-02  0.185483D-02  0.403441D-02
     31  0.982962D-02  0.279759D-02 -0.339068D-02  0.954622D-03  0.422867D-02
     32 -0.565323D-02  0.570992D-02  0.302430D-02 -0.214504D-02 -0.405332D-02
     33  0.151522D-01  0.266765D-02 -0.305793D-02  0.189263D-02  0.652419D-02
     34 -0.135595D-01 -0.144374D-02  0.419036D-02 -0.200329D-02 -0.670716D-02
     35  0.461489D-02  0.508131D-02 -0.131724D-03 -0.802305D-03  0.596105D-03
     36  0.125403D-01  0.834529D-03 -0.336810D-02  0.185372D-02  0.480319D-02
               16            17            18            19            20 
     16  0.103514D+02
     17 -0.183129D+00  0.100657D+02
     18 -0.137475D+00 -0.424239D+00  0.766928D+01
     19 -0.464965D+01  0.269644D-01 -0.147889D+00  0.113566D+02
     20  0.242888D-01 -0.461790D+01 -0.236697D+00 -0.139107D+00  0.111110D+02
     21 -0.168583D+00 -0.273360D+00 -0.473047D+00 -0.672081D-01 -0.271367D+00
     22 -0.143805D+01  0.626176D-01 -0.957067D+00  0.845629D-01  0.120921D-01
     23  0.146760D+00 -0.334443D+01 -0.808726D-01  0.964539D-02 -0.162496D-01
     24 -0.894880D+00 -0.314503D-01 -0.292625D+01 -0.253434D-01 -0.942210D-02
     25 -0.255012D+01 -0.914774D+00  0.626494D+00  0.330886D-01 -0.427323D-01
     26 -0.100861D+01 -0.227829D+01 -0.786555D+00 -0.394961D-01  0.455758D-01
     27  0.619022D+00 -0.701673D+00 -0.292062D+01  0.228213D-02 -0.856334D-02
     28  0.327479D-01  0.404514D-01  0.380266D-01 -0.274703D+01  0.587113D+00
     29  0.387365D-01  0.110562D+00  0.899245D-01  0.587835D+00 -0.162445D+01
     30  0.230100D-01  0.580209D-01  0.409196D-01  0.355510D+00  0.830593D+00
     31  0.929598D-02 -0.537797D-01  0.421086D-01 -0.252930D+01 -0.900458D+00
     32 -0.530105D-01  0.670206D-01 -0.879192D-01 -0.862862D+00 -0.189348D+01
     33  0.135176D-01 -0.329421D-01  0.685119D-02  0.453586D+00 -0.681997D+00
     34  0.991276D-01  0.228419D-01 -0.867946D-01 -0.128417D+01  0.269574D+00
     35  0.242346D-01 -0.143685D-01 -0.255084D-01  0.229667D+00 -0.311977D+01
     36 -0.295917D-01 -0.772859D-02 -0.147630D-02 -0.779018D+00 -0.124085D+00
               21            22            23            24            25 
     21  0.858312D+01
     22 -0.708427D-01  0.129812D+01
     23 -0.708674D-02 -0.319483D+00  0.331545D+01
     24 -0.148651D-01  0.967084D+00  0.425437D-01  0.293969D+01
     25  0.359238D-01 -0.899237D-01  0.728911D-01 -0.209679D-01  0.268475D+01
     26 -0.379745D-01  0.462437D-01  0.234022D-01  0.289474D-02  0.100036D+01
     27 -0.185550D-01  0.113766D-01 -0.108661D-01  0.495524D-01 -0.645684D+00
     28  0.344454D+00  0.972281D-03  0.201692D-02  0.843269D-02  0.600994D-02
     29  0.805336D+00 -0.919863D-02  0.452632D-02  0.400128D-03  0.772693D-02
     30 -0.251348D+01 -0.840931D-03 -0.606678D-02 -0.129878D-01 -0.856585D-03
     31  0.402662D+00 -0.259395D-02 -0.363706D-02  0.676101D-02  0.473719D-02
     32 -0.578827D+00  0.113557D-01  0.332856D-02 -0.424786D-02 -0.226166D-01
     33 -0.287452D+01 -0.640087D-02  0.482310D-02 -0.499598D-02  0.248308D-01
     34 -0.669909D+00  0.368672D-01  0.580227D-02 -0.423157D-01 -0.310345D-02
     35 -0.915505D-01  0.623923D-02 -0.112433D-01 -0.500303D-02 -0.435982D-02
     36 -0.290548D+01 -0.427101D-01 -0.526832D-02  0.200639D-01  0.835266D-02
               26            27            28            29            30 
     26  0.195604D+01
     27  0.729803D+00  0.293705D+01
     28 -0.428732D-02 -0.310516D-02  0.272909D+01
     29 -0.302420D-02  0.677194D-02 -0.629373D+00  0.152066D+01
     30 -0.571765D-02 -0.941319D-02 -0.418631D+00 -0.977446D+00  0.239121D+01
     31 -0.213460D-01  0.235497D-01  0.262474D-01 -0.120982D-01  0.572157D-02
     32  0.189846D-01 -0.324613D-01  0.323887D-01 -0.575227D-01  0.990224D-02
     33 -0.333375D-01  0.199163D-01  0.114067D-01 -0.174303D-01  0.241654D-01
     34  0.107586D-01 -0.745783D-02 -0.292128D-01 -0.196478D-01  0.236916D-02
     35  0.408480D-02  0.293332D-02 -0.644880D-01 -0.216381D-02  0.985637D-02
     36  0.679847D-04 -0.668876D-02 -0.207542D-01 -0.344015D-02  0.247302D-01
               31            32            33            34            35 
     31  0.256177D+01
     32  0.885561D+00  0.188379D+01
     33 -0.540716D+00  0.722641D+00  0.273697D+01
     34 -0.664398D-01  0.213289D-01  0.268447D-02  0.128045D+01
     35  0.728466D-01  0.211463D-01 -0.899951D-02 -0.265608D+00  0.313354D+01
     36 -0.108096D-01 -0.372495D-02  0.360431D-01  0.871743D+00  0.831628D-01
               36 
     36  0.277782D+01
 ICntrl=    100127.
 Calling FoFJK, ICntrl=    100127 FMM=F ISym2X=0 I1Cent= 0 IOpClX= 1 NMat=1 NMatS=1 NMatT=0.
 FoFJK:  IHMeth= 1 ICntrl=  100127 DoSepK=T KAlg= 0 I1Cent=   0 FoldK=F
 IRaf=         1 NMat=   1 IRICut=       1 DoRegI=T DoRafI=F ISym2E= 0.
 FoFCou: FMM=F IPFlag=           0 FMFlag=      100000 FMFlg1=         800
         NFxFlg=           0 DoJE=F BraDBF=F KetDBF=F FulRan=T
         wScrn=  0.000000 ICntrl=  100527 IOpCl=  0 I1Cent=           0 NGrid=           0
         NMat0=    1 NMatS0=      1 NMatT0=    0 NMatD0=    1 NMtDS0=    0 NMtDT0=    0
 Symmetry not used in FoFCou.
 FoFCou:  KetSym=F NOpSet=  1 NOpAb=1 NOp=  1.
 FoFCou:  CnvScl= 1.00D+00 Thresh= 1.00D-10 IAcrcy=      10.
 PrismS was handed   418912262 working-precision words and  4971 shell-pairs
 FoFCou: LinMIO=F DoNuc=F BraDBF=F KetDBF=F HaveP=T PDBF=F HaveZ=T HaveW=F
         NIJTC =      10 NIJTAt=       0 NIJTCD=       0 NIJTT =      10
         IJTBeg=       1 IJTEnd=      10 KLTBeg=       1 KLTEnd=      10
         IPTBeg=       1 IPTEnd=      10 IPTBCv=       1 IPTECv=      10
         IZTBeg=       1 IZTEnd=      10 IZTBCv=       1 IZTECv=      10
         IWTBeg=      11 IWTEnd=      10 IWTBCv=      11 IWTECv=      10
         INTBeg=       1 INTEnd=       0 IFTBCv=       1 IFTECv=      10
 NCel replicated for PrismC:     1
 CoulSu:  IncDef=  1024 NBBP=       12357906 NTPThr=   100 NPartT=   32 Incr=        1024 LDynOK=F.
 CoulSu:  NPrtUS=  32 ThrOK=T IAlg=1 NPAlg=1 LenDen=           0 LWGrdD=           0 DoCopy=F.
 Enter PrismC: JobTyp=22 DoJE=F Cont=F.
 Enter PrismC: JobTyp=22 DoJE=F Cont=F.
 PrismC was handed    12996545 working-precision words and  4971 shell-pairs
 Enter PrismC: JobTyp=22 DoJE=F Cont=F.
 PrismC was handed    12996545 working-precision words and  4971 shell-pairs
 Enter PrismC: JobTyp=22 DoJE=F Cont=F.
 Enter PrismC: JobTyp=22 DoJE=F Cont=F.
 Enter PrismC: JobTyp=22 DoJE=F Cont=F.
 PrismC was handed    12996545 working-precision words and  4971 shell-pairs
 Enter PrismC: JobTyp=22 DoJE=F Cont=F.
 Enter PrismC: JobTyp=22 DoJE=F Cont=F.
 Enter PrismC: JobTyp=22 DoJE=F Cont=F.
 PrismC was handed    12996545 working-precision words and  4971 shell-pairs
 Enter PrismC: JobTyp=22 DoJE=F Cont=F.
 Enter PrismC: JobTyp=22 DoJE=F Cont=F.
 Enter PrismC: JobTyp=22 DoJE=F Cont=F.
 PrismC:  IPart=     0 DynPar=T LinDyn=F Incr=        1024 UseFst=F UseS4=T IGathr=2.
 PrismC was handed    12996545 working-precision words and  4971 shell-pairs
 Enter PrismC: JobTyp=22 DoJE=F Cont=F.
 PrismC was handed    12996545 working-precision words and  4971 shell-pairs
 Enter PrismC: JobTyp=22 DoJE=F Cont=F.
 Enter PrismC: JobTyp=22 DoJE=F Cont=F.
 Enter PrismC: JobTyp=22 DoJE=F Cont=F.
 PrismC was handed    12996545 working-precision words and  4971 shell-pairs
 Enter PrismC: JobTyp=22 DoJE=F Cont=F.
 PrismC was handed    12996545 working-precision words and  4971 shell-pairs
 Enter PrismC: JobTyp=22 DoJE=F Cont=F.
 PrismC was handed    12996545 working-precision words and  4971 shell-pairs
 Enter PrismC: JobTyp=22 DoJE=F Cont=F.
 PrismC was handed    12996545 working-precision words and  4971 shell-pairs
 Enter PrismC: JobTyp=22 DoJE=F Cont=F.
 PrismC was handed    12996545 working-precision words and  4971 shell-pairs
 Enter PrismC: JobTyp=22 DoJE=F Cont=F.
 Enter PrismC: JobTyp=22 DoJE=F Cont=F.
 Enter PrismC: JobTyp=22 DoJE=F Cont=F.
 PrismC was handed    12996545 working-precision words and  4971 shell-pairs
 PrismC was handed    12996545 working-precision words and  4971 shell-pairs
 Enter PrismC: JobTyp=22 DoJE=F Cont=F.
 Enter PrismC: JobTyp=22 DoJE=F Cont=F.
 PrismC was handed    12996545 working-precision words and  4971 shell-pairs
 PrismC was handed    12996545 working-precision words and  4971 shell-pairs
 PrismC was handed    12996545 working-precision words and  4971 shell-pairs
 Enter PrismC: JobTyp=22 DoJE=F Cont=F.
 PrismC was handed    12996545 working-precision words and  4971 shell-pairs
 PrismC was handed    12996545 working-precision words and  4971 shell-pairs
 PrismC was handed    12996545 working-precision words and  4971 shell-pairs
 PrismC was handed    12996545 working-precision words and  4971 shell-pairs
 PrismC was handed    12996545 working-precision words and  4971 shell-pairs
 Enter PrismC: JobTyp=22 DoJE=F Cont=F.
 Enter PrismC: JobTyp=22 DoJE=F Cont=F.
 PrismC was handed    12996545 working-precision words and  4971 shell-pairs
 PrismC was handed    12996545 working-precision words and  4971 shell-pairs
 Enter PrismC: JobTyp=22 DoJE=F Cont=F.
 Enter PrismC: JobTyp=22 DoJE=F Cont=F.
 Enter PrismC: JobTyp=22 DoJE=F Cont=F.
 Enter PrismC: JobTyp=22 DoJE=F Cont=F.
 PrismC was handed    12996545 working-precision words and  4971 shell-pairs
 PrismC was handed    12996545 working-precision words and  4971 shell-pairs
 PrismC was handed    12996545 working-precision words and  4971 shell-pairs
 PrismC was handed    12996545 working-precision words and  4971 shell-pairs
 PrismC was handed    12996545 working-precision words and  4971 shell-pairs
 PrismC was handed    12996545 working-precision words and  4971 shell-pairs
 PrismC was handed    12996545 working-precision words and  4971 shell-pairs
 PrismC was handed    12996545 working-precision words and  4971 shell-pairs
 PrismC was handed    12996545 working-precision words and  4971 shell-pairs
 IPart=  9 NShTot=      320682 NShNF=      320682 NShFF=           0 NBatch=        6866 AvBLen=        46.7
 IPart= 12 NShTot=      268501 NShNF=      268501 NShFF=           0 NBatch=        6169 AvBLen=        43.5
 IPart= 18 NShTot=      331316 NShNF=      331316 NShFF=           0 NBatch=        7031 AvBLen=        47.1
 IPart=  1 NShTot=      306989 NShNF=      306989 NShFF=           0 NBatch=        6250 AvBLen=        49.1
 IPart=  3 NShTot=      337745 NShNF=      337745 NShFF=           0 NBatch=        6752 AvBLen=        50.0
 IPart= 16 NShTot=      339083 NShNF=      339083 NShFF=           0 NBatch=        6751 AvBLen=        50.2
 IPart= 15 NShTot=      310432 NShNF=      310432 NShFF=           0 NBatch=        6713 AvBLen=        46.2
 IPart= 24 NShTot=      326785 NShNF=      326785 NShFF=           0 NBatch=        6890 AvBLen=        47.4
 IPart= 11 NShTot=      334188 NShNF=      334188 NShFF=           0 NBatch=        6963 AvBLen=        48.0
 IPart=  0 NShTot=      305505 NShNF=      305505 NShFF=           0 NBatch=        6768 AvBLen=        45.1
 IPart= 30 NShTot=      319771 NShNF=      319771 NShFF=           0 NBatch=        6816 AvBLen=        46.9
 IPart= 19 NShTot=      316354 NShNF=      316354 NShFF=           0 NBatch=        6897 AvBLen=        45.9
 IPart= 28 NShTot=      317803 NShNF=      317803 NShFF=           0 NBatch=        6907 AvBLen=        46.0
 IPart= 29 NShTot=      294348 NShNF=      294348 NShFF=           0 NBatch=        6541 AvBLen=        45.0
 IPart= 27 NShTot=      310750 NShNF=      310750 NShFF=           0 NBatch=        6237 AvBLen=        49.8
 IPart= 14 NShTot=      295841 NShNF=      295841 NShFF=           0 NBatch=        6173 AvBLen=        47.9
 IPart=  8 NShTot=      326615 NShNF=      326615 NShFF=           0 NBatch=        6887 AvBLen=        47.4
 IPart= 20 NShTot=      267949 NShNF=      267949 NShFF=           0 NBatch=        5915 AvBLen=        45.3
 IPart=  7 NShTot=      301129 NShNF=      301129 NShFF=           0 NBatch=        6093 AvBLen=        49.4
 IPart= 23 NShTot=      301021 NShNF=      301021 NShFF=           0 NBatch=        5957 AvBLen=        50.5
 IPart=  5 NShTot=      300912 NShNF=      300912 NShFF=           0 NBatch=        6425 AvBLen=        46.8
 IPart= 21 NShTot=      312581 NShNF=      312581 NShFF=           0 NBatch=        6669 AvBLen=        46.9
 IPart= 13 NShTot=      271945 NShNF=      271945 NShFF=           0 NBatch=        6633 AvBLen=        41.0
 IPart= 17 NShTot=      305638 NShNF=      305638 NShFF=           0 NBatch=        6933 AvBLen=        44.1
 IPart= 10 NShTot=      317487 NShNF=      317487 NShFF=           0 NBatch=        6799 AvBLen=        46.7
 IPart= 25 NShTot=      303473 NShNF=      303473 NShFF=           0 NBatch=        6147 AvBLen=        49.4
 IPart=  4 NShTot=      285423 NShNF=      285423 NShFF=           0 NBatch=        6259 AvBLen=        45.6
 IPart= 26 NShTot=      305927 NShNF=      305927 NShFF=           0 NBatch=        6162 AvBLen=        49.6
 IPart=  2 NShTot=      323113 NShNF=      323113 NShFF=           0 NBatch=        6933 AvBLen=        46.6
 IPart= 31 NShTot=      316779 NShNF=      316779 NShFF=           0 NBatch=        6737 AvBLen=        47.0
 IPart=  6 NShTot=      324800 NShNF=      324800 NShFF=           0 NBatch=        6618 AvBLen=        49.1
 IPart= 22 NShTot=      294810 NShNF=      294810 NShFF=           0 NBatch=        6711 AvBLen=        43.9
 CoulSu:  NxtVal=       13363201.
 FoFCou: FMM=F IPFlag=           0 FMFlag=      100000 FMFlg1=         800
         NFxFlg=           0 DoJE=F BraDBF=F KetDBF=F FulRan=T
         wScrn=  0.000000 ICntrl=  100127 IOpCl=  1 I1Cent=           0 NGrid=           0
         NMat0=    1 NMatS0=      0 NMatT0=    1 NMatD0=    1 NMtDS0=    0 NMtDT0=    0
         CW=    0.222036    0.777964
         WU=    0.000000   12.500000
 Symmetry not used in FoFCou.
 FoFCou:  KetSym=F NOpSet=  1 NOpAb=1 NOp=  1.
 FoFCou:  CnvScl= 1.00D+00 Thresh= 1.00D-10 IAcrcy=      10.
 PrismS was handed   418907296 working-precision words and  4971 shell-pairs
 FoFCou: LinMIO=F DoNuc=F BraDBF=F KetDBF=F HaveP=T PDBF=F HaveZ=T HaveW=F
         NIJTC =      10 NIJTAt=       0 NIJTCD=       0 NIJTT =      10
         IJTBeg=       1 IJTEnd=      10 KLTBeg=       1 KLTEnd=      10
         IPTBeg=       1 IPTEnd=      10 IPTBCv=       1 IPTECv=      10
         IZTBeg=       1 IZTEnd=      10 IZTBCv=       1 IZTECv=      10
         IWTBeg=      11 IWTEnd=      10 IWTBCv=      11 IWTECv=      10
         INTBeg=       1 INTEnd=       0 IFTBCv=       1 IFTECv=      10
 NCel replicated for PrismC:     1
 CoulSu:  IncDef=  1024 NBBP=       12357906 NTPThr=   100 NPartT=   32 Incr=        1024 LDynOK=F.
 CoulSu:  NPrtUS=  32 ThrOK=T IAlg=1 NPAlg=1 LenDen=           0 LWGrdD=           0 DoCopy=F.
 Enter PrismC: JobTyp=22 DoJE=F Cont=F.
 Enter PrismC: JobTyp=22 DoJE=F Cont=F.
 Enter PrismC: JobTyp=22 DoJE=F Cont=F.
 Enter PrismC: JobTyp=22 DoJE=F Cont=F.
 Enter PrismC: JobTyp=22 DoJE=F Cont=F.
 Linear combination for Coulomb/exchange, wScrn=  0.000000
 CW=    0.222036    0.777964
 WU=    0.000000   12.500000
 Enter PrismC: JobTyp=22 DoJE=F Cont=F.
 Linear combination for Coulomb/exchange, wScrn=  0.000000
 CW=    0.222036    0.777964
 WU=    0.000000   12.500000
 PrismC was handed    12996390 working-precision words and  4971 shell-pairs
 Enter PrismC: JobTyp=22 DoJE=F Cont=F.
 Enter PrismC: JobTyp=22 DoJE=F Cont=F.
 Enter PrismC: JobTyp=22 DoJE=F Cont=F.
 Linear combination for Coulomb/exchange, wScrn=  0.000000
 CW=    0.222036    0.777964
 WU=    0.000000   12.500000
 Enter PrismC: JobTyp=22 DoJE=F Cont=F.
 Linear combination for Coulomb/exchange, wScrn=  0.000000
 CW=    0.222036    0.777964
 WU=    0.000000   12.500000
 Enter PrismC: JobTyp=22 DoJE=F Cont=F.
 Linear combination for Coulomb/exchange, wScrn=  0.000000
 CW=    0.222036    0.777964
 WU=    0.000000   12.500000
 PrismC was handed    12996390 working-precision words and  4971 shell-pairs
 Enter PrismC: JobTyp=22 DoJE=F Cont=F.
 Linear combination for Coulomb/exchange, wScrn=  0.000000
 CW=    0.222036    0.777964
 WU=    0.000000   12.500000
 PrismC was handed    12996390 working-precision words and  4971 shell-pairs
 Enter PrismC: JobTyp=22 DoJE=F Cont=F.
 Enter PrismC: JobTyp=22 DoJE=F Cont=F.
 Linear combination for Coulomb/exchange, wScrn=  0.000000
 CW=    0.222036    0.777964
 WU=    0.000000   12.500000
 PrismC was handed    12996390 working-precision words and  4971 shell-pairs
 Enter PrismC: JobTyp=22 DoJE=F Cont=F.
 Linear combination for Coulomb/exchange, wScrn=  0.000000
 CW=    0.222036    0.777964
 WU=    0.000000   12.500000
 Enter PrismC: JobTyp=22 DoJE=F Cont=F.
 Linear combination for Coulomb/exchange, wScrn=  0.000000
 CW=    0.222036    0.777964
 WU=    0.000000   12.500000
 PrismC was handed    12996390 working-precision words and  4971 shell-pairs
 Linear combination for Coulomb/exchange, wScrn=  0.000000
 CW=    0.222036    0.777964
 WU=    0.000000   12.500000
 Linear combination for Coulomb/exchange, wScrn=  0.000000
 CW=    0.222036    0.777964
 WU=    0.000000   12.500000
 PrismC was handed    12996390 working-precision words and  4971 shell-pairs
 Enter PrismC: JobTyp=22 DoJE=F Cont=F.
 Linear combination for Coulomb/exchange, wScrn=  0.000000
 CW=    0.222036    0.777964
 WU=    0.000000   12.500000
 Enter PrismC: JobTyp=22 DoJE=F Cont=F.
 Linear combination for Coulomb/exchange, wScrn=  0.000000
 CW=    0.222036    0.777964
 WU=    0.000000   12.500000
 Linear combination for Coulomb/exchange, wScrn=  0.000000
 CW=    0.222036    0.777964
 WU=    0.000000   12.500000
 PrismC was handed    12996390 working-precision words and  4971 shell-pairs
 Linear combination for Coulomb/exchange, wScrn=  0.000000
 CW=    0.222036    0.777964
 WU=    0.000000   12.500000
 Enter PrismC: JobTyp=22 DoJE=F Cont=F.
 Linear combination for Coulomb/exchange, wScrn=  0.000000
 CW=    0.222036    0.777964
 WU=    0.000000   12.500000
 Enter PrismC: JobTyp=22 DoJE=F Cont=F.
 Linear combination for Coulomb/exchange, wScrn=  0.000000
 CW=    0.222036    0.777964
 Enter PrismC: JobTyp=22 DoJE=F Cont=F.
 Linear combination for Coulomb/exchange, wScrn=  0.000000
 CW=    0.222036    0.777964
 WU=    0.000000   12.500000
 Enter PrismC: JobTyp=22 DoJE=F Cont=F.
 Linear combination for Coulomb/exchange, wScrn=  0.000000
 CW=    0.222036    0.777964
 WU=    0.000000   12.500000
 PrismC was handed    12996390 working-precision words and  4971 shell-pairs
 PrismC was handed    12996390 working-precision words and  4971 shell-pairs
 Enter PrismC: JobTyp=22 DoJE=F Cont=F.
 Linear combination for Coulomb/exchange, wScrn=  0.000000
 CW=    0.222036    0.777964
 WU=    0.000000   12.500000
 Enter PrismC: JobTyp=22 DoJE=F Cont=F.
 Linear combination for Coulomb/exchange, wScrn=  0.000000
 CW=    0.222036    0.777964
 WU=    0.000000   12.500000
 PrismC was handed    12996390 working-precision words and  4971 shell-pairs
 PrismC was handed    12996390 working-precision words and  4971 shell-pairs
 Linear combination for Coulomb/exchange, wScrn=  0.000000
 CW=    0.222036    0.777964
 WU=    0.000000   12.500000
 WU=    0.000000   12.500000
 PrismC was handed    12996390 working-precision words and  4971 shell-pairs
 Linear combination for Coulomb/exchange, wScrn=  0.000000
 CW=    0.222036    0.777964
 WU=    0.000000   12.500000
 PrismC was handed    12996390 working-precision words and  4971 shell-pairs
 Enter PrismC: JobTyp=22 DoJE=F Cont=F.
 Linear combination for Coulomb/exchange, wScrn=  0.000000
 CW=    0.222036    0.777964
 WU=    0.000000   12.500000
 PrismC was handed    12996390 working-precision words and  4971 shell-pairs
 PrismC was handed    12996390 working-precision words and  4971 shell-pairs
 Enter PrismC: JobTyp=22 DoJE=F Cont=F.
 Linear combination for Coulomb/exchange, wScrn=  0.000000
 CW=    0.222036    0.777964
 WU=    0.000000   12.500000
 PrismC was handed    12996390 working-precision words and  4971 shell-pairs
 PrismC was handed    12996390 working-precision words and  4971 shell-pairs
 PrismC was handed    12996390 working-precision words and  4971 shell-pairs
 Enter PrismC: JobTyp=22 DoJE=F Cont=F.
 Linear combination for Coulomb/exchange, wScrn=  0.000000
 CW=    0.222036    0.777964
 WU=    0.000000   12.500000
 PrismC was handed    12996390 working-precision words and  4971 shell-pairs
 Enter PrismC: JobTyp=22 DoJE=F Cont=F.
 Linear combination for Coulomb/exchange, wScrn=  0.000000
 CW=    0.222036    0.777964
 WU=    0.000000   12.500000
 PrismC was handed    12996390 working-precision words and  4971 shell-pairs
 Enter PrismC: JobTyp=22 DoJE=F Cont=F.
 Linear combination for Coulomb/exchange, wScrn=  0.000000
 CW=    0.222036    0.777964
 WU=    0.000000   12.500000
 PrismC was handed    12996390 working-precision words and  4971 shell-pairs
 Enter PrismC: JobTyp=22 DoJE=F Cont=F.
 Linear combination for Coulomb/exchange, wScrn=  0.000000
 CW=    0.222036    0.777964
 WU=    0.000000   12.500000
 PrismC was handed    12996390 working-precision words and  4971 shell-pairs
 PrismC:  IPart=     0 DynPar=T LinDyn=F Incr=        1024 UseFst=F UseS4=T IGathr=2.
 PrismC was handed    12996390 working-precision words and  4971 shell-pairs
 PrismC was handed    12996390 working-precision words and  4971 shell-pairs
 Enter PrismC: JobTyp=22 DoJE=F Cont=F.
 Linear combination for Coulomb/exchange, wScrn=  0.000000
 CW=    0.222036    0.777964
 WU=    0.000000   12.500000
 PrismC was handed    12996390 working-precision words and  4971 shell-pairs
 PrismC was handed    12996390 working-precision words and  4971 shell-pairs
 PrismC was handed    12996390 working-precision words and  4971 shell-pairs
 PrismC was handed    12996390 working-precision words and  4971 shell-pairs
 PrismC was handed    12996390 working-precision words and  4971 shell-pairs
 Enter PrismC: JobTyp=22 DoJE=F Cont=F.
 Linear combination for Coulomb/exchange, wScrn=  0.000000
 CW=    0.222036    0.777964
 WU=    0.000000   12.500000
 PrismC was handed    12996390 working-precision words and  4971 shell-pairs
 Linear combination for Coulomb/exchange, wScrn=  0.000000
 CW=    0.222036    0.777964
 WU=    0.000000   12.500000
 PrismC was handed    12996390 working-precision words and  4971 shell-pairs
 PrismC was handed    12996390 working-precision words and  4971 shell-pairs
 IPart= 10 NShTot=      233885 NShNF=      233885 NShFF=           0 NBatch=        6719 AvBLen=        34.8
 IPart= 21 NShTot=      427290 NShNF=      427290 NShFF=           0 NBatch=        9261 AvBLen=        46.1
 IPart= 24 NShTot=      348412 NShNF=      348412 NShFF=           0 NBatch=        9221 AvBLen=        37.8
 IPart=  2 NShTot=      404326 NShNF=      404326 NShFF=           0 NBatch=       10129 AvBLen=        39.9
 IPart= 26 NShTot=      267134 NShNF=      267134 NShFF=           0 NBatch=        7614 AvBLen=        35.1
 IPart= 27 NShTot=      247549 NShNF=      247549 NShFF=           0 NBatch=        6611 AvBLen=        37.4
 IPart= 19 NShTot=      237733 NShNF=      237733 NShFF=           0 NBatch=        6337 AvBLen=        37.5
 IPart= 25 NShTot=      278191 NShNF=      278191 NShFF=           0 NBatch=        7107 AvBLen=        39.1
 IPart= 13 NShTot=      257742 NShNF=      257742 NShFF=           0 NBatch=        6744 AvBLen=        38.2
 IPart= 31 NShTot=      267906 NShNF=      267906 NShFF=           0 NBatch=        7006 AvBLen=        38.2
 IPart= 11 NShTot=      218712 NShNF=      218712 NShFF=           0 NBatch=        6369 AvBLen=        34.3
 IPart= 14 NShTot=      258116 NShNF=      258116 NShFF=           0 NBatch=        7013 AvBLen=        36.8
 IPart=  8 NShTot=      229588 NShNF=      229588 NShFF=           0 NBatch=        6066 AvBLen=        37.8
 IPart= 12 NShTot=      333741 NShNF=      333741 NShFF=           0 NBatch=        8604 AvBLen=        38.8
 IPart= 23 NShTot=      292929 NShNF=      292929 NShFF=           0 NBatch=        7742 AvBLen=        37.8
 IPart= 16 NShTot=      339604 NShNF=      339604 NShFF=           0 NBatch=        8731 AvBLen=        38.9
 IPart= 20 NShTot=      259052 NShNF=      259052 NShFF=           0 NBatch=        7007 AvBLen=        37.0
 IPart= 29 NShTot=      257191 NShNF=      257191 NShFF=           0 NBatch=        7279 AvBLen=        35.3
 IPart= 30 NShTot=      375340 NShNF=      375340 NShFF=           0 NBatch=        9074 AvBLen=        41.4
 IPart=  6 NShTot=      356922 NShNF=      356922 NShFF=           0 NBatch=        9420 AvBLen=        37.9
 IPart= 18 NShTot=      364959 NShNF=      364959 NShFF=           0 NBatch=        9480 AvBLen=        38.5
 IPart=  3 NShTot=      333320 NShNF=      333320 NShFF=           0 NBatch=        9008 AvBLen=        37.0
 IPart=  0 NShTot=      355154 NShNF=      355154 NShFF=           0 NBatch=        9272 AvBLen=        38.3
 IPart= 28 NShTot=      258899 NShNF=      258899 NShFF=           0 NBatch=        6390 AvBLen=        40.5
 IPart= 17 NShTot=      326217 NShNF=      326217 NShFF=           0 NBatch=        9003 AvBLen=        36.2
 IPart= 22 NShTot=      308542 NShNF=      308542 NShFF=           0 NBatch=        7940 AvBLen=        38.9
 IPart=  1 NShTot=      369234 NShNF=      369234 NShFF=           0 NBatch=        9409 AvBLen=        39.2
 IPart=  9 NShTot=      383731 NShNF=      383731 NShFF=           0 NBatch=       10210 AvBLen=        37.6
 IPart= 15 NShTot=      248350 NShNF=      248350 NShFF=           0 NBatch=        7113 AvBLen=        34.9
 IPart=  5 NShTot=      406840 NShNF=      406840 NShFF=           0 NBatch=        9058 AvBLen=        44.9
 IPart=  4 NShTot=      331406 NShNF=      331406 NShFF=           0 NBatch=        8075 AvBLen=        41.0
 IPart=  7 NShTot=      273857 NShNF=      273857 NShFF=           0 NBatch=        7065 AvBLen=        38.8
 CoulSu:  NxtVal=       13363201.
 ReadGW:  IGet=0 IStart=           1 Next=           1 LGW=           0.
 Remaining memory in FofDFT      399.83 Mw
 CkSvGd:  ISavGI=        -1 IRadAn=       5 IRASav=       5 ISavGd=        -1.
 CalDSu:  NPrtUS=  32 ThrOK=T IAlg=1 NPAlg=2 DoDPD=T LenP=       45150 LenD1P=             0.
 IPart=  0 IRanGd=          0 ScrnBf=T ScrnGd=T RCrit=4.00D+00 DoMicB=T.
 IPart= 29         7190 of         8948 points in      15 batches and       46 microbatches, Max-NSigAt=      12 Max-NSgAt2=      12
 IPart= 28         6395 of         7134 points in      12 batches and       46 microbatches, Max-NSigAt=      12 Max-NSgAt2=      12
 IPart= 12         6274 of         7158 points in      12 batches and       63 microbatches, Max-NSigAt=      12 Max-NSgAt2=      12
 IPart= 15         7713 of         9676 points in      17 batches and       47 microbatches, Max-NSigAt=      12 Max-NSgAt2=      12
 IPart= 18         8115 of         9862 points in      17 batches and       39 microbatches, Max-NSigAt=      12 Max-NSgAt2=      12
 IPart= 25         7341 of         7556 points in      13 batches and       32 microbatches, Max-NSigAt=      12 Max-NSgAt2=      12
 IPart=  7         7911 of         8304 points in      14 batches and       34 microbatches, Max-NSigAt=      12 Max-NSgAt2=      12
 IPart= 17         9134 of        10584 points in      19 batches and       66 microbatches, Max-NSigAt=      12 Max-NSgAt2=      12
 IPart= 23         6233 of         7136 points in      12 batches and       61 microbatches, Max-NSigAt=      12 Max-NSgAt2=      12
 IPart= 30         7218 of         7524 points in      13 batches and       39 microbatches, Max-NSigAt=      12 Max-NSgAt2=      12
 IPart=  3         7475 of         8034 points in      14 batches and       46 microbatches, Max-NSigAt=      12 Max-NSgAt2=      12
 IPart= 21         7566 of         8630 points in      15 batches and       66 microbatches, Max-NSigAt=      12 Max-NSgAt2=      12
 IPart=  2         6126 of         7752 points in      13 batches and       56 microbatches, Max-NSigAt=      12 Max-NSgAt2=      12
 IPart= 11         7371 of         7690 points in      14 batches and       36 microbatches, Max-NSigAt=      12 Max-NSgAt2=      12
 IPart= 10         7987 of         9114 points in      16 batches and       56 microbatches, Max-NSigAt=      12 Max-NSgAt2=      12
 IPart= 14         8372 of         8952 points in      15 batches and       28 microbatches, Max-NSigAt=      12 Max-NSgAt2=      12
 IPart=  9         8736 of         9962 points in      17 batches and       49 microbatches, Max-NSigAt=      12 Max-NSgAt2=      12
 IPart=  0         8084 of         8326 points in      15 batches and       27 microbatches, Max-NSigAt=      12 Max-NSgAt2=      12
 IPart= 24         7759 of         8120 points in      14 batches and       40 microbatches, Max-NSigAt=      12 Max-NSgAt2=      12
 IPart=  8         7275 of         8656 points in      15 batches and       45 microbatches, Max-NSigAt=      12 Max-NSgAt2=      12
 IPart= 22         8354 of         9304 points in      16 batches and       44 microbatches, Max-NSigAt=      12 Max-NSgAt2=      12
 IPart= 26         7058 of         8790 points in      15 batches and       60 microbatches, Max-NSigAt=      12 Max-NSgAt2=      12
 IPart= 13         9155 of        10926 points in      19 batches and       43 microbatches, Max-NSigAt=      12 Max-NSgAt2=      12
 IPart= 20         7589 of         9562 points in      16 batches and       51 microbatches, Max-NSigAt=      12 Max-NSgAt2=      12
 IPart=  4         6916 of         7550 points in      13 batches and       50 microbatches, Max-NSigAt=      12 Max-NSgAt2=      12
 IPart=  6         8252 of         8714 points in      15 batches and       43 microbatches, Max-NSigAt=      12 Max-NSgAt2=      12
 IPart=  5         7672 of         8948 points in      15 batches and       66 microbatches, Max-NSigAt=      12 Max-NSgAt2=      12
 IPart= 16         8449 of         9336 points in      16 batches and       63 microbatches, Max-NSigAt=      12 Max-NSgAt2=      12
 IPart= 31         6413 of         7960 points in      14 batches and       75 microbatches, Max-NSigAt=      12 Max-NSgAt2=      12
 IPart=  1         6468 of         7148 points in      12 batches and       48 microbatches, Max-NSigAt=      12 Max-NSgAt2=      12
 IPart= 27         7941 of         8318 points in      14 batches and       50 microbatches, Max-NSigAt=      12 Max-NSgAt2=      12
 IPart= 19         6620 of         8772 points in      15 batches and       78 microbatches, Max-NSigAt=      12 Max-NSgAt2=      12
 Polarizability after L703:
                1             2             3 
      1  0.452835D+02
      2  0.772872D+01  0.614208D+02
      3  0.458670D+01  0.135439D+02  0.594386D+02
 Dipole Derivatives after L703:
                 1             2             3             4             5 
      1   0.284875D+00  0.890386D-01  0.208579D+00 -0.251772D+00 -0.489085D-01
      2   0.109799D+00  0.573022D+00  0.628346D+00 -0.499072D-02 -0.577664D+00
      3   0.104996D+00  0.299369D+00  0.130119D+01  0.506357D-01 -0.160790D+00
                 6             7             8             9            10 
      1  -0.196208D+00 -0.926732D-01 -0.471807D-01  0.225911D-01 -0.317280D-01
      2  -0.656425D+00 -0.468197D-01 -0.368385D-01  0.206179D-02  0.218146D-01
      3  -0.150448D+01  0.475552D-01 -0.668668D-01  0.355961D-03 -0.117261D+00
                11            12            13            14            15 
      1   0.275155D-01 -0.197182D-01  0.141813D+00  0.872579D-02 -0.173145D-01
      2  -0.191699D+00  0.365126D-01 -0.349451D-01  0.365023D+00  0.323779D-01
      3  -0.263652D-01 -0.635098D-01 -0.462179D-01  0.580240D-01  0.316869D+00
                16            17            18            19            20 
      1   0.105180D+00  0.233880D-02  0.425352D-01  0.535111D-01 -0.495255D-01
      2  -0.153707D-02  0.915167D-01  0.101875D+00 -0.591244D-01 -0.532252D-01
      3  -0.139661D-01 -0.426179D-02  0.148937D+00 -0.447714D-01 -0.111455D+00
                21            22            23            24            25 
      1  -0.659501D-03 -0.135271D+00 -0.398880D-01  0.531399D-01 -0.934714D-02
      2  -0.933241D-02 -0.585379D-01 -0.150388D-01 -0.724187D-02  0.561394D-01
      3   0.281311D-01  0.643945D-01 -0.391580D-01 -0.519494D-01 -0.595945D-01
                26            27            28            29            30 
      1   0.429459D-01 -0.311385D-01  0.515398D-01 -0.646770D-01 -0.647200D-01
      2  -0.115347D+00  0.270923D-01 -0.635472D-01 -0.721966D-01 -0.163544D+00
      3   0.155576D-01 -0.441278D-01 -0.434070D-01 -0.104070D+00 -0.111844D+00
                31            32            33            34            35 
      1   0.262741D-02  0.105007D+00 -0.298893D-01 -0.118755D+00 -0.253914D-01
      2   0.907317D-01 -0.457598D-01  0.181045D-01 -0.898296D-02  0.782074D-01
      3  -0.463669D-01  0.105479D+00 -0.113026D-01  0.104004D+00  0.345371D-01
                36 
      1   0.328031D-01
      2  -0.982624D-02
      3  -0.827311D-02
 Hessian after L703:
                1             2             3             4             5 
      1  0.606018D+00
      2 -0.166749D+00  0.245542D+00
      3 -0.666983D-01 -0.132401D+00  0.520519D+00
      4 -0.100451D+00  0.110155D-01  0.208679D-01  0.575156D+00
      5  0.123501D-01 -0.495370D-01 -0.215075D-04 -0.456106D-01  0.458056D-01
      6 -0.151370D-01  0.262673D-01 -0.305027D+00 -0.150639D+00  0.181697D-02
      7 -0.315438D+00  0.123971D-01  0.948275D-01  0.542271D-02 -0.590930D-03
      8  0.556007D-03 -0.365326D-01  0.105145D-01 -0.117416D-03  0.135791D-02
      9  0.751450D-01  0.371996D-02 -0.754015D-01  0.393711D-01 -0.900781D-03
     10 -0.154385D+00  0.117632D+00 -0.595988D-01  0.714985D-02 -0.161812D-02
     11  0.130570D+00 -0.168611D+00  0.865226D-01 -0.363681D-02  0.740696D-02
     12 -0.574524D-01  0.700584D-01 -0.912958D-01 -0.198404D-01  0.256716D-01
     13 -0.293292D-03  0.117968D-02 -0.463492D-02 -0.491049D+00  0.363130D-01
     14 -0.664982D-03 -0.108329D-02 -0.133805D-02  0.375806D-01 -0.851626D-02
     15  0.478576D-01 -0.445411D-02 -0.231932D-01  0.117268D+00 -0.833158D-02
     16 -0.385017D-01  0.275812D-01  0.138836D-01  0.357249D-02  0.693225D-03
     17  0.270810D-01  0.140426D-01  0.349167D-01  0.163470D-02  0.699985D-02
     18  0.176839D-01  0.393558D-01 -0.247444D-01 -0.659575D-02 -0.165339D-01
     19  0.130106D-02  0.262956D-02 -0.398474D-02 -0.106420D-02 -0.285226D-02
     20  0.308306D-02  0.598101D-02 -0.944556D-02 -0.220199D-02 -0.673885D-02
     21 -0.111975D-02 -0.248202D-02 -0.855337D-02 -0.763504D-03 -0.161718D-02
     22 -0.294773D-02  0.551126D-03  0.314109D-02  0.749842D-03 -0.146679D-03
     23 -0.138101D-01 -0.172547D-02  0.645351D-02  0.197232D-02  0.125171D-02
     24 -0.681314D-02 -0.699633D-03  0.229531D-02  0.894246D-03  0.892761D-03
     25  0.387942D-02 -0.662825D-02  0.278229D-02  0.408301D-04  0.152027D-02
     26  0.725326D-02 -0.982054D-02  0.688489D-02 -0.179554D-03  0.204389D-02
     27  0.385508D-02 -0.547046D-02  0.267772D-02 -0.174079D-04  0.147778D-02
     28  0.706969D-03  0.266697D-03  0.172421D-03  0.244395D-03  0.214946D-04
     29  0.285751D-03  0.136672D-02 -0.119361D-04 -0.165186D-03 -0.600155D-04
     30  0.207746D-02  0.457413D-02  0.316121D-03 -0.661474D-03 -0.246470D-02
     31 -0.139742D-03  0.378041D-03  0.331995D-03  0.142623D-03 -0.138600D-03
     32 -0.693640D-03  0.434646D-03 -0.149517D-02 -0.161348D-03 -0.486186D-04
     33  0.664788D-04  0.937480D-03  0.123759D-02  0.287113D-03 -0.106923D-03
     34  0.251067D-03 -0.253990D-03 -0.108990D-02  0.851448D-04  0.590830D-04
     35  0.738533D-03 -0.570634D-04 -0.578866D-03 -0.130154D-03  0.348549D-04
     36  0.535076D-03  0.594204D-03  0.116863D-02 -0.170966D-03  0.117448D-03
                6             7             8             9            10 
      6  0.461135D+00
      7  0.104061D-02  0.321228D+00
      8 -0.284669D-02 -0.766157D-02  0.349559D-01
      9 -0.227610D-01 -0.990544D-01 -0.231307D-02  0.968544D-01
     10 -0.195019D-02 -0.117211D-01  0.205288D-01 -0.113772D-01  0.154259D+00
     11 -0.318140D-02 -0.285674D-02  0.273846D-02 -0.738056D-03 -0.127101D+00
     12 -0.311202D-01  0.542660D-02 -0.707703D-02  0.659119D-02  0.718898D-01
     13  0.170567D+00  0.259956D-02 -0.688818D-04  0.153448D-03  0.119230D-02
     14 -0.114813D-01  0.135844D-03  0.189107D-02  0.109491D-02 -0.167854D-02
     15 -0.877693D-01 -0.154787D-02  0.525751D-03 -0.701465D-02 -0.304590D-03
     16  0.201524D-02 -0.237067D-02 -0.136764D-01 -0.485397D-02  0.438278D-02
     17  0.173503D-02  0.109905D-03 -0.176835D-02 -0.800596D-03 -0.718802D-02
     18 -0.908926D-02  0.843549D-03  0.223502D-02  0.156041D-02  0.901375D-03
     19 -0.391389D-02 -0.330874D-03 -0.423576D-03 -0.237949D-03  0.213713D-03
     20 -0.890382D-02 -0.430495D-03 -0.338162D-04  0.670658D-03 -0.372003D-04
     21 -0.547042D-04 -0.426369D-03  0.111917D-02  0.929541D-03  0.132277D-02
     22 -0.289393D-02  0.315321D-03 -0.838564D-03 -0.184496D-03 -0.102382D-03
     23 -0.179503D-02 -0.609857D-03 -0.331596D-02 -0.107810D-02  0.608990D-03
     24 -0.127078D-03 -0.372757D-03 -0.149792D-02 -0.686127D-03  0.542076D-03
     25  0.116483D-03  0.458108D-04  0.571757D-03  0.283219D-03 -0.794807D-03
     26 -0.346497D-02 -0.365958D-03  0.298059D-03  0.271529D-03 -0.205597D-02
     27 -0.584089D-03  0.155294D-04  0.702769D-03  0.143268D-03 -0.827118D-03
     28  0.147705D-03  0.152932D-03  0.524638D-03  0.347249D-03 -0.179425D-03
     29  0.309224D-03  0.273066D-04  0.794241D-04  0.602325D-04  0.284472D-03
     30 -0.433976D-02 -0.320925D-03 -0.509267D-03  0.273951D-04 -0.244989D-03
     31  0.670326D-04  0.374794D-04 -0.171688D-04 -0.549333D-04 -0.123488D-03
     32  0.975135D-03 -0.179968D-04  0.617623D-04  0.107890D-04  0.607495D-03
     33 -0.126347D-03  0.122413D-04 -0.224435D-03  0.171369D-05 -0.176085D-03
     34  0.580112D-03  0.585957D-04  0.622305D-03  0.462852D-03  0.108749D-03
     35  0.569511D-03 -0.136637D-03  0.268144D-03  0.252546D-05  0.165762D-04
     36 -0.136105D-03 -0.443695D-03 -0.628770D-03 -0.244574D-03 -0.177047D-03
               11            12            13            14            15 
     11  0.170107D+00
     12 -0.843328D-01  0.111639D+00
     13 -0.745404D-03 -0.218243D-02  0.487577D+00
     14  0.122416D-03 -0.339087D-03 -0.362257D-01  0.742137D-02
     15  0.102687D-02  0.137290D-02 -0.162572D+00  0.115615D-01  0.115642D+00
     16  0.663263D-02  0.254553D-02  0.101454D-02  0.153350D-02 -0.288609D-03
     17 -0.930888D-02 -0.456114D-02  0.456838D-03  0.801797D-04 -0.518795D-03
     18  0.306097D-02  0.225139D-02 -0.107136D-02  0.415283D-03  0.648575D-03
     19  0.968804D-05  0.743434D-03 -0.509250D-03 -0.866705D-04  0.174605D-03
     20 -0.952424D-03  0.526795D-03 -0.881505D-03  0.292609D-03  0.569161D-03
     21  0.598207D-03  0.134777D-02 -0.962041D-04 -0.250795D-03  0.528537D-04
     22 -0.600138D-03 -0.629320D-04 -0.464261D-03 -0.426679D-03 -0.295974D-03
     23 -0.248898D-04  0.292416D-03 -0.129920D-04  0.515450D-04 -0.589437D-03
     24  0.425283D-03  0.777070D-04  0.203035D-03 -0.138331D-03 -0.176960D-03
     25 -0.181961D-02 -0.629361D-03 -0.105610D-03  0.199637D-05 -0.142068D-03
     26 -0.250574D-02 -0.104901D-02 -0.143797D-03 -0.159645D-03  0.144374D-03
     27 -0.143018D-02 -0.715414D-03  0.627773D-04 -0.121565D-03  0.879753D-04
     28 -0.233056D-03 -0.207598D-03  0.123074D-04 -0.870272D-04 -0.471417D-04
     29  0.471809D-03  0.356085D-03  0.823626D-05  0.232926D-04  0.752557D-04
     30 -0.830909D-03  0.907497D-04 -0.423613D-03  0.255388D-03  0.303037D-03
     31 -0.318764D-03 -0.337432D-03  0.157199D-04  0.838776D-04 -0.113326D-04
     32  0.492827D-03  0.481302D-03  0.969105D-04 -0.570990D-04 -0.144868D-04
     33 -0.914448D-03 -0.217958D-03 -0.431970D-04  0.146308D-03 -0.752152D-04
     34  0.989940D-04  0.107208D-03  0.946849D-05 -0.166143D-03 -0.905498D-04
     35  0.636265D-04 -0.275208D-04  0.236008D-04 -0.661937D-04  0.551023D-05
     36 -0.206101D-03 -0.215641D-04  0.379034D-04  0.195721D-03  0.121826D-03
               16            17            18            19            20 
     16  0.557366D+00
     17 -0.152767D+00  0.261635D+00
     18 -0.558082D-01 -0.143081D+00  0.477840D+00
     19 -0.819915D-01  0.681909D-02  0.793341D-02  0.568061D+00
     20  0.710919D-02 -0.689424D-01  0.146797D-01 -0.959362D-02  0.547607D+00
     21  0.110980D-01  0.225111D-01 -0.225882D+00 -0.311248D-02 -0.839758D-02
     22 -0.291293D+00  0.198098D-02  0.103275D+00  0.224381D-02 -0.112601D-03
     23 -0.870471D-02 -0.352772D-01  0.131692D-01 -0.868670D-03  0.365613D-03
     24  0.953757D-01  0.782956D-02 -0.876018D-01  0.315754D-01  0.220814D-02
     25 -0.154702D+00  0.122368D+00 -0.666916D-01  0.241670D-02 -0.226224D-02
     26  0.131937D+00 -0.169436D+00  0.884923D-01 -0.964475D-03  0.142455D-02
     27 -0.652785D-01  0.798179D-01 -0.937988D-01 -0.197263D-01  0.237186D-01
     28  0.549980D-03  0.187753D-02 -0.308935D-03 -0.788442D-01 -0.760961D-01
     29  0.163055D-02  0.345316D-02 -0.960016D-03 -0.761370D-01 -0.222828D+00
     30 -0.116351D-01 -0.273863D-01 -0.171037D-01 -0.394443D-01 -0.917395D-01
     31  0.111181D-02 -0.251525D-02 -0.472884D-03 -0.127464D+00  0.111483D+00
     32 -0.741054D-04 -0.560841D-03 -0.198085D-03  0.111774D+00 -0.204401D+00
     33 -0.209856D-01  0.266884D-01 -0.123859D-01 -0.449066D-01  0.652896D-01
     34  0.860969D-03  0.141942D-03  0.311596D-03 -0.284033D+00 -0.300595D-01
     35 -0.189582D-02 -0.917455D-03 -0.634779D-03 -0.303057D-01 -0.517746D-01
     36  0.339319D-01  0.284961D-02 -0.116948D-01  0.748993D-01  0.108239D-01
               21            22            23            24            25 
     21  0.485488D+00
     22 -0.249914D-02  0.303716D+00
     23  0.572242D-04  0.191475D-02  0.342412D-01
     24 -0.966661D-02 -0.108636D+00 -0.833626D-02  0.949398D-01
     25  0.211939D-02 -0.144089D-01  0.203357D-01 -0.117351D-01  0.161637D+00
     26 -0.201407D-02 -0.258517D-02  0.305585D-02 -0.929791D-03 -0.133060D+00
     27 -0.100428D-01  0.742915D-02 -0.883379D-02  0.536056D-02  0.735845D-01
     28 -0.375656D-01  0.123376D-03  0.118718D-03 -0.294648D-03  0.282526D-05
     29 -0.875628D-01  0.265689D-03  0.253019D-03 -0.534533D-03  0.262970D-04
     30 -0.905305D-01  0.527450D-03  0.325121D-03  0.100399D-02 -0.182987D-03
     31 -0.450506D-01  0.503616D-03 -0.558555D-03 -0.412288D-03  0.132246D-02
     32  0.664696D-01 -0.212705D-03  0.936374D-04  0.396305D-03 -0.639359D-03
     33 -0.728536D-01  0.499184D-03 -0.475665D-03  0.123530D-02  0.115953D-02
     34  0.760935D-01  0.156390D-02 -0.385545D-03 -0.326249D-03  0.665970D-03
     35  0.115690D-01  0.209998D-03  0.103095D-02  0.384417D-03 -0.414697D-03
     36 -0.702348D-01 -0.298898D-03  0.810840D-03 -0.665404D-02 -0.664345D-03
               26            27            28            29            30 
     26  0.173767D+00
     27 -0.892004D-01  0.101192D+00
     28  0.141737D-03 -0.201989D-03  0.813938D-01
     29  0.297464D-03 -0.562241D-03  0.844210D-01  0.241292D+00
     30  0.623896D-03  0.893836D-03  0.428488D-01  0.997798D-01  0.101433D+00
     31  0.663669D-04  0.583742D-03  0.661631D-02 -0.969362D-02  0.450791D-02
     32  0.112970D-02 -0.729315D-04  0.154731D-01 -0.210799D-01  0.863403D-02
     33  0.191488D-03 -0.648247D-02  0.831692D-02 -0.101578D-01  0.407737D-02
     34 -0.440368D-04  0.520524D-03 -0.107793D-01 -0.953521D-03  0.295168D-02
     35 -0.949682D-04 -0.254172D-04 -0.264288D-01 -0.326913D-02  0.873838D-02
     36  0.497973D-04  0.126832D-02 -0.132072D-01 -0.791255D-03  0.382894D-02
               31            32            33            34            35 
     31  0.133409D+00
     32 -0.123030D+00  0.219930D+00
     33  0.510266D-01 -0.726567D-01  0.830428D-01
     34 -0.154318D-01 -0.312159D-02  0.474341D-02  0.306640D+00
     35  0.242611D-01  0.400405D-02 -0.871725D-02  0.340620D-01  0.507778D-01
     36 -0.101779D-01 -0.252984D-02  0.254664D-02 -0.842642D-01 -0.112855D-01
               36 
     36  0.800516D-01
 FrcOut:
 IF    =    61 IFX   =    97 IFXYZ =   133
 IFFX  =   169 IFFFX =   835 IFLen =    36
 IFFLen=   666 IFFFLn=     0 IEDerv=   835
 LEDerv=  1781 IFroze=  3022 ICStrt=147347
 DipoleDeriv   = 2.84875480D-01 1.09799369D-01 1.04995588D-01
                 8.90385545D-02 5.73021923D-01 2.99368874D-01
                 2.08578824D-01 6.28345727D-01 1.30119096D+00
                -2.51772455D-01-4.99072143D-03 5.06357418D-02
                -4.89085330D-02-5.77664363D-01-1.60790034D-01
                -1.96208102D-01-6.56425440D-01-1.50447800D+00
                -9.26732244D-02-4.68197129D-02 4.75552381D-02
                -4.71807427D-02-3.68385316D-02-6.68668152D-02
                 2.25911158D-02 2.06178713D-03 3.55961139D-04
                -3.17280114D-02 2.18146186D-02-1.17260919D-01
                 2.75154775D-02-1.91699453D-01-2.63652365D-02
                -1.97182056D-02 3.65126312D-02-6.35098169D-02
                 1.41813070D-01-3.49450891D-02-4.62178677D-02
                 8.72578817D-03 3.65023489D-01 5.80239663D-02
                -1.73144825D-02 3.23779371D-02 3.16869160D-01
                 1.05180058D-01-1.53707333D-03-1.39660748D-02
                 2.33879870D-03 9.15166685D-02-4.26179485D-03
                 4.25351679D-02 1.01874888D-01 1.48937352D-01
                 5.35111081D-02-5.91243732D-02-4.47713902D-02
                -4.95255328D-02-5.32251584D-02-1.11454744D-01
                -6.59501063D-04-9.33240747D-03 2.81311028D-02
                -1.35271034D-01-5.85379022D-02 6.43944903D-02
                -3.98880284D-02-1.50387528D-02-3.91580291D-02
                 5.31399210D-02-7.24186547D-03-5.19494132D-02
                -9.34714204D-03 5.61393887D-02-5.95945427D-02
                 4.29458580D-02-1.15346792D-01 1.55575541D-02
                -3.11385389D-02 2.70922713D-02-4.41278237D-02
                 5.15398483D-02-6.35472180D-02-4.34070355D-02
                -6.46769818D-02-7.21966023D-02-1.04069853D-01
                -6.47200104D-02-1.63543788D-01-1.11843795D-01
                 2.62740518D-03 9.07316727D-02-4.63668514D-02
                 1.05006763D-01-4.57598339D-02 1.05479011D-01
                -2.98893341D-02 1.81044989D-02-1.13025709D-02
                -1.18755104D-01-8.98295943D-03 1.04003623D-01
                -2.53914212D-02 7.82074058D-02 3.45371009D-02
                 3.28031458D-02-9.82624005D-03-8.27310754D-03
 VibFq2-Diag1:  N=     36 IV=          13 MDV=   419278281 NE2=    11646618
 Full mass-weighted force constant matrix:
 Low frequencies --- -253.8844   -3.5538   -0.0013   -0.0008    0.0009   46.9515
 Low frequencies ---   99.1778  164.5151  175.2069
 OrtVCM:  Ph=1 IPass= 1 DotMx1= 0.00D+00
 OrtVCM:  IS=    1 I=    1 IndO=    1 Dot= 1.00D+00 DotN= 1.00D+00 ElMax1= 5.16D-01 ElMax1N= 5.16D-01
 OrtVCM:  Ph=2 NNew=    0 IAdd=    2 IPass= 1 DotMx2= 0.00D+00
 OrtVCM:  IS=    1 I=    2 IndO=    2 Dot= 1.00D+00 DotN= 1.00D+00 ElMax1= 5.16D-01 ElMax1N= 5.16D-01
 OrtVCM:  Ph=2 NNew=    0 IAdd=    3 IPass= 1 DotMx2= 0.00D+00
 OrtVCM:  IS=    1 I=    3 IndO=    3 Dot= 1.00D+00 DotN= 1.00D+00 ElMax1= 5.16D-01 ElMax1N= 5.16D-01
 OrtVCM:  Ph=2 NNew=    0 IAdd=    4 IPass= 1 DotMx2= 2.78D-16
 OrtVCM:  IS=    1 I=    4 IndO=    4 Dot= 1.00D+00 DotN= 1.00D+00 ElMax1= 4.27D-01 ElMax1N= 4.27D-01
 OrtVCM:  Ph=2 NNew=    0 IAdd=    5 IPass= 1 DotMx2= 1.19D-15
 OrtVCM:  IS=    1 I=    5 IndO=    5 Dot= 1.00D+00 DotN= 1.00D+00 ElMax1= 5.56D-01 ElMax1N= 5.56D-01
 OrtVCM:  Ph=2 NNew=    0 IAdd=    6 IPass= 1 DotMx2= 2.08D-16
 OrtVCM:  IS=    1 I=    6 IndO=    6 Dot= 1.00D+00 DotN= 1.00D+00 ElMax1= 4.72D-01 ElMax1N= 4.72D-01
 OrtVCM:  Ph=1 IPass= 1 DotMx1= 5.56D-01
 OrtVCM:  Ph=1 IPass= 2 DotMx1= 2.13D-16
 OrtVCM:  IS=    1 I=    1 IndO=    7 Dot= 6.18D-01 DotN= 6.18D-01 ElMax1= 6.18D-01 ElMax1N= 6.18D-01
 OrtVCM:  Ph=2 NNew=    0 IAdd=    2 IPass= 1 DotMx2= 9.76D-02
 OrtVCM:  Ph=2 NNew=    0 IAdd=    2 IPass= 2 DotMx2= 2.08D-17
 OrtVCM:  IS=    1 I=    2 IndO=    8 Dot= 7.46D-01 DotN= 7.46D-01 ElMax1= 7.46D-01 ElMax1N= 7.46D-01
 OrtVCM:  Ph=2 NNew=    0 IAdd=    3 IPass= 1 DotMx2= 2.84D-02
 OrtVCM:  Ph=2 NNew=    0 IAdd=    3 IPass= 2 DotMx2= 1.39D-17
 OrtVCM:  IS=    1 I=    3 IndO=    9 Dot= 7.39D-01 DotN= 7.39D-01 ElMax1= 7.39D-01 ElMax1N= 7.39D-01
 OrtVCM:  Ph=2 NNew=    0 IAdd=    4 IPass= 1 DotMx2= 3.86D-01
 OrtVCM:  Ph=2 NNew=    0 IAdd=    4 IPass= 2 DotMx2= 6.25D-17
 OrtVCM:  IS=    1 I=    4 IndO=   10 Dot= 1.95D-01 DotN= 1.95D-01 ElMax1= 2.18D-01 ElMax1N= 2.18D-01
 OrtVCM:  Ph=2 NNew=    0 IAdd=    5 IPass= 1 DotMx2= 3.42D-01
 OrtVCM:  Ph=2 NNew=    0 IAdd=    5 IPass= 2 DotMx2= 6.94D-17
 OrtVCM:  IS=    1 I=    5 IndO=   11 Dot= 2.82D-01 DotN= 2.82D-01 ElMax1= 2.82D-01 ElMax1N= 2.82D-01
 OrtVCM:  Ph=2 NNew=    0 IAdd=    6 IPass= 1 DotMx2= 3.50D-01
 OrtVCM:  Ph=2 NNew=    0 IAdd=    6 IPass= 2 DotMx2= 1.11D-16
 OrtVCM:  IS=    1 I=    6 IndO=   12 Dot= 3.89D-01 DotN= 3.89D-01 ElMax1= 3.89D-01 ElMax1N= 3.89D-01
 OrtVCM:  Ph=2 NNew=    0 IAdd=    7 IPass= 1 DotMx2= 2.91D-01
 OrtVCM:  Ph=2 NNew=    0 IAdd=    7 IPass= 2 DotMx2= 2.22D-16
 OrtVCM:  IS=    1 I=    7 IndO=   13 Dot= 8.34D-01 DotN= 8.34D-01 ElMax1= 8.34D-01 ElMax1N= 8.34D-01
 OrtVCM:  Ph=2 NNew=    0 IAdd=    8 IPass= 1 DotMx2= 2.64D-01
 OrtVCM:  Ph=2 NNew=    0 IAdd=    8 IPass= 2 DotMx2= 4.86D-17
 OrtVCM:  IS=    1 I=    8 IndO=   14 Dot= 7.72D-01 DotN= 7.72D-01 ElMax1= 7.72D-01 ElMax1N= 7.72D-01
 OrtVCM:  Ph=2 NNew=    0 IAdd=    9 IPass= 1 DotMx2= 2.90D-01
 OrtVCM:  Ph=2 NNew=    0 IAdd=    9 IPass= 2 DotMx2= 8.33D-17
 OrtVCM:  IS=    1 I=    9 IndO=   15 Dot= 8.31D-01 DotN= 8.31D-01 ElMax1= 8.31D-01 ElMax1N= 8.31D-01
 OrtVCM:  Ph=2 NNew=    0 IAdd=   10 IPass= 1 DotMx2= 3.43D-01
 OrtVCM:  Ph=2 NNew=    0 IAdd=   10 IPass= 2 DotMx2= 4.16D-17
 OrtVCM:  IS=    1 I=   10 IndO=   16 Dot= 5.69D-01 DotN= 5.69D-01 ElMax1= 5.69D-01 ElMax1N= 5.69D-01
 OrtVCM:  Ph=2 NNew=    0 IAdd=   11 IPass= 1 DotMx2= 1.50D-01
 OrtVCM:  Ph=2 NNew=    0 IAdd=   11 IPass= 2 DotMx2= 1.73D-17
 OrtVCM:  IS=    1 I=   11 IndO=   17 Dot= 9.41D-01 DotN= 9.41D-01 ElMax1= 9.41D-01 ElMax1N= 9.41D-01
 OrtVCM:  Ph=2 NNew=    0 IAdd=   12 IPass= 1 DotMx2= 2.80D-01
 OrtVCM:  Ph=2 NNew=    0 IAdd=   12 IPass= 2 DotMx2= 3.47D-17
 OrtVCM:  IS=    1 I=   12 IndO=   18 Dot= 8.26D-01 DotN= 8.26D-01 ElMax1= 8.26D-01 ElMax1N= 8.26D-01
 OrtVCM:  Ph=2 NNew=    0 IAdd=   13 IPass= 1 DotMx2= 4.93D-01
 OrtVCM:  Ph=2 NNew=    0 IAdd=   13 IPass= 2 DotMx2= 2.22D-16
 OrtVCM:  IS=    1 I=   13 IndO=   19 Dot= 4.02D-01 DotN= 4.02D-01 ElMax1= 4.02D-01 ElMax1N= 4.02D-01
 OrtVCM:  Ph=2 NNew=    0 IAdd=   14 IPass= 1 DotMx2= 3.07D-01
 OrtVCM:  Ph=2 NNew=    0 IAdd=   14 IPass= 2 DotMx2= 4.86D-17
 OrtVCM:  IS=    1 I=   14 IndO=   20 Dot= 6.85D-01 DotN= 6.85D-01 ElMax1= 6.85D-01 ElMax1N= 6.85D-01
 OrtVCM:  Ph=2 NNew=    0 IAdd=   15 IPass= 1 DotMx2= 2.13D-01
 OrtVCM:  Ph=2 NNew=    0 IAdd=   15 IPass= 2 DotMx2= 9.71D-17
 OrtVCM:  IS=    1 I=   15 IndO=   21 Dot= 8.33D-01 DotN= 8.33D-01 ElMax1= 8.33D-01 ElMax1N= 8.33D-01
 OrtVCM:  Ph=2 NNew=    0 IAdd=   16 IPass= 1 DotMx2= 3.64D-01
 OrtVCM:  Ph=2 NNew=    0 IAdd=   16 IPass= 2 DotMx2= 2.29D-16
 OrtVCM:  IS=    1 I=   16 IndO=   22 Dot= 2.64D-01 DotN= 2.64D-01 ElMax1= 2.64D-01 ElMax1N= 2.64D-01
 OrtVCM:  Ph=2 NNew=    0 IAdd=   17 IPass= 1 DotMx2= 3.87D-01
 OrtVCM:  Ph=2 NNew=    0 IAdd=   17 IPass= 2 DotMx2= 5.90D-17
 OrtVCM:  IS=    1 I=   17 IndO=   23 Dot= 2.56D-01 DotN= 2.56D-01 ElMax1= 2.77D-01 ElMax1N= 2.77D-01
 OrtVCM:  Ph=2 NNew=    0 IAdd=   18 IPass= 1 DotMx2= 1.99D-01
 OrtVCM:  Ph=2 NNew=    0 IAdd=   18 IPass= 2 DotMx2= 6.94D-17
 OrtVCM:  IS=    1 I=   18 IndO=   24 Dot= 5.85D-01 DotN= 5.85D-01 ElMax1= 5.85D-01 ElMax1N= 5.85D-01
 OrtVCM:  Ph=2 NNew=    0 IAdd=   19 IPass= 1 DotMx2= 2.45D-01
 OrtVCM:  Ph=2 NNew=    0 IAdd=   19 IPass= 2 DotMx2= 8.07D-17
 OrtVCM:  IS=    1 I=   19 IndO=   25 Dot= 2.66D-01 DotN= 2.66D-01 ElMax1= 2.66D-01 ElMax1N= 2.66D-01
 OrtVCM:  Ph=2 NNew=    0 IAdd=   20 IPass= 1 DotMx2= 2.57D-01
 OrtVCM:  Ph=2 NNew=    0 IAdd=   20 IPass= 2 DotMx2= 1.53D-16
 OrtVCM:  IS=    1 I=   20 IndO=   26 Dot= 2.65D-01 DotN= 2.65D-01 ElMax1= 2.65D-01 ElMax1N= 2.65D-01
 OrtVCM:  Ph=2 NNew=    0 IAdd=   21 IPass= 1 DotMx2= 5.35D-01
 OrtVCM:  Ph=2 NNew=    0 IAdd=   21 IPass= 2 DotMx2= 1.53D-16
 OrtVCM:  IS=    1 I=   21 IndO=   27 Dot= 2.91D-01 DotN= 2.91D-01 ElMax1= 2.91D-01 ElMax1N= 2.91D-01
 OrtVCM:  Ph=2 NNew=    0 IAdd=   22 IPass= 1 DotMx2= 5.12D-01
 OrtVCM:  Ph=2 NNew=    0 IAdd=   22 IPass= 2 DotMx2= 1.53D-16
 OrtVCM:  IS=    1 I=   22 IndO=   28 Dot= 5.87D-01 DotN= 5.87D-01 ElMax1= 5.87D-01 ElMax1N= 5.87D-01
 OrtVCM:  Ph=2 NNew=    0 IAdd=   23 IPass= 1 DotMx2= 5.06D-01
 OrtVCM:  Ph=2 NNew=    0 IAdd=   23 IPass= 2 DotMx2= 1.87D-16
 OrtVCM:  IS=    1 I=   23 IndO=   29 Dot= 4.10D-01 DotN= 4.10D-01 ElMax1= 4.10D-01 ElMax1N= 4.10D-01
 OrtVCM:  Ph=2 NNew=    0 IAdd=   24 IPass= 1 DotMx2= 3.56D-01
 OrtVCM:  Ph=2 NNew=    0 IAdd=   24 IPass= 2 DotMx2= 1.67D-16
 OrtVCM:  IS=    1 I=   24 IndO=   30 Dot= 6.55D-01 DotN= 6.55D-01 ElMax1= 6.55D-01 ElMax1N= 6.55D-01
 OrtVCM:  Ph=2 NNew=    0 IAdd=   25 IPass= 1 DotMx2= 5.01D-01
 OrtVCM:  Ph=2 NNew=    0 IAdd=   25 IPass= 2 DotMx2= 9.71D-17
 OrtVCM:  IS=    1 I=   25 IndO=   31 Dot= 2.15D-01 DotN= 2.15D-01 ElMax1= 2.46D-01 ElMax1N= 2.46D-01
 OrtVCM:  Ph=2 NNew=    0 IAdd=   26 IPass= 1 DotMx2= 5.48D-01
 OrtVCM:  Ph=2 NNew=    0 IAdd=   26 IPass= 2 DotMx2= 2.01D-16
 OrtVCM:  IS=    1 I=   26 IndO=   32 Dot= 2.42D-01 DotN= 2.42D-01 ElMax1= 2.42D-01 ElMax1N= 2.42D-01
 OrtVCM:  Ph=2 NNew=    0 IAdd=   27 IPass= 1 DotMx2= 3.58D-01
 OrtVCM:  Ph=2 NNew=    0 IAdd=   27 IPass= 2 DotMx2= 8.33D-17
 OrtVCM:  IS=    1 I=   27 IndO=   33 Dot= 4.93D-01 DotN= 4.93D-01 ElMax1= 4.93D-01 ElMax1N= 4.93D-01
 OrtVCM:  Ph=2 NNew=    0 IAdd=   28 IPass= 1 DotMx2= 4.22D-01
 OrtVCM:  Ph=2 NNew=    0 IAdd=   28 IPass= 2 DotMx2= 1.18D-16
 OrtVCM:  IS=    1 I=   28 IndO=   34 Dot= 3.86D-01 DotN= 3.86D-01 ElMax1= 3.86D-01 ElMax1N= 3.86D-01
 OrtVCM:  Ph=2 NNew=    0 IAdd=   29 IPass= 1 DotMx2= 4.58D-01
 OrtVCM:  Ph=2 NNew=    0 IAdd=   29 IPass= 2 DotMx2= 5.55D-17
 OrtVCM:  IS=    1 I=   29 IndO=   35 Dot= 5.73D-01 DotN= 5.73D-01 ElMax1= 5.73D-01 ElMax1N= 5.73D-01
 OrtVCM:  Ph=2 NNew=    0 IAdd=   30 IPass= 1 DotMx2= 4.90D-01
 OrtVCM:  Ph=2 NNew=    0 IAdd=   30 IPass= 2 DotMx2= 1.70D-16
 OrtVCM:  IS=    1 I=   30 IndO=    0 Dot= 1.80D-30 DotN= 1.80D-30 ElMax1= 5.46D-16 ElMax1N= 5.46D-16
 SchOr2:  IPass= 1 Test2A= 1.00D-01 IOff=     0 NDo=    30 NNew=    29
 OrtVCM:  Ph=1 IPass= 1 DotMx1= 4.81D-01
 OrtVCM:  Ph=1 IPass= 2 DotMx1= 3.61D-16
 OrtVCM:  IS=    1 I=    1 IndO=   36 Dot= 4.20D-01 DotN= 4.20D-01 ElMax1= 4.20D-01 ElMax1N= 4.20D-01
 SchOr2:  IPass= 1 Test2A= 1.00D-01 IOff=    30 NDo=     1 NNew=     1
 VibFq2-Diag2:  N=     30 IV=          13 MDV=   419278281 NE2=    13975942
 ******    1 imaginary frequencies (negative Signs) ****** 
 Dipole derivatives wrt mode   1:  8.63018D-01  2.88172D+00  2.43329D+00
 Vibrational polarizability contributions from mode   1       0.3113362       3.4713004       2.4750188
 Vibrational hyperpolarizability contributions from mode   1       0.0000000       0.0000000       0.0000000
 Dipole derivatives wrt mode   2:  5.35137D-01  3.62143D-01 -1.42230D+00
 Vibrational polarizability contributions from mode   2       3.1270268       1.4320638      22.0894203
 Vibrational hyperpolarizability contributions from mode   2       0.0000000       0.0000000      -0.0000000
 Dipole derivatives wrt mode   3: -2.11833D-01  2.15528D-01  5.45634D-01
 Vibrational polarizability contributions from mode   3       0.0398097       0.0412106       0.2641213
 Vibrational hyperpolarizability contributions from mode   3      -0.0000000       0.0000000       0.0000000
 Dipole derivatives wrt mode   4:  4.16246D-01  1.50719D+00  8.86717D-03
 Vibrational polarizability contributions from mode   4       0.1156317       1.5160518       0.0000525
 Vibrational hyperpolarizability contributions from mode   4       0.0000000       0.0000000       0.0000000
 Dipole derivatives wrt mode   5:  1.89076D-01  8.88208D+00  1.39446D+00
 Vibrational polarizability contributions from mode   5       0.0076543      16.8913473       0.4163364
 Vibrational hyperpolarizability contributions from mode   5       0.0000000       0.0000000       0.0000000
 Dipole derivatives wrt mode   6: -1.33958D+00 -7.87289D+00 -2.45269D+00
 Vibrational polarizability contributions from mode   6       0.2816969       9.7300729       0.9443460
 Vibrational hyperpolarizability contributions from mode   6      -0.0000000      -0.0000000      -0.0000000
 Dipole derivatives wrt mode   7: -1.41260D+00  3.36516D+00  3.54703D-01
 Vibrational polarizability contributions from mode   7       0.1438482       0.8163512       0.0090698
 Vibrational hyperpolarizability contributions from mode   7      -0.0000000       0.0000000       0.0000000
 Dipole derivatives wrt mode   8: -9.42037D-01 -6.87297D-01  5.55339D-01
 Vibrational polarizability contributions from mode   8       0.0367613       0.0195679       0.0127753
 Vibrational hyperpolarizability contributions from mode   8      -0.0000000      -0.0000000       0.0000000
 Dipole derivatives wrt mode   9:  4.38616D-01 -1.70786D-01 -1.83306D-01
 Vibrational polarizability contributions from mode   9       0.0059702       0.0009052       0.0010427
 Vibrational hyperpolarizability contributions from mode   9       0.0000000      -0.0000000      -0.0000000
 Dipole derivatives wrt mode  10: -2.65626D-02  5.71387D-01 -1.69946D+00
 Vibrational polarizability contributions from mode  10       0.0000218       0.0100950       0.0893030
 Vibrational hyperpolarizability contributions from mode  10      -0.0000000       0.0000000      -0.0000000
 Dipole derivatives wrt mode  11:  2.36528D+00  6.55048D+00  7.50333D+00
 Vibrational polarizability contributions from mode  11       0.1329870       1.0199740       1.3382942
 Vibrational hyperpolarizability contributions from mode  11       0.0000000       0.0000000       0.0000000
 Dipole derivatives wrt mode  12:  1.96956D+00  5.67899D+00  1.20056D+01
 Vibrational polarizability contributions from mode  12       0.0843132       0.7009665       3.1327267
 Vibrational hyperpolarizability contributions from mode  12       0.0000000       0.0000000       0.0000000
 Dipole derivatives wrt mode  13: -1.47944D+00 -4.20313D+00 -1.80854D+00
 Vibrational polarizability contributions from mode  13       0.0471567       0.3806208       0.0704698
 Vibrational hyperpolarizability contributions from mode  13      -0.0000000      -0.0000000      -0.0000000
 Dipole derivatives wrt mode  14: -8.06070D-01 -2.67184D+00 -7.56438D+00
 Vibrational polarizability contributions from mode  14       0.0138127       0.1517596       1.2164154
 Vibrational hyperpolarizability contributions from mode  14      -0.0000000      -0.0000000      -0.0000000
 Dipole derivatives wrt mode  15:  1.12543D+00  2.27250D+00  7.59890D+00
 Vibrational polarizability contributions from mode  15       0.0239973       0.0978441       1.0940332
 Vibrational hyperpolarizability contributions from mode  15       0.0000000       0.0000000       0.0000000
 Dipole derivatives wrt mode  16:  7.87537D-01 -1.78750D-01  7.52293D-02
 Vibrational polarizability contributions from mode  16       0.0108916       0.0005611       0.0000994
 Vibrational hyperpolarizability contributions from mode  16       0.0000000      -0.0000000       0.0000000
 Dipole derivatives wrt mode  17:  1.54205D+00 -4.23225D-01  4.80584D+00
 Vibrational polarizability contributions from mode  17       0.0332029       0.0025011       0.3224930
 Vibrational hyperpolarizability contributions from mode  17       0.0000000      -0.0000000       0.0000000
 Dipole derivatives wrt mode  18:  5.28504D-01  1.55504D+00 -1.09853D+00
 Vibrational polarizability contributions from mode  18       0.0037587       0.0325406       0.0162392
 Vibrational hyperpolarizability contributions from mode  18       0.0000000       0.0000000      -0.0000000
 Dipole derivatives wrt mode  19: -4.01594D-01 -1.02014D+00 -6.70711D-01
 Vibrational polarizability contributions from mode  19       0.0019780       0.0127636       0.0055172
 Vibrational hyperpolarizability contributions from mode  19      -0.0000000      -0.0000000      -0.0000000
 Dipole derivatives wrt mode  20:  7.40223D-01  1.19079D+00 -5.54748D-01
 Vibrational polarizability contributions from mode  20       0.0065753       0.0170162       0.0036930
 Vibrational hyperpolarizability contributions from mode  20       0.0000000       0.0000000      -0.0000000
 Dipole derivatives wrt mode  21:  2.40328D+00 -1.05533D+00  1.18866D-01
 Vibrational polarizability contributions from mode  21       0.0691940       0.0133424       0.0001693
 Vibrational hyperpolarizability contributions from mode  21       0.0000000      -0.0000000       0.0000000
 Dipole derivatives wrt mode  22: -2.61961D-01 -1.27788D+00 -2.46951D+00
 Vibrational polarizability contributions from mode  22       0.0008149       0.0193916       0.0724198
 Vibrational hyperpolarizability contributions from mode  22      -0.0000000      -0.0000000      -0.0000000
 Dipole derivatives wrt mode  23: -1.04384D+00 -2.41497D+00 -6.43480D+00
 Vibrational polarizability contributions from mode  23       0.0032036       0.0171469       0.1217400
 Vibrational hyperpolarizability contributions from mode  23      -0.0000000      -0.0000000      -0.0000000
 Dipole derivatives wrt mode  24:  9.91728D-01  4.20186D+00 -1.50145D+00
 Vibrational polarizability contributions from mode  24       0.0027815       0.0499318       0.0063755
 Vibrational hyperpolarizability contributions from mode  24       0.0000000       0.0000000      -0.0000000
 Dipole derivatives wrt mode  25:  4.14719D-01 -4.12675D+00  4.18410D+00
 Vibrational polarizability contributions from mode  25       0.0004843       0.0479569       0.0492991
 Vibrational hyperpolarizability contributions from mode  25       0.0000000      -0.0000000       0.0000000
 Dipole derivatives wrt mode  26:  3.30548D+00 -2.66921D+00  8.74476D-01
 Vibrational polarizability contributions from mode  26       0.0303550       0.0197937       0.0021245
 Vibrational hyperpolarizability contributions from mode  26       0.0000000      -0.0000000       0.0000000
 Dipole derivatives wrt mode  27: -3.83947D+00 -3.47991D+00  3.27107D+00
 Vibrational polarizability contributions from mode  27       0.0408067       0.0335216       0.0296188
 Vibrational hyperpolarizability contributions from mode  27      -0.0000000      -0.0000000       0.0000000
 Dipole derivatives wrt mode  28:  4.37370D+00 -2.16231D+00  1.22136D-01
 Vibrational polarizability contributions from mode  28       0.0503668       0.0123107       0.0000393
 Vibrational hyperpolarizability contributions from mode  28       0.0000000      -0.0000000       0.0000000
 Dipole derivatives wrt mode  29: -4.14575D+00  1.39747D+00  6.02051D-01
 Vibrational polarizability contributions from mode  29       0.0448252       0.0050933       0.0009453
 Vibrational hyperpolarizability contributions from mode  29      -0.0000000       0.0000000       0.0000000
 Dipole derivatives wrt mode  30:  4.40835D+00 -2.59982D+00 -5.86765D+00
 Vibrational polarizability contributions from mode  30       0.0340939       0.0118580       0.0604021
 Vibrational hyperpolarizability contributions from mode  30       0.0000000      -0.0000000      -0.0000000
 Diagonal vibrational polarizability:
        4.7053566      36.5758607      33.8446010
 NorSel:  MapVib=      1      2      3      4      5      6      7      8      9     10
 NorSel:  MapVib=     11     12     13     14     15     16     17     18     19     20
 NorSel:  MapVib=     21     22     23     24     25     26     27     28     29     30
 Harmonic frequencies (cm**-1), IR intensities (KM/Mole), Raman scattering
 activities (A**4/AMU), depolarization ratios for plane and unpolarized
 incident light, reduced masses (AMU), force constants (mDyne/A),
 and normal coordinates:
                      1                      2                      3
                      A                      A                      A
 Frequencies --   -253.7298                49.6439               174.1670
 Red. masses --      6.0938                 2.2681                 2.5991
 Frc consts  --      0.2311                 0.0033                 0.0465
 IR Inten    --   14.97                  2.440                 0.3890    
  Atom  AN      X      Y      Z        X      Y      Z        X      Y      Z
     1   6     0.14   0.33   0.20     0.17  -0.08   0.01    -0.08  -0.17  -0.03
     2   8     0.05   0.12   0.14    -0.15   0.06   0.00     0.06   0.13  -0.04
     3   1     0.12   0.20   0.16     0.26  -0.22   0.24    -0.12  -0.24  -0.13
     4   1     0.04   0.20   0.16     0.36  -0.06  -0.22    -0.12  -0.26  -0.12
     5   1     0.04   0.15   0.10    -0.22   0.18  -0.21     0.10   0.27   0.05
     6   6    -0.16  -0.38  -0.21     0.14  -0.06   0.00    -0.08  -0.18   0.03
     7   6    -0.04  -0.10  -0.15    -0.13   0.06   0.00     0.08   0.17   0.06
     8   1    -0.14  -0.27  -0.17     0.22  -0.14   0.18    -0.11  -0.25  -0.06
     9   1    -0.08  -0.28  -0.17     0.25  -0.07  -0.17    -0.09  -0.25  -0.06
    10   1    -0.00  -0.01  -0.36    -0.16   0.07  -0.00     0.16   0.29  -0.24
    11   1    -0.02  -0.04  -0.04    -0.25   0.05   0.17     0.10   0.26   0.21
    12   1    -0.02  -0.04  -0.05    -0.20   0.15  -0.17     0.11   0.30   0.22
                      4                      5                      6
                      A                      A                      A
 Frequencies --    200.8068               354.5269               414.0406
 Red. masses --      1.0556                 1.2058                 3.1765
 Frc consts  --      0.0251                 0.0893                 0.3208
 IR Inten    --   2.445                  80.87                  69.79    
  Atom  AN      X      Y      Z        X      Y      Z        X      Y      Z
     1   6     0.02  -0.01   0.00    -0.06  -0.04   0.03    -0.05  -0.21   0.09
     2   8     0.01  -0.01   0.00     0.02  -0.02   0.04     0.06   0.22   0.13
     3   1     0.03  -0.11   0.02    -0.08  -0.07  -0.02    -0.05  -0.17   0.10
     4   1     0.11   0.06  -0.00    -0.04   0.00   0.08    -0.05  -0.26  -0.00
     5   1     0.02   0.15  -0.01     0.11   0.93   0.11     0.02  -0.60   0.20
     6   6    -0.05   0.03  -0.00     0.04   0.04  -0.03     0.03   0.10  -0.08
     7   6     0.00  -0.01  -0.00    -0.01  -0.03  -0.05    -0.03  -0.07  -0.15
     8   1    -0.06   0.03  -0.03     0.05  -0.07  -0.02    -0.00   0.10  -0.16
     9   1    -0.06   0.04   0.03     0.10   0.08  -0.05    -0.10  -0.06  -0.15
    10   1     0.54  -0.25   0.01    -0.10  -0.04   0.03    -0.03  -0.19   0.10
    11   1    -0.42  -0.35  -0.09     0.03  -0.02  -0.08    -0.10  -0.18  -0.27
    12   1    -0.04   0.52   0.07    -0.02  -0.13  -0.12    -0.06  -0.11  -0.26
                      7                      8                      9
                      A                      A                      A
 Frequencies --    610.9899               806.0075               931.2284
 Red. masses --      1.0608                 1.1528                 1.1502
 Frc consts  --      0.2333                 0.4413                 0.5877
 IR Inten    --   13.45                  1.668                 0.2552    
  Atom  AN      X      Y      Z        X      Y      Z        X      Y      Z
     1   6     0.04  -0.01   0.00    -0.07   0.03  -0.00    -0.05  -0.01  -0.02
     2   8    -0.01  -0.01  -0.00     0.01  -0.00  -0.00     0.00   0.01   0.01
     3   1     0.03   0.44  -0.02    -0.07  -0.38   0.01    -0.03  -0.13   0.04
     4   1    -0.31  -0.31   0.01     0.24   0.31  -0.01     0.11   0.14  -0.00
     5   1    -0.02   0.16  -0.05     0.05  -0.05   0.11     0.04  -0.02   0.12
     6   6     0.05  -0.02   0.00     0.07  -0.03  -0.00     0.02  -0.02   0.02
     7   6    -0.00   0.00   0.00     0.04  -0.02   0.00    -0.05  -0.05  -0.07
     8   1     0.01   0.52  -0.04    -0.08   0.23  -0.31     0.21   0.50   0.49
     9   1    -0.37  -0.37   0.04    -0.21  -0.08   0.32     0.08   0.07   0.09
    10   1     0.00  -0.00  -0.00    -0.17   0.08  -0.01     0.14   0.09  -0.46
    11   1    -0.10  -0.02   0.10    -0.16   0.02   0.37     0.14   0.11  -0.00
    12   1    -0.05   0.08  -0.10    -0.11   0.10  -0.37     0.06   0.09   0.28
                     10                     11                     12
                      A                      A                      A
 Frequencies --    932.9177              1064.0081              1112.7281
 Red. masses --      1.1508                 2.8737                 1.4320
 Frc consts  --      0.5901                 1.9168                 1.0446
 IR Inten    --   3.215                  104.8                  180.3    
  Atom  AN      X      Y      Z        X      Y      Z        X      Y      Z
     1   6     0.05  -0.05  -0.01     0.03   0.08   0.12    -0.02   0.02   0.08
     2   8    -0.00   0.01   0.02    -0.01  -0.02  -0.08    -0.00  -0.01  -0.09
     3   1     0.05   0.26  -0.02    -0.07  -0.33  -0.10     0.13   0.07   0.47
     4   1    -0.15  -0.21   0.02    -0.17  -0.23  -0.07     0.02  -0.19  -0.28
     5   1    -0.05   0.02  -0.11    -0.00  -0.02  -0.08     0.20  -0.00   0.45
     6   6    -0.05   0.01   0.01     0.02   0.04   0.30     0.02   0.09  -0.04
     7   6     0.02  -0.05  -0.05     0.01   0.01  -0.22    -0.03  -0.08   0.05
     8   1    -0.10  -0.11  -0.12    -0.09  -0.38   0.08    -0.05  -0.21  -0.21
     9   1     0.19   0.53   0.49    -0.22  -0.35   0.08    -0.08  -0.09  -0.17
    10   1    -0.08   0.13  -0.29     0.02   0.05  -0.30     0.02   0.08  -0.28
    11   1    -0.05   0.06   0.29     0.05   0.02  -0.30     0.07   0.08   0.25
    12   1    -0.04   0.16  -0.13    -0.02   0.05  -0.31     0.00   0.13   0.22
                     13                     14                     15
                      A                      A                      A
 Frequencies --   1117.6183              1125.1207              1191.7969
 Red. masses --      1.2996                 1.2774                 2.3404
 Frc consts  --      0.9564                 0.9527                 1.9586
 IR Inten    --   23.13                  65.01                  64.17    
  Atom  AN      X      Y      Z        X      Y      Z        X      Y      Z
     1   6    -0.04  -0.05  -0.06    -0.00  -0.04  -0.08    -0.00  -0.10   0.23
     2   8     0.00  -0.00  -0.01     0.01   0.01   0.06    -0.00   0.04  -0.20
     3   1     0.19   0.52   0.48    -0.00   0.32  -0.11    -0.05   0.20   0.07
     4   1     0.28   0.24  -0.09     0.19   0.41   0.33     0.10   0.35   0.77
     5   1     0.14   0.01   0.36    -0.10   0.02  -0.24    -0.02  -0.01  -0.26
     6   6    -0.03  -0.06   0.08     0.03   0.06   0.04    -0.00  -0.02  -0.03
     7   6     0.03   0.06  -0.06    -0.03  -0.07  -0.01     0.00   0.01   0.01
     8   1    -0.03  -0.04   0.09    -0.06  -0.32  -0.18     0.04   0.15   0.07
     9   1     0.01   0.01   0.12    -0.19  -0.31  -0.20     0.07   0.11   0.06
    10   1    -0.03  -0.04   0.17     0.03   0.06  -0.28    -0.00  -0.02   0.07
    11   1    -0.05  -0.06  -0.19     0.08   0.09   0.17    -0.02  -0.02  -0.00
    12   1    -0.00  -0.07  -0.19     0.01   0.12   0.16     0.00  -0.03  -0.01
                     16                     17                     18
                      A                      A                      A
 Frequencies --   1237.9144              1388.2755              1414.1521
 Red. masses --      1.3862                 1.2699                 1.2271
 Frc consts  --      1.2516                 1.4420                 1.4459
 IR Inten    --  0.6578                  25.65                  3.904    
  Atom  AN      X      Y      Z        X      Y      Z        X      Y      Z
     1   6    -0.00  -0.00   0.00     0.11  -0.02  -0.05    -0.01  -0.01  -0.00
     2   8     0.00  -0.00  -0.00    -0.08   0.02  -0.01     0.01   0.00   0.00
     3   1     0.00  -0.00   0.01    -0.03  -0.07  -0.44     0.01   0.03   0.04
     4   1     0.01   0.00  -0.01    -0.10   0.06   0.39     0.02   0.02  -0.00
     5   1    -0.00   0.01  -0.01     0.20  -0.04   0.75    -0.01  -0.00  -0.05
     6   6     0.11  -0.04   0.00    -0.00  -0.00   0.01    -0.00  -0.00   0.00
     7   6    -0.13   0.05  -0.00    -0.00   0.00   0.01    -0.00  -0.01   0.14
     8   1    -0.12  -0.02  -0.52    -0.01  -0.04  -0.03    -0.04   0.09  -0.11
     9   1    -0.08   0.09   0.50     0.00   0.00   0.00     0.10   0.03  -0.11
    10   1     0.23  -0.10  -0.00     0.03   0.01  -0.03     0.12   0.26  -0.52
    11   1     0.15   0.07  -0.39     0.01  -0.00  -0.03     0.11  -0.18  -0.50
    12   1     0.04  -0.15   0.40    -0.01  -0.02  -0.04    -0.20  -0.05  -0.50
                     19                     20                     21
                      A                      A                      A
 Frequencies --   1481.2948              1497.5134              1498.7772
 Red. masses --      1.1449                 1.0484                 1.0376
 Frc consts  --      1.4802                 1.3853                 1.3733
 IR Inten    --   1.652                  2.274                  6.904    
  Atom  AN      X      Y      Z        X      Y      Z        X      Y      Z
     1   6     0.00   0.00  -0.01     0.00   0.00  -0.02    -0.00  -0.00   0.01
     2   8     0.00   0.00   0.00     0.00   0.00   0.00     0.00  -0.00   0.00
     3   1     0.04  -0.05   0.09     0.05  -0.08   0.13    -0.01   0.03  -0.02
     4   1    -0.07  -0.01   0.08    -0.10  -0.01   0.11     0.03  -0.01  -0.05
     5   1    -0.00  -0.00  -0.01    -0.00   0.00  -0.01    -0.00  -0.00  -0.01
     6   6     0.02   0.03  -0.10    -0.01  -0.01  -0.01    -0.02   0.01  -0.00
     7   6     0.01   0.02   0.04    -0.02  -0.05   0.01    -0.04   0.02  -0.00
     8   1     0.25  -0.42   0.47     0.02  -0.02   0.06    -0.00  -0.02   0.04
     9   1    -0.49  -0.10   0.47    -0.03   0.00   0.05     0.01   0.01  -0.04
    10   1     0.03   0.06  -0.07    -0.03  -0.17   0.29     0.64  -0.27  -0.01
    11   1    -0.06  -0.08  -0.08     0.56   0.31  -0.15     0.15   0.29   0.36
    12   1    -0.02  -0.10  -0.08    -0.17   0.57  -0.21    -0.09  -0.38  -0.34
                     22                     23                     24
                      A                      A                      A
 Frequencies --   1505.3904              3025.4151              3084.7433
 Red. masses --      1.1194                 1.0415                 1.0918
 Frc consts  --      1.4947                 5.6165                 6.1213
 IR Inten    --   7.800                  48.33                  20.89    
  Atom  AN      X      Y      Z        X      Y      Z        X      Y      Z
     1   6     0.01   0.02  -0.09     0.00   0.00   0.00    -0.00   0.01  -0.01
     2   8     0.01   0.01   0.01    -0.00  -0.00  -0.00    -0.00  -0.00  -0.00
     3   1     0.23  -0.34   0.56     0.00  -0.00  -0.00    -0.06   0.00   0.02
     4   1    -0.44  -0.03   0.48    -0.00  -0.00  -0.00     0.07  -0.08   0.05
     5   1    -0.02   0.01  -0.06     0.00   0.00   0.00     0.00  -0.00  -0.00
     6   6    -0.00  -0.00   0.02     0.00   0.00  -0.00    -0.00  -0.00   0.01
     7   6     0.00   0.01  -0.01    -0.01  -0.02  -0.05     0.03   0.08  -0.01
     8   1    -0.05   0.05  -0.09    -0.02   0.00   0.01     0.09  -0.00  -0.04
     9   1     0.08   0.00  -0.09     0.01  -0.01   0.01    -0.06   0.06  -0.04
    10   1     0.04   0.01  -0.05     0.29   0.67   0.34    -0.20  -0.46  -0.25
    11   1    -0.12  -0.04   0.07     0.23  -0.34   0.13     0.35  -0.46   0.20
    12   1     0.04  -0.15   0.04    -0.39  -0.06   0.12    -0.49  -0.05   0.16
                     25                     26                     27
                      A                      A                      A
 Frequencies --   3091.3590              3112.3337              3117.9742
 Red. masses --      1.0573                 1.0986                 1.0595
 Frc consts  --      5.9532                 6.2697                 6.0687
 IR Inten    --   34.71                  18.82                  37.55    
  Atom  AN      X      Y      Z        X      Y      Z        X      Y      Z
     1   6     0.01  -0.05   0.05     0.00   0.00  -0.00     0.00   0.00   0.00
     2   8    -0.00  -0.00  -0.00    -0.00  -0.00  -0.00    -0.00  -0.00  -0.00
     3   1     0.42  -0.02  -0.15    -0.01  -0.00   0.00     0.00   0.00   0.00
     4   1    -0.55   0.58  -0.38     0.00  -0.00   0.00    -0.00   0.00  -0.00
     5   1    -0.00   0.00   0.00     0.00  -0.00  -0.00     0.00  -0.00  -0.00
     6   6    -0.00   0.00   0.00    -0.02  -0.01   0.01    -0.02  -0.03   0.05
     7   6     0.00   0.01  -0.00     0.08  -0.03  -0.00    -0.03  -0.00  -0.00
     8   1     0.01  -0.00  -0.01     0.28   0.01  -0.12     0.66   0.00  -0.27
     9   1    -0.00   0.01  -0.00    -0.06   0.05  -0.04    -0.40   0.41  -0.25
    10   1    -0.03  -0.06  -0.03     0.02  -0.01   0.00     0.03   0.09   0.05
    11   1     0.04  -0.05   0.02    -0.34   0.50  -0.21     0.06  -0.09   0.04
    12   1    -0.07  -0.01   0.02    -0.65  -0.09   0.22     0.25   0.03  -0.08
                     28                     29                     30
                      A                      A                      A
 Frequencies --   3197.0036              3212.2460              3916.5594
 Red. masses --      1.1134                 1.1130                 1.0662
 Frc consts  --      6.7046                 6.7668                 9.6363
 IR Inten    --   23.82                  19.50                  60.62    
  Atom  AN      X      Y      Z        X      Y      Z        X      Y      Z
     1   6    -0.01   0.00   0.00    -0.09   0.03   0.01    -0.00   0.00  -0.00
     2   8     0.00  -0.00  -0.00     0.00  -0.00  -0.00    -0.06   0.00   0.02
     3   1     0.06  -0.00  -0.02     0.84  -0.01  -0.31     0.01  -0.00  -0.00
     4   1     0.02  -0.01   0.01     0.25  -0.29   0.18     0.00  -0.00  -0.00
     5   1    -0.00   0.00   0.00    -0.02   0.00  -0.00     0.93  -0.07  -0.34
     6   6     0.09  -0.04   0.01    -0.01   0.00  -0.00     0.00   0.00  -0.00
     7   6     0.01  -0.01  -0.00    -0.00   0.00  -0.00    -0.00  -0.00   0.00
     8   1    -0.57  -0.02   0.25     0.04   0.01  -0.02    -0.00   0.00   0.00
     9   1    -0.47   0.51  -0.32     0.03  -0.04   0.02     0.00  -0.00   0.00
    10   1     0.00   0.00   0.00    -0.00  -0.00  -0.00    -0.00  -0.00  -0.00
    11   1    -0.05   0.07  -0.03     0.00  -0.00   0.00    -0.00   0.00  -0.00
    12   1    -0.09  -0.01   0.03     0.00  -0.00  -0.00     0.00   0.00  -0.00

 -------------------
 - Thermochemistry -
 -------------------
 Temperature   298.150 Kelvin.  Pressure   1.00000 Atm.
 Atom     1 has atomic number  6 and mass  12.00000
 Atom     2 has atomic number  8 and mass  15.99491
 Atom     3 has atomic number  1 and mass   1.00783
 Atom     4 has atomic number  1 and mass   1.00783
 Atom     5 has atomic number  1 and mass   1.00783
 Atom     6 has atomic number  6 and mass  12.00000
 Atom     7 has atomic number  6 and mass  12.00000
 Atom     8 has atomic number  1 and mass   1.00783
 Atom     9 has atomic number  1 and mass   1.00783
 Atom    10 has atomic number  1 and mass   1.00783
 Atom    11 has atomic number  1 and mass   1.00783
 Atom    12 has atomic number  1 and mass   1.00783
 Molecular mass:    60.05751 amu.
 Principal axes and moments of inertia in atomic units:
                           1         2         3
     Eigenvalues --    85.94259 609.49320 655.87363
           X            0.20347   0.36617   0.90803
           Y            0.51572   0.74826  -0.41731
           Z            0.83224  -0.55320   0.03659
 This molecule is an asymmetric top.
 Rotational symmetry number  1.
 Rotational temperatures (Kelvin)      1.00781     0.14211     0.13206
 Rotational constants (GHZ):          20.99938     2.96105     2.75166
    1 imaginary frequencies ignored.
 Zero-point vibrational energy     274342.9 (Joules/Mol)
                                   65.56953 (Kcal/Mol)
 Warning -- explicit consideration of   6 degrees of freedom as
           vibrations may cause significant error
 Vibrational temperatures:     71.43   250.59   288.92   510.08   595.71
          (Kelvin)            879.08  1159.66  1339.83  1342.26  1530.87
                             1600.97  1608.00  1618.80  1714.73  1781.08
                             1997.42  2034.65  2131.25  2154.59  2156.40
                             2165.92  4352.89  4438.25  4447.77  4477.95
                             4486.06  4599.77  4621.70  5635.05
 
 Zero-point correction=                           0.104492 (Hartree/Particle)
 Thermal correction to Energy=                    0.110465
 Thermal correction to Enthalpy=                  0.111409
 Thermal correction to Gibbs Free Energy=         0.075330
 Sum of electronic and zero-point Energies=           -194.187963
 Sum of electronic and thermal Energies=              -194.181989
 Sum of electronic and thermal Enthalpies=            -194.181045
 Sum of electronic and thermal Free Energies=         -194.217124
 
                     E (Thermal)             CV                S
                      KCal/Mol        Cal/Mol-Kelvin    Cal/Mol-Kelvin
 Total                   69.318             19.237             75.935
 Electronic               0.000              0.000              0.000
 Translational            0.889              2.981             38.198
 Rotational               0.889              2.981             25.044
 Vibrational             67.540             13.275             12.693
 Vibration     1          0.595              1.978              4.832
 Vibration     2          0.627              1.874              2.390
 Vibration     3          0.638              1.839              2.126
 Vibration     4          0.730              1.566              1.146
 Vibration     5          0.778              1.440              0.912
 Vibration     6          0.970              1.009              0.431
                       Q            Log10(Q)             Ln(Q)
 Total Bot       0.224211D-34        -34.649343        -79.783060
 Total V=0       0.259059D+14         13.413399         30.885492
 Vib (Bot)       0.184717D-46        -46.733494       -107.607847
 Vib (Bot)    1  0.416426D+01          0.619538          1.426539
 Vib (Bot)    2  0.115549D+01          0.062768          0.144528
 Vib (Bot)    3  0.992664D+00         -0.003198         -0.007363
 Vib (Bot)    4  0.518875D+00         -0.284937         -0.656092
 Vib (Bot)    5  0.426011D+00         -0.370579         -0.853290
 Vib (Bot)    6  0.241624D+00         -0.616861         -1.420374
 Vib (V=0)       0.213426D+02          1.329247          3.060705
 Vib (V=0)    1  0.469417D+01          0.671559          1.546322
 Vib (V=0)    2  0.175903D+01          0.245274          0.564765
 Vib (V=0)    3  0.161148D+01          0.207224          0.477151
 Vib (V=0)    4  0.122058D+01          0.086565          0.199324
 Vib (V=0)    5  0.115688D+01          0.063287          0.145723
 Vib (V=0)    6  0.105532D+01          0.023385          0.053845
 Electronic      0.100000D+01          0.000000          0.000000
 Translational   0.182939D+08          7.262306         16.722078
 Rotational      0.663506D+05          4.821845         11.102709
 -------------------------------------------------------------------
 Center     Atomic                   Forces (Hartrees/Bohr)
 Number     Number              X              Y              Z
 -------------------------------------------------------------------
      1        6          -0.024974984   -0.058931695   -0.026332079
      2        8           0.000003672   -0.000005696   -0.000018540
      3        1          -0.000003940   -0.000005475   -0.000008301
      4        1          -0.000007667   -0.000018066    0.000000820
      5        1          -0.000002818    0.000007027    0.000012329
      6        6           0.024998609    0.059045870    0.026374373
      7        6           0.000018222   -0.000007843   -0.000034452
      8        1          -0.000002795   -0.000049162   -0.000007220
      9        1          -0.000010967   -0.000024893   -0.000004666
     10        1          -0.000010911   -0.000000529    0.000004173
     11        1          -0.000001786   -0.000003831    0.000002081
     12        1          -0.000004634   -0.000005708    0.000011481
 -------------------------------------------------------------------
 Cartesian Forces:  Max     0.059045870 RMS     0.016327407
 From PutF, contents of force:
   1   -0.6211264620D-05
   2   -0.7983153390D-06
   3   -0.8078858234D-05
   4    0.7226826262D-05
   5    0.1872559778D-04
   6    0.6113027649D-05
   7    0.1903434774D-04
   8   -0.3271694134D-04
   9    0.1547393481D-04
  10    0.1483976421D-05
  11    0.8299398885D-05
  12    0.2482347737D-05
  13   -0.2677863603D-05
  14   -0.8730576730D-05
  15   -0.9881798244D-05
  16   -0.1389123384D-04
  17   -0.1232181502D-04
  18   -0.3164466211D-05
  19   -0.1956016091D-04
  20   -0.4696866359D-04
  21   -0.6828230601D-05
  22    0.8488825978D-05
  23   -0.1432459665D-04
  24    0.8381038421D-05
  25    0.2446418845D-04
  26   -0.1160194884D-04
  27    0.2043379295D-04
  28   -0.3166840130D-05
  29    0.2770242816D-04
  30   -0.6923835355D-01
 -----------------------------------------------------------------------------------------------
                       Internal Coordinate Forces (Hartree/Bohr or radian)
  Cent   Atom   N1       Length/X         N2         Alpha/Y        N3         Beta/Z          J
 -----------------------------------------------------------------------------------------------
      1  C 
      2  O        1  -0.000006(     1)
      3  H        1  -0.000001(     2)      2   0.000019(    12)
      4  H        1  -0.000008(     3)      2   0.000006(    13)      3  -0.000033(    22)     0
      5  H        2   0.000007(     4)      1   0.000019(    14)      3  -0.000012(    23)     0
      6  C        1  -0.069238(     5)      2   0.000028(    15)      3  -0.000003(    24)     0
      7  C        6   0.000015(     6)      1  -0.000014(    16)      2   0.000008(    25)     0
      8  H        6   0.000001(     7)      7  -0.000010(    17)      1   0.000024(    26)     0
      9  H        6   0.000008(     8)      7  -0.000014(    18)      8  -0.000047(    27)     0
     10  H        7   0.000002(     9)      6  -0.000012(    19)      8   0.000020(    28)     0
     11  H        7  -0.000003(    10)      6  -0.000003(    20)     10  -0.000007(    29)     0
     12  H        7  -0.000009(    11)      6  -0.000020(    21)     10   0.000008(    30)     0
 -----------------------------------------------------------------------------------------------
 Internal  Forces:  Max     0.069238354 RMS     0.012641146
 Force constants in Cartesian coordinates: 
                1             2             3             4             5 
      1  0.606018D+00
      2 -0.166749D+00  0.245542D+00
      3 -0.666983D-01 -0.132401D+00  0.520519D+00
      4 -0.100451D+00  0.110155D-01  0.208679D-01  0.575156D+00
      5  0.123501D-01 -0.495370D-01 -0.215075D-04 -0.456106D-01  0.458056D-01
      6 -0.151370D-01  0.262673D-01 -0.305027D+00 -0.150639D+00  0.181697D-02
      7 -0.315438D+00  0.123971D-01  0.948275D-01  0.542271D-02 -0.590930D-03
      8  0.556007D-03 -0.365326D-01  0.105145D-01 -0.117416D-03  0.135791D-02
      9  0.751450D-01  0.371996D-02 -0.754015D-01  0.393711D-01 -0.900781D-03
     10 -0.154385D+00  0.117632D+00 -0.595988D-01  0.714985D-02 -0.161812D-02
     11  0.130570D+00 -0.168611D+00  0.865226D-01 -0.363681D-02  0.740696D-02
     12 -0.574524D-01  0.700584D-01 -0.912958D-01 -0.198404D-01  0.256716D-01
     13 -0.293292D-03  0.117968D-02 -0.463492D-02 -0.491049D+00  0.363130D-01
     14 -0.664982D-03 -0.108329D-02 -0.133805D-02  0.375806D-01 -0.851626D-02
     15  0.478576D-01 -0.445411D-02 -0.231932D-01  0.117268D+00 -0.833158D-02
     16 -0.385017D-01  0.275812D-01  0.138836D-01  0.357249D-02  0.693225D-03
     17  0.270810D-01  0.140426D-01  0.349167D-01  0.163470D-02  0.699985D-02
     18  0.176839D-01  0.393558D-01 -0.247444D-01 -0.659575D-02 -0.165339D-01
     19  0.130106D-02  0.262956D-02 -0.398474D-02 -0.106420D-02 -0.285226D-02
     20  0.308306D-02  0.598101D-02 -0.944556D-02 -0.220199D-02 -0.673885D-02
     21 -0.111975D-02 -0.248202D-02 -0.855337D-02 -0.763504D-03 -0.161718D-02
     22 -0.294773D-02  0.551126D-03  0.314109D-02  0.749842D-03 -0.146679D-03
     23 -0.138101D-01 -0.172547D-02  0.645351D-02  0.197232D-02  0.125171D-02
     24 -0.681314D-02 -0.699633D-03  0.229531D-02  0.894246D-03  0.892761D-03
     25  0.387942D-02 -0.662825D-02  0.278229D-02  0.408301D-04  0.152027D-02
     26  0.725326D-02 -0.982054D-02  0.688489D-02 -0.179554D-03  0.204389D-02
     27  0.385508D-02 -0.547046D-02  0.267772D-02 -0.174079D-04  0.147778D-02
     28  0.706969D-03  0.266697D-03  0.172421D-03  0.244395D-03  0.214946D-04
     29  0.285751D-03  0.136672D-02 -0.119361D-04 -0.165186D-03 -0.600155D-04
     30  0.207746D-02  0.457413D-02  0.316121D-03 -0.661474D-03 -0.246470D-02
     31 -0.139742D-03  0.378041D-03  0.331995D-03  0.142623D-03 -0.138600D-03
     32 -0.693640D-03  0.434646D-03 -0.149517D-02 -0.161348D-03 -0.486186D-04
     33  0.664788D-04  0.937480D-03  0.123759D-02  0.287113D-03 -0.106923D-03
     34  0.251067D-03 -0.253990D-03 -0.108990D-02  0.851448D-04  0.590830D-04
     35  0.738533D-03 -0.570634D-04 -0.578866D-03 -0.130154D-03  0.348549D-04
     36  0.535076D-03  0.594204D-03  0.116863D-02 -0.170966D-03  0.117448D-03
                6             7             8             9            10 
      6  0.461135D+00
      7  0.104061D-02  0.321228D+00
      8 -0.284669D-02 -0.766157D-02  0.349559D-01
      9 -0.227610D-01 -0.990544D-01 -0.231307D-02  0.968544D-01
     10 -0.195019D-02 -0.117211D-01  0.205288D-01 -0.113772D-01  0.154259D+00
     11 -0.318140D-02 -0.285674D-02  0.273846D-02 -0.738056D-03 -0.127101D+00
     12 -0.311202D-01  0.542660D-02 -0.707703D-02  0.659119D-02  0.718898D-01
     13  0.170567D+00  0.259956D-02 -0.688818D-04  0.153448D-03  0.119230D-02
     14 -0.114813D-01  0.135844D-03  0.189107D-02  0.109491D-02 -0.167854D-02
     15 -0.877693D-01 -0.154787D-02  0.525751D-03 -0.701465D-02 -0.304590D-03
     16  0.201524D-02 -0.237067D-02 -0.136764D-01 -0.485397D-02  0.438278D-02
     17  0.173503D-02  0.109905D-03 -0.176835D-02 -0.800596D-03 -0.718802D-02
     18 -0.908926D-02  0.843549D-03  0.223502D-02  0.156041D-02  0.901375D-03
     19 -0.391389D-02 -0.330874D-03 -0.423576D-03 -0.237949D-03  0.213713D-03
     20 -0.890382D-02 -0.430495D-03 -0.338162D-04  0.670658D-03 -0.372003D-04
     21 -0.547042D-04 -0.426369D-03  0.111917D-02  0.929541D-03  0.132277D-02
     22 -0.289393D-02  0.315321D-03 -0.838564D-03 -0.184496D-03 -0.102382D-03
     23 -0.179503D-02 -0.609857D-03 -0.331596D-02 -0.107810D-02  0.608990D-03
     24 -0.127078D-03 -0.372757D-03 -0.149792D-02 -0.686127D-03  0.542076D-03
     25  0.116483D-03  0.458108D-04  0.571757D-03  0.283219D-03 -0.794807D-03
     26 -0.346497D-02 -0.365958D-03  0.298059D-03  0.271529D-03 -0.205597D-02
     27 -0.584089D-03  0.155294D-04  0.702769D-03  0.143268D-03 -0.827118D-03
     28  0.147705D-03  0.152932D-03  0.524638D-03  0.347249D-03 -0.179425D-03
     29  0.309224D-03  0.273066D-04  0.794241D-04  0.602325D-04  0.284472D-03
     30 -0.433976D-02 -0.320925D-03 -0.509267D-03  0.273951D-04 -0.244989D-03
     31  0.670326D-04  0.374794D-04 -0.171688D-04 -0.549333D-04 -0.123488D-03
     32  0.975135D-03 -0.179968D-04  0.617623D-04  0.107890D-04  0.607495D-03
     33 -0.126347D-03  0.122413D-04 -0.224435D-03  0.171369D-05 -0.176085D-03
     34  0.580112D-03  0.585957D-04  0.622305D-03  0.462852D-03  0.108749D-03
     35  0.569511D-03 -0.136637D-03  0.268144D-03  0.252546D-05  0.165762D-04
     36 -0.136105D-03 -0.443695D-03 -0.628770D-03 -0.244574D-03 -0.177047D-03
               11            12            13            14            15 
     11  0.170107D+00
     12 -0.843328D-01  0.111639D+00
     13 -0.745404D-03 -0.218243D-02  0.487577D+00
     14  0.122416D-03 -0.339087D-03 -0.362257D-01  0.742137D-02
     15  0.102687D-02  0.137290D-02 -0.162572D+00  0.115615D-01  0.115642D+00
     16  0.663263D-02  0.254553D-02  0.101454D-02  0.153350D-02 -0.288609D-03
     17 -0.930888D-02 -0.456114D-02  0.456838D-03  0.801797D-04 -0.518795D-03
     18  0.306097D-02  0.225139D-02 -0.107136D-02  0.415283D-03  0.648575D-03
     19  0.968804D-05  0.743434D-03 -0.509250D-03 -0.866705D-04  0.174605D-03
     20 -0.952424D-03  0.526795D-03 -0.881505D-03  0.292609D-03  0.569161D-03
     21  0.598207D-03  0.134777D-02 -0.962041D-04 -0.250795D-03  0.528537D-04
     22 -0.600138D-03 -0.629320D-04 -0.464261D-03 -0.426679D-03 -0.295974D-03
     23 -0.248898D-04  0.292416D-03 -0.129920D-04  0.515450D-04 -0.589437D-03
     24  0.425283D-03  0.777070D-04  0.203035D-03 -0.138331D-03 -0.176960D-03
     25 -0.181961D-02 -0.629361D-03 -0.105610D-03  0.199637D-05 -0.142068D-03
     26 -0.250574D-02 -0.104901D-02 -0.143797D-03 -0.159645D-03  0.144374D-03
     27 -0.143018D-02 -0.715414D-03  0.627773D-04 -0.121565D-03  0.879753D-04
     28 -0.233056D-03 -0.207598D-03  0.123074D-04 -0.870272D-04 -0.471417D-04
     29  0.471809D-03  0.356085D-03  0.823626D-05  0.232926D-04  0.752557D-04
     30 -0.830909D-03  0.907497D-04 -0.423613D-03  0.255388D-03  0.303037D-03
     31 -0.318764D-03 -0.337432D-03  0.157199D-04  0.838776D-04 -0.113326D-04
     32  0.492827D-03  0.481302D-03  0.969105D-04 -0.570990D-04 -0.144868D-04
     33 -0.914448D-03 -0.217958D-03 -0.431970D-04  0.146308D-03 -0.752152D-04
     34  0.989940D-04  0.107208D-03  0.946849D-05 -0.166143D-03 -0.905498D-04
     35  0.636265D-04 -0.275208D-04  0.236008D-04 -0.661937D-04  0.551023D-05
     36 -0.206101D-03 -0.215641D-04  0.379034D-04  0.195721D-03  0.121826D-03
               16            17            18            19            20 
     16  0.557366D+00
     17 -0.152767D+00  0.261635D+00
     18 -0.558082D-01 -0.143081D+00  0.477840D+00
     19 -0.819915D-01  0.681909D-02  0.793341D-02  0.568061D+00
     20  0.710919D-02 -0.689424D-01  0.146797D-01 -0.959362D-02  0.547607D+00
     21  0.110980D-01  0.225111D-01 -0.225882D+00 -0.311248D-02 -0.839758D-02
     22 -0.291293D+00  0.198098D-02  0.103275D+00  0.224381D-02 -0.112601D-03
     23 -0.870471D-02 -0.352772D-01  0.131692D-01 -0.868670D-03  0.365613D-03
     24  0.953757D-01  0.782956D-02 -0.876018D-01  0.315754D-01  0.220814D-02
     25 -0.154702D+00  0.122368D+00 -0.666916D-01  0.241670D-02 -0.226224D-02
     26  0.131937D+00 -0.169436D+00  0.884923D-01 -0.964475D-03  0.142455D-02
     27 -0.652785D-01  0.798179D-01 -0.937988D-01 -0.197263D-01  0.237186D-01
     28  0.549980D-03  0.187753D-02 -0.308935D-03 -0.788442D-01 -0.760961D-01
     29  0.163055D-02  0.345316D-02 -0.960016D-03 -0.761370D-01 -0.222828D+00
     30 -0.116351D-01 -0.273863D-01 -0.171037D-01 -0.394443D-01 -0.917395D-01
     31  0.111181D-02 -0.251525D-02 -0.472884D-03 -0.127464D+00  0.111483D+00
     32 -0.741054D-04 -0.560841D-03 -0.198085D-03  0.111774D+00 -0.204401D+00
     33 -0.209856D-01  0.266884D-01 -0.123859D-01 -0.449066D-01  0.652896D-01
     34  0.860969D-03  0.141942D-03  0.311596D-03 -0.284033D+00 -0.300595D-01
     35 -0.189582D-02 -0.917455D-03 -0.634779D-03 -0.303057D-01 -0.517746D-01
     36  0.339319D-01  0.284961D-02 -0.116948D-01  0.748993D-01  0.108239D-01
               21            22            23            24            25 
     21  0.485488D+00
     22 -0.249914D-02  0.303716D+00
     23  0.572242D-04  0.191475D-02  0.342412D-01
     24 -0.966661D-02 -0.108636D+00 -0.833626D-02  0.949398D-01
     25  0.211939D-02 -0.144089D-01  0.203357D-01 -0.117351D-01  0.161637D+00
     26 -0.201407D-02 -0.258517D-02  0.305585D-02 -0.929791D-03 -0.133060D+00
     27 -0.100428D-01  0.742915D-02 -0.883379D-02  0.536056D-02  0.735845D-01
     28 -0.375656D-01  0.123376D-03  0.118718D-03 -0.294648D-03  0.282526D-05
     29 -0.875628D-01  0.265689D-03  0.253019D-03 -0.534533D-03  0.262970D-04
     30 -0.905305D-01  0.527450D-03  0.325121D-03  0.100399D-02 -0.182987D-03
     31 -0.450506D-01  0.503616D-03 -0.558555D-03 -0.412288D-03  0.132246D-02
     32  0.664696D-01 -0.212705D-03  0.936374D-04  0.396305D-03 -0.639359D-03
     33 -0.728536D-01  0.499184D-03 -0.475665D-03  0.123530D-02  0.115953D-02
     34  0.760935D-01  0.156390D-02 -0.385545D-03 -0.326249D-03  0.665970D-03
     35  0.115690D-01  0.209998D-03  0.103095D-02  0.384417D-03 -0.414697D-03
     36 -0.702348D-01 -0.298898D-03  0.810840D-03 -0.665404D-02 -0.664345D-03
               26            27            28            29            30 
     26  0.173767D+00
     27 -0.892004D-01  0.101192D+00
     28  0.141737D-03 -0.201989D-03  0.813938D-01
     29  0.297464D-03 -0.562241D-03  0.844210D-01  0.241292D+00
     30  0.623896D-03  0.893836D-03  0.428488D-01  0.997798D-01  0.101433D+00
     31  0.663669D-04  0.583742D-03  0.661631D-02 -0.969362D-02  0.450791D-02
     32  0.112970D-02 -0.729315D-04  0.154731D-01 -0.210799D-01  0.863403D-02
     33  0.191488D-03 -0.648247D-02  0.831692D-02 -0.101578D-01  0.407737D-02
     34 -0.440368D-04  0.520524D-03 -0.107793D-01 -0.953521D-03  0.295168D-02
     35 -0.949682D-04 -0.254172D-04 -0.264288D-01 -0.326913D-02  0.873838D-02
     36  0.497973D-04  0.126832D-02 -0.132072D-01 -0.791255D-03  0.382894D-02
               31            32            33            34            35 
     31  0.133409D+00
     32 -0.123030D+00  0.219930D+00
     33  0.510266D-01 -0.726567D-01  0.830428D-01
     34 -0.154318D-01 -0.312159D-02  0.474341D-02  0.306640D+00
     35  0.242611D-01  0.400405D-02 -0.871725D-02  0.340620D-01  0.507778D-01
     36 -0.101779D-01 -0.252984D-02  0.254664D-02 -0.842642D-01 -0.112855D-01
               36 
     36  0.800516D-01
 FCInt: Cartesian first derivatives: 
                 1             2             3             4             5 
      1  -0.249750D-01  0.367200D-05 -0.394010D-05 -0.766748D-05 -0.281788D-05
      2  -0.589317D-01 -0.569594D-05 -0.547487D-05 -0.180663D-04  0.702719D-05
      3  -0.263321D-01 -0.185398D-04 -0.830056D-05  0.000000D+00  0.123286D-04
                 6             7             8             9            10 
      1   0.249986D-01  0.182215D-04 -0.279483D-05 -0.109674D-04 -0.109112D-04
      2   0.590459D-01 -0.784294D-05 -0.491619D-04 -0.248928D-04  0.000000D+00
      3   0.263744D-01 -0.344519D-04 -0.721962D-05 -0.466618D-05  0.417310D-05
                11            12 
      1  -0.178591D-05 -0.463402D-05
      2  -0.383074D-05 -0.570791D-05
      3   0.208132D-05  0.114813D-04
 FCInt: Cartesian force constants: 
                1             2             3             4             5 
      1  0.606018D+00
      2 -0.166749D+00  0.245542D+00
      3 -0.666983D-01 -0.132401D+00  0.520519D+00
      4 -0.100451D+00  0.110155D-01  0.208679D-01  0.575156D+00
      5  0.123501D-01 -0.495370D-01 -0.215075D-04 -0.456106D-01  0.458056D-01
      6 -0.151370D-01  0.262673D-01 -0.305027D+00 -0.150639D+00  0.181697D-02
      7 -0.315438D+00  0.123971D-01  0.948275D-01  0.542271D-02 -0.590930D-03
      8  0.556007D-03 -0.365326D-01  0.105145D-01 -0.117416D-03  0.135791D-02
      9  0.751450D-01  0.371996D-02 -0.754015D-01  0.393711D-01 -0.900781D-03
     10 -0.154385D+00  0.117632D+00 -0.595988D-01  0.714985D-02 -0.161812D-02
     11  0.130570D+00 -0.168611D+00  0.865226D-01 -0.363681D-02  0.740696D-02
     12 -0.574524D-01  0.700584D-01 -0.912958D-01 -0.198404D-01  0.256716D-01
     13 -0.293292D-03  0.117968D-02 -0.463492D-02 -0.491049D+00  0.363130D-01
     14 -0.664982D-03 -0.108329D-02 -0.133805D-02  0.375806D-01 -0.851626D-02
     15  0.478576D-01 -0.445411D-02 -0.231932D-01  0.117268D+00 -0.833158D-02
     16 -0.385017D-01  0.275812D-01  0.138836D-01  0.357249D-02  0.693225D-03
     17  0.270810D-01  0.140426D-01  0.349167D-01  0.163470D-02  0.699985D-02
     18  0.176839D-01  0.393558D-01 -0.247444D-01 -0.659575D-02 -0.165339D-01
     19  0.130106D-02  0.262956D-02 -0.398474D-02 -0.106420D-02 -0.285226D-02
     20  0.308306D-02  0.598101D-02 -0.944556D-02 -0.220199D-02 -0.673885D-02
     21 -0.111975D-02 -0.248202D-02 -0.855337D-02 -0.763504D-03 -0.161718D-02
     22 -0.294773D-02  0.551126D-03  0.314109D-02  0.749842D-03 -0.146679D-03
     23 -0.138101D-01 -0.172547D-02  0.645351D-02  0.197232D-02  0.125171D-02
     24 -0.681314D-02 -0.699633D-03  0.229531D-02  0.894246D-03  0.892761D-03
     25  0.387942D-02 -0.662825D-02  0.278229D-02  0.408301D-04  0.152027D-02
     26  0.725326D-02 -0.982054D-02  0.688489D-02 -0.179554D-03  0.204389D-02
     27  0.385508D-02 -0.547046D-02  0.267772D-02 -0.174079D-04  0.147778D-02
     28  0.706969D-03  0.266697D-03  0.172421D-03  0.244395D-03  0.214946D-04
     29  0.285751D-03  0.136672D-02 -0.119361D-04 -0.165186D-03 -0.600155D-04
     30  0.207746D-02  0.457413D-02  0.316121D-03 -0.661474D-03 -0.246470D-02
     31 -0.139742D-03  0.378041D-03  0.331995D-03  0.142623D-03 -0.138600D-03
     32 -0.693640D-03  0.434646D-03 -0.149517D-02 -0.161348D-03 -0.486186D-04
     33  0.664788D-04  0.937480D-03  0.123759D-02  0.287113D-03 -0.106923D-03
     34  0.251067D-03 -0.253990D-03 -0.108990D-02  0.851448D-04  0.590830D-04
     35  0.738533D-03 -0.570634D-04 -0.578866D-03 -0.130154D-03  0.348549D-04
     36  0.535076D-03  0.594204D-03  0.116863D-02 -0.170966D-03  0.117448D-03
                6             7             8             9            10 
      6  0.461135D+00
      7  0.104061D-02  0.321228D+00
      8 -0.284669D-02 -0.766157D-02  0.349559D-01
      9 -0.227610D-01 -0.990544D-01 -0.231307D-02  0.968544D-01
     10 -0.195019D-02 -0.117211D-01  0.205288D-01 -0.113772D-01  0.154259D+00
     11 -0.318140D-02 -0.285674D-02  0.273846D-02 -0.738056D-03 -0.127101D+00
     12 -0.311202D-01  0.542660D-02 -0.707703D-02  0.659119D-02  0.718898D-01
     13  0.170567D+00  0.259956D-02 -0.688818D-04  0.153448D-03  0.119230D-02
     14 -0.114813D-01  0.135844D-03  0.189107D-02  0.109491D-02 -0.167854D-02
     15 -0.877693D-01 -0.154787D-02  0.525751D-03 -0.701465D-02 -0.304590D-03
     16  0.201524D-02 -0.237067D-02 -0.136764D-01 -0.485397D-02  0.438278D-02
     17  0.173503D-02  0.109905D-03 -0.176835D-02 -0.800596D-03 -0.718802D-02
     18 -0.908926D-02  0.843549D-03  0.223502D-02  0.156041D-02  0.901375D-03
     19 -0.391389D-02 -0.330874D-03 -0.423576D-03 -0.237949D-03  0.213713D-03
     20 -0.890382D-02 -0.430495D-03 -0.338162D-04  0.670658D-03 -0.372003D-04
     21 -0.547042D-04 -0.426369D-03  0.111917D-02  0.929541D-03  0.132277D-02
     22 -0.289393D-02  0.315321D-03 -0.838564D-03 -0.184496D-03 -0.102382D-03
     23 -0.179503D-02 -0.609857D-03 -0.331596D-02 -0.107810D-02  0.608990D-03
     24 -0.127078D-03 -0.372757D-03 -0.149792D-02 -0.686127D-03  0.542076D-03
     25  0.116483D-03  0.458108D-04  0.571757D-03  0.283219D-03 -0.794807D-03
     26 -0.346497D-02 -0.365958D-03  0.298059D-03  0.271529D-03 -0.205597D-02
     27 -0.584089D-03  0.155294D-04  0.702769D-03  0.143268D-03 -0.827118D-03
     28  0.147705D-03  0.152932D-03  0.524638D-03  0.347249D-03 -0.179425D-03
     29  0.309224D-03  0.273066D-04  0.794241D-04  0.602325D-04  0.284472D-03
     30 -0.433976D-02 -0.320925D-03 -0.509267D-03  0.273951D-04 -0.244989D-03
     31  0.670326D-04  0.374794D-04 -0.171688D-04 -0.549333D-04 -0.123488D-03
     32  0.975135D-03 -0.179968D-04  0.617623D-04  0.107890D-04  0.607495D-03
     33 -0.126347D-03  0.122413D-04 -0.224435D-03  0.171369D-05 -0.176085D-03
     34  0.580112D-03  0.585957D-04  0.622305D-03  0.462852D-03  0.108749D-03
     35  0.569511D-03 -0.136637D-03  0.268144D-03  0.252546D-05  0.165762D-04
     36 -0.136105D-03 -0.443695D-03 -0.628770D-03 -0.244574D-03 -0.177047D-03
               11            12            13            14            15 
     11  0.170107D+00
     12 -0.843328D-01  0.111639D+00
     13 -0.745404D-03 -0.218243D-02  0.487577D+00
     14  0.122416D-03 -0.339087D-03 -0.362257D-01  0.742137D-02
     15  0.102687D-02  0.137290D-02 -0.162572D+00  0.115615D-01  0.115642D+00
     16  0.663263D-02  0.254553D-02  0.101454D-02  0.153350D-02 -0.288609D-03
     17 -0.930888D-02 -0.456114D-02  0.456838D-03  0.801797D-04 -0.518795D-03
     18  0.306097D-02  0.225139D-02 -0.107136D-02  0.415283D-03  0.648575D-03
     19  0.968804D-05  0.743434D-03 -0.509250D-03 -0.866705D-04  0.174605D-03
     20 -0.952424D-03  0.526795D-03 -0.881505D-03  0.292609D-03  0.569161D-03
     21  0.598207D-03  0.134777D-02 -0.962041D-04 -0.250795D-03  0.528537D-04
     22 -0.600138D-03 -0.629320D-04 -0.464261D-03 -0.426679D-03 -0.295974D-03
     23 -0.248898D-04  0.292416D-03 -0.129920D-04  0.515450D-04 -0.589437D-03
     24  0.425283D-03  0.777070D-04  0.203035D-03 -0.138331D-03 -0.176960D-03
     25 -0.181961D-02 -0.629361D-03 -0.105610D-03  0.199637D-05 -0.142068D-03
     26 -0.250574D-02 -0.104901D-02 -0.143797D-03 -0.159645D-03  0.144374D-03
     27 -0.143018D-02 -0.715414D-03  0.627773D-04 -0.121565D-03  0.879753D-04
     28 -0.233056D-03 -0.207598D-03  0.123074D-04 -0.870272D-04 -0.471417D-04
     29  0.471809D-03  0.356085D-03  0.823626D-05  0.232926D-04  0.752557D-04
     30 -0.830909D-03  0.907497D-04 -0.423613D-03  0.255388D-03  0.303037D-03
     31 -0.318764D-03 -0.337432D-03  0.157199D-04  0.838776D-04 -0.113326D-04
     32  0.492827D-03  0.481302D-03  0.969105D-04 -0.570990D-04 -0.144868D-04
     33 -0.914448D-03 -0.217958D-03 -0.431970D-04  0.146308D-03 -0.752152D-04
     34  0.989940D-04  0.107208D-03  0.946849D-05 -0.166143D-03 -0.905498D-04
     35  0.636265D-04 -0.275208D-04  0.236008D-04 -0.661937D-04  0.551023D-05
     36 -0.206101D-03 -0.215641D-04  0.379034D-04  0.195721D-03  0.121826D-03
               16            17            18            19            20 
     16  0.557366D+00
     17 -0.152767D+00  0.261635D+00
     18 -0.558082D-01 -0.143081D+00  0.477840D+00
     19 -0.819915D-01  0.681909D-02  0.793341D-02  0.568061D+00
     20  0.710919D-02 -0.689424D-01  0.146797D-01 -0.959362D-02  0.547607D+00
     21  0.110980D-01  0.225111D-01 -0.225882D+00 -0.311248D-02 -0.839758D-02
     22 -0.291293D+00  0.198098D-02  0.103275D+00  0.224381D-02 -0.112601D-03
     23 -0.870471D-02 -0.352772D-01  0.131692D-01 -0.868670D-03  0.365613D-03
     24  0.953757D-01  0.782956D-02 -0.876018D-01  0.315754D-01  0.220814D-02
     25 -0.154702D+00  0.122368D+00 -0.666916D-01  0.241670D-02 -0.226224D-02
     26  0.131937D+00 -0.169436D+00  0.884923D-01 -0.964475D-03  0.142455D-02
     27 -0.652785D-01  0.798179D-01 -0.937988D-01 -0.197263D-01  0.237186D-01
     28  0.549980D-03  0.187753D-02 -0.308935D-03 -0.788442D-01 -0.760961D-01
     29  0.163055D-02  0.345316D-02 -0.960016D-03 -0.761370D-01 -0.222828D+00
     30 -0.116351D-01 -0.273863D-01 -0.171037D-01 -0.394443D-01 -0.917395D-01
     31  0.111181D-02 -0.251525D-02 -0.472884D-03 -0.127464D+00  0.111483D+00
     32 -0.741054D-04 -0.560841D-03 -0.198085D-03  0.111774D+00 -0.204401D+00
     33 -0.209856D-01  0.266884D-01 -0.123859D-01 -0.449066D-01  0.652896D-01
     34  0.860969D-03  0.141942D-03  0.311596D-03 -0.284033D+00 -0.300595D-01
     35 -0.189582D-02 -0.917455D-03 -0.634779D-03 -0.303057D-01 -0.517746D-01
     36  0.339319D-01  0.284961D-02 -0.116948D-01  0.748993D-01  0.108239D-01
               21            22            23            24            25 
     21  0.485488D+00
     22 -0.249914D-02  0.303716D+00
     23  0.572242D-04  0.191475D-02  0.342412D-01
     24 -0.966661D-02 -0.108636D+00 -0.833626D-02  0.949398D-01
     25  0.211939D-02 -0.144089D-01  0.203357D-01 -0.117351D-01  0.161637D+00
     26 -0.201407D-02 -0.258517D-02  0.305585D-02 -0.929791D-03 -0.133060D+00
     27 -0.100428D-01  0.742915D-02 -0.883379D-02  0.536056D-02  0.735845D-01
     28 -0.375656D-01  0.123376D-03  0.118718D-03 -0.294648D-03  0.282526D-05
     29 -0.875628D-01  0.265689D-03  0.253019D-03 -0.534533D-03  0.262970D-04
     30 -0.905305D-01  0.527450D-03  0.325121D-03  0.100399D-02 -0.182987D-03
     31 -0.450506D-01  0.503616D-03 -0.558555D-03 -0.412288D-03  0.132246D-02
     32  0.664696D-01 -0.212705D-03  0.936374D-04  0.396305D-03 -0.639359D-03
     33 -0.728536D-01  0.499184D-03 -0.475665D-03  0.123530D-02  0.115953D-02
     34  0.760935D-01  0.156390D-02 -0.385545D-03 -0.326249D-03  0.665970D-03
     35  0.115690D-01  0.209998D-03  0.103095D-02  0.384417D-03 -0.414697D-03
     36 -0.702348D-01 -0.298898D-03  0.810840D-03 -0.665404D-02 -0.664345D-03
               26            27            28            29            30 
     26  0.173767D+00
     27 -0.892004D-01  0.101192D+00
     28  0.141737D-03 -0.201989D-03  0.813938D-01
     29  0.297464D-03 -0.562241D-03  0.844210D-01  0.241292D+00
     30  0.623896D-03  0.893836D-03  0.428488D-01  0.997798D-01  0.101433D+00
     31  0.663669D-04  0.583742D-03  0.661631D-02 -0.969362D-02  0.450791D-02
     32  0.112970D-02 -0.729315D-04  0.154731D-01 -0.210799D-01  0.863403D-02
     33  0.191488D-03 -0.648247D-02  0.831692D-02 -0.101578D-01  0.407737D-02
     34 -0.440368D-04  0.520524D-03 -0.107793D-01 -0.953521D-03  0.295168D-02
     35 -0.949682D-04 -0.254172D-04 -0.264288D-01 -0.326913D-02  0.873838D-02
     36  0.497973D-04  0.126832D-02 -0.132072D-01 -0.791255D-03  0.382894D-02
               31            32            33            34            35 
     31  0.133409D+00
     32 -0.123030D+00  0.219930D+00
     33  0.510266D-01 -0.726567D-01  0.830428D-01
     34 -0.154318D-01 -0.312159D-02  0.474341D-02  0.306640D+00
     35  0.242611D-01  0.400405D-02 -0.871725D-02  0.340620D-01  0.507778D-01
     36 -0.101779D-01 -0.252984D-02  0.254664D-02 -0.842642D-01 -0.112855D-01
               36 
     36  0.800516D-01
 Internal force constants: 
                1             2             3             4             5 
      1  0.401238D+00
      2  0.990757D-02  0.358691D+00
      3  0.127609D-01  0.130824D-02  0.342397D+00
      4  0.173079D-02 -0.192927D-02  0.429978D-03  0.551075D+00
      5  0.160728D-01  0.153072D-02  0.216311D-02 -0.837183D-03 -0.145873D-01
      6  0.367753D-02  0.128561D-02  0.177256D-02 -0.568178D-03  0.440213D-02
      7  0.290192D-02 -0.367284D-03  0.286129D-03 -0.379119D-03  0.136990D-02
      8  0.203245D-02  0.248414D-03 -0.350060D-03 -0.100805D-03  0.990191D-03
      9  0.141514D-02  0.124261D-03  0.189339D-03 -0.230115D-03 -0.187587D-02
     10  0.776710D-03 -0.490055D-04 -0.395580D-04 -0.786428D-04  0.463240D-03
     11  0.535845D-03 -0.104093D-04 -0.271988D-04 -0.563145D-04  0.396049D-03
     12  0.574516D-01  0.333589D-02 -0.838623D-02  0.669785D-02 -0.466925D-02
     13  0.552467D-01 -0.765179D-02 -0.237779D-03 -0.609431D-02 -0.565069D-02
     14  0.523218D-01  0.313444D-02  0.269007D-03  0.178104D-01  0.851495D-03
     15  0.268348D-01  0.106687D-02  0.696685D-03 -0.361931D-02 -0.672359D-02
     16  0.634292D-02  0.195442D-02  0.249800D-02 -0.217517D-02 -0.340543D-02
     17 -0.283829D-02  0.104352D-03 -0.319377D-03 -0.219485D-03 -0.545375D-02
     18 -0.261133D-02 -0.252170D-03  0.716639D-05 -0.189210D-04 -0.517156D-02
     19  0.786040D-02  0.589213D-03  0.864544D-03 -0.957848D-03  0.268429D-02
     20 -0.342031D-04  0.174422D-04  0.929135D-03 -0.948230D-05 -0.777723D-03
     21 -0.270527D-03  0.708771D-03  0.815987D-04 -0.313356D-05 -0.927174D-03
     22 -0.577298D-02 -0.127464D-01 -0.145433D-01 -0.589179D-03  0.169695D-01
     23 -0.113549D-02  0.135137D-03 -0.205014D-02 -0.991151D-03  0.974477D-03
     24  0.171788D-03  0.673884D-03 -0.149171D-02  0.319959D-03 -0.423707D-03
     25 -0.505322D-03 -0.440278D-03  0.633460D-03 -0.101084D-03  0.134968D-03
     26 -0.298893D-03 -0.549789D-03  0.698029D-03  0.686437D-03 -0.687685D-03
     27 -0.433833D-02 -0.637252D-03 -0.713900D-03  0.283675D-03 -0.124217D-01
     28  0.358877D-03  0.294660D-03 -0.475114D-03 -0.320302D-04  0.599742D-04
     29  0.115587D-02  0.611884D-04 -0.322345D-03 -0.130229D-03  0.747689D-03
     30 -0.989940D-03  0.263442D-03 -0.922643D-04  0.346691D-04 -0.663502D-03
                6             7             8             9            10 
      6  0.306210D+00
      7  0.422482D-02  0.349951D+00
      8  0.386930D-02  0.172065D-02  0.353521D+00
      9  0.894102D-02  0.510125D-03  0.480837D-03  0.329330D+00
     10  0.611394D-02  0.582359D-03 -0.746836D-03  0.303117D-02  0.337983D+00
     11  0.593436D-02 -0.721177D-03  0.557844D-03  0.297378D-02  0.235722D-02
     12  0.418587D-03  0.408858D-03 -0.291670D-03  0.309288D-03 -0.446682D-04
     13  0.737979D-03 -0.460551D-03  0.268696D-03  0.406272D-03 -0.139087D-02
     14 -0.322445D-03  0.670935D-03 -0.219389D-03 -0.195163D-03  0.889249D-04
     15  0.873155D-02  0.155001D-02 -0.459109D-04  0.323406D-02 -0.199610D-02
     16  0.142447D-01 -0.782998D-03 -0.561808D-03  0.348215D-02 -0.169229D-03
     17  0.307463D-01  0.166493D-02 -0.120262D-01 -0.147765D-03 -0.335917D-03
     18  0.305299D-01 -0.128109D-01  0.116872D-02 -0.635067D-04  0.486222D-02
     19  0.291226D-01 -0.269599D-03 -0.104567D-03 -0.509898D-02 -0.937484D-02
     20  0.342961D-01 -0.556118D-03  0.516086D-02 -0.895732D-02 -0.473234D-02
     21  0.342946D-01  0.559572D-02 -0.613797D-03 -0.894246D-02 -0.860631D-02
     22  0.704097D-03  0.127187D-02  0.801116D-03 -0.196628D-04  0.187655D-02
     23  0.526303D-03 -0.637020D-03 -0.108303D-03  0.148688D-03  0.225862D-03
     24  0.418151D-03 -0.120484D-02 -0.252975D-03  0.121716D-03 -0.146440D-02
     25  0.297686D-03  0.760624D-04 -0.601997D-03 -0.145103D-04 -0.935701D-04
     26 -0.171115D-03  0.143657D-02 -0.108563D-02  0.540861D-04 -0.165969D-03
     27  0.514215D-03  0.124259D-01  0.110922D-01 -0.629250D-03 -0.889763D-03
     28 -0.249161D-05 -0.356106D-03  0.380350D-03  0.233421D-04 -0.173926D-02
     29 -0.280250D-02 -0.525339D-03 -0.117939D-03  0.154624D-01 -0.374387D-03
     30  0.272270D-02  0.111794D-03  0.502607D-03 -0.154623D-01  0.142163D-01
               11            12            13            14            15 
     11  0.338989D+00
     12 -0.111241D-02  0.248554D+00
     13 -0.210783D-03  0.459464D-01  0.246962D+00
     14 -0.200529D-03  0.236352D-01 -0.266351D-02  0.179365D+00
     15 -0.175102D-02  0.142234D-01  0.217148D-01 -0.308803D-02  0.184286D+00
     16 -0.349868D-03  0.655092D-02  0.988647D-02 -0.208589D-02  0.765948D-01
     17  0.485461D-02  0.278097D-02  0.177370D-03 -0.817035D-03  0.573150D-02
     18 -0.429101D-03 -0.267054D-03  0.326575D-02  0.655985D-03  0.908986D-02
     19 -0.923643D-02 -0.732269D-03 -0.959430D-03 -0.386263D-03  0.839309D-02
     20 -0.854608D-02  0.685865D-04 -0.954269D-03  0.286669D-03 -0.179700D-02
     21 -0.476344D-02 -0.903494D-03 -0.953651D-05 -0.336225D-03 -0.251750D-02
     22  0.427651D-03  0.463334D-01  0.198305D-01  0.195768D-02 -0.297756D-01
     23  0.385908D-03  0.400452D-02  0.881386D-04  0.187302D-02  0.805758D-03
     24  0.146605D-02 -0.233353D-01  0.249021D-01  0.154914D-02  0.278044D-02
     25  0.252589D-03 -0.450672D-03  0.593296D-03 -0.326577D-03  0.102615D-02
     26  0.217394D-03 -0.686832D-02  0.739689D-02  0.161386D-02  0.298331D-02
     27  0.967866D-03 -0.113600D-02  0.589427D-02 -0.165388D-03  0.169324D-01
     28  0.145449D-02  0.903085D-03 -0.116888D-02  0.109516D-03 -0.448193D-03
     29 -0.141281D-01  0.109871D-03  0.313222D-03 -0.251633D-05 -0.267287D-03
     30  0.223627D-03 -0.467376D-03 -0.856716D-04 -0.107111D-03  0.138951D-03
               16            17            18            19            20 
     16  0.150325D+00
     17  0.127886D-01  0.208151D+00
     18  0.118436D-01  0.546688D-01  0.207972D+00
     19  0.207486D-01 -0.508983D-02 -0.478790D-02  0.212730D+00
     20 -0.392477D-02 -0.582254D-02  0.243864D-01  0.304590D-01  0.221674D+00
     21 -0.358962D-02  0.246829D-01 -0.585569D-02  0.303241D-01  0.298322D-01
     22 -0.113298D-01  0.160415D-02 -0.613357D-02  0.311683D-02  0.165104D-02
     23  0.604205D-03  0.103398D-02  0.512036D-03  0.731286D-03  0.354511D-03
     24  0.147956D-02 -0.645336D-02  0.870909D-02  0.107115D-04 -0.579635D-03
     25 -0.247890D-03  0.172613D-02  0.183151D-03  0.155659D-03 -0.117103D-03
     26  0.361885D-03 -0.290179D-01  0.280058D-01  0.203775D-03 -0.156826D-03
     27  0.350816D-01 -0.509229D-01 -0.249381D-01 -0.927149D-03 -0.937950D-03
     28  0.161771D-03  0.979082D-03 -0.127171D-02 -0.187307D-03 -0.151266D-02
     29 -0.724870D-03  0.568546D-03 -0.462313D-03 -0.545884D-01 -0.448837D-03
     30  0.748533D-03  0.255915D-03 -0.608001D-03  0.544637D-01 -0.551881D-01
               21            22            23            24            25 
     21  0.221546D+00
     22  0.793634D-03  0.120771D+00
     23  0.475127D-03  0.363805D-02  0.136940D-01
     24  0.141543D-02 -0.557537D-01  0.376295D-02  0.120878D+00
     25  0.740785D-03 -0.176076D-02  0.527619D-03  0.370051D-02  0.311147D-02
     26 -0.462897D-03 -0.163220D-01  0.110626D-02  0.342327D-01 -0.289329D-02
     27  0.608284D-03 -0.123810D-01  0.410326D-03  0.151139D-01 -0.289689D-02
     28  0.174412D-02  0.224758D-02 -0.549911D-03 -0.520028D-02 -0.125614D-02
     29  0.552237D-01  0.605669D-03 -0.158816D-03 -0.728278D-03  0.958042D-04
     30  0.573681D-03 -0.735331D-04 -0.108367D-03 -0.654577D-03 -0.359157D-03
               26            27            28            29            30 
     26  0.118008D+00
     27  0.560011D-01  0.114502D+00
     28 -0.538270D-02  0.525977D-02  0.161550D-01
     29 -0.174974D-02  0.373698D-02  0.700876D-02  0.170166D+00
     30 -0.179707D-02  0.155331D-02  0.731370D-02 -0.805752D-01  0.170514D+00
 Frcnst in PutFF: 
                1             2             3             4             5 
      1  0.401238D+00
      2  0.990757D-02  0.358691D+00
      3  0.127609D-01  0.130824D-02  0.342397D+00
      4  0.173079D-02 -0.192927D-02  0.429978D-03  0.551075D+00
      5  0.574516D-01  0.333589D-02 -0.838623D-02  0.669785D-02  0.248554D+00
      6  0.552467D-01 -0.765179D-02 -0.237779D-03 -0.609431D-02  0.459464D-01
      7  0.523218D-01  0.313444D-02  0.269007D-03  0.178104D-01  0.236352D-01
      8 -0.577298D-02 -0.127464D-01 -0.145433D-01 -0.589179D-03  0.463334D-01
      9  0.367753D-02  0.128561D-02  0.177256D-02 -0.568178D-03  0.418587D-03
     10  0.290192D-02 -0.367284D-03  0.286129D-03 -0.379119D-03  0.408858D-03
     11  0.203245D-02  0.248414D-03 -0.350060D-03 -0.100805D-03 -0.291670D-03
     12  0.141514D-02  0.124261D-03  0.189339D-03 -0.230115D-03  0.309288D-03
     13  0.776710D-03 -0.490055D-04 -0.395580D-04 -0.786428D-04 -0.446682D-04
     14  0.535845D-03 -0.104093D-04 -0.271988D-04 -0.563145D-04 -0.111241D-02
     15 -0.283829D-02  0.104352D-03 -0.319377D-03 -0.219485D-03  0.278097D-02
     16 -0.261133D-02 -0.252170D-03  0.716639D-05 -0.189210D-04 -0.267054D-03
     17  0.786040D-02  0.589213D-03  0.864544D-03 -0.957848D-03 -0.732269D-03
     18 -0.342031D-04  0.174422D-04  0.929135D-03 -0.948230D-05  0.685865D-04
     19 -0.270527D-03  0.708771D-03  0.815987D-04 -0.313356D-05 -0.903494D-03
     20 -0.433833D-02 -0.637252D-03 -0.713900D-03  0.283675D-03 -0.113600D-02
     21  0.115587D-02  0.611884D-04 -0.322345D-03 -0.130229D-03  0.109871D-03
     22 -0.989940D-03  0.263442D-03 -0.922643D-04  0.346691D-04 -0.467376D-03
     23  0.634292D-02  0.195442D-02  0.249800D-02 -0.217517D-02  0.655092D-02
     24 -0.505322D-03 -0.440278D-03  0.633460D-03 -0.101084D-03 -0.450672D-03
     25 -0.298893D-03 -0.549789D-03  0.698029D-03  0.686437D-03 -0.686832D-02
     26 -0.113549D-02  0.135137D-03 -0.205014D-02 -0.991151D-03  0.400452D-02
     27  0.358877D-03  0.294660D-03 -0.475114D-03 -0.320302D-04  0.903085D-03
     28  0.171788D-03  0.673884D-03 -0.149171D-02  0.319959D-03 -0.233353D-01
     29  0.268348D-01  0.106687D-02  0.696685D-03 -0.361931D-02  0.142234D-01
     30  0.160728D-01  0.153072D-02  0.216311D-02 -0.837183D-03 -0.466925D-02
                6             7             8             9            10 
      6  0.246962D+00
      7 -0.266351D-02  0.179365D+00
      8  0.198305D-01  0.195768D-02  0.120771D+00
      9  0.737979D-03 -0.322445D-03  0.704097D-03  0.306210D+00
     10 -0.460551D-03  0.670935D-03  0.127187D-02  0.422482D-02  0.349951D+00
     11  0.268696D-03 -0.219389D-03  0.801116D-03  0.386930D-02  0.172065D-02
     12  0.406272D-03 -0.195163D-03 -0.196628D-04  0.894102D-02  0.510125D-03
     13 -0.139087D-02  0.889249D-04  0.187655D-02  0.611394D-02  0.582359D-03
     14 -0.210783D-03 -0.200529D-03  0.427651D-03  0.593436D-02 -0.721177D-03
     15  0.177370D-03 -0.817035D-03  0.160415D-02  0.307463D-01  0.166493D-02
     16  0.326575D-02  0.655985D-03 -0.613357D-02  0.305299D-01 -0.128109D-01
     17 -0.959430D-03 -0.386263D-03  0.311683D-02  0.291226D-01 -0.269599D-03
     18 -0.954269D-03  0.286669D-03  0.165104D-02  0.342961D-01 -0.556118D-03
     19 -0.953651D-05 -0.336225D-03  0.793634D-03  0.342946D-01  0.559572D-02
     20  0.589427D-02 -0.165388D-03 -0.123810D-01  0.514215D-03  0.124259D-01
     21  0.313222D-03 -0.251633D-05  0.605669D-03 -0.280250D-02 -0.525339D-03
     22 -0.856716D-04 -0.107111D-03 -0.735331D-04  0.272270D-02  0.111794D-03
     23  0.988647D-02 -0.208589D-02 -0.113298D-01  0.142447D-01 -0.782998D-03
     24  0.593296D-03 -0.326577D-03 -0.176076D-02  0.297686D-03  0.760624D-04
     25  0.739689D-02  0.161386D-02 -0.163220D-01 -0.171115D-03  0.143657D-02
     26  0.881386D-04  0.187302D-02  0.363805D-02  0.526303D-03 -0.637020D-03
     27 -0.116888D-02  0.109516D-03  0.224758D-02 -0.249161D-05 -0.356106D-03
     28  0.249021D-01  0.154914D-02 -0.557537D-01  0.418151D-03 -0.120484D-02
     29  0.217148D-01 -0.308803D-02 -0.297756D-01  0.873155D-02  0.155001D-02
     30 -0.565069D-02  0.851495D-03  0.169695D-01  0.440213D-02  0.136990D-02
               11            12            13            14            15 
     11  0.353521D+00
     12  0.480837D-03  0.329330D+00
     13 -0.746836D-03  0.303117D-02  0.337983D+00
     14  0.557844D-03  0.297378D-02  0.235722D-02  0.338989D+00
     15 -0.120262D-01 -0.147765D-03 -0.335917D-03  0.485461D-02  0.208151D+00
     16  0.116872D-02 -0.635067D-04  0.486222D-02 -0.429101D-03  0.546688D-01
     17 -0.104567D-03 -0.509898D-02 -0.937484D-02 -0.923643D-02 -0.508983D-02
     18  0.516086D-02 -0.895732D-02 -0.473234D-02 -0.854608D-02 -0.582254D-02
     19 -0.613797D-03 -0.894246D-02 -0.860631D-02 -0.476344D-02  0.246829D-01
     20  0.110922D-01 -0.629250D-03 -0.889763D-03  0.967866D-03 -0.509229D-01
     21 -0.117939D-03  0.154624D-01 -0.374387D-03 -0.141281D-01  0.568546D-03
     22  0.502607D-03 -0.154623D-01  0.142163D-01  0.223627D-03  0.255915D-03
     23 -0.561808D-03  0.348215D-02 -0.169229D-03 -0.349868D-03  0.127886D-01
     24 -0.601997D-03 -0.145103D-04 -0.935701D-04  0.252589D-03  0.172613D-02
     25 -0.108563D-02  0.540861D-04 -0.165969D-03  0.217394D-03 -0.290179D-01
     26 -0.108303D-03  0.148688D-03  0.225862D-03  0.385908D-03  0.103398D-02
     27  0.380350D-03  0.233421D-04 -0.173926D-02  0.145449D-02  0.979082D-03
     28 -0.252975D-03  0.121716D-03 -0.146440D-02  0.146605D-02 -0.645336D-02
     29 -0.459109D-04  0.323406D-02 -0.199610D-02 -0.175102D-02  0.573150D-02
     30  0.990191D-03 -0.187587D-02  0.463240D-03  0.396049D-03 -0.545375D-02
               16            17            18            19            20 
     16  0.207972D+00
     17 -0.478790D-02  0.212730D+00
     18  0.243864D-01  0.304590D-01  0.221674D+00
     19 -0.585569D-02  0.303241D-01  0.298322D-01  0.221546D+00
     20 -0.249381D-01 -0.927149D-03 -0.937950D-03  0.608284D-03  0.114502D+00
     21 -0.462313D-03 -0.545884D-01 -0.448837D-03  0.552237D-01  0.373698D-02
     22 -0.608001D-03  0.544637D-01 -0.551881D-01  0.573681D-03  0.155331D-02
     23  0.118436D-01  0.207486D-01 -0.392477D-02 -0.358962D-02  0.350816D-01
     24  0.183151D-03  0.155659D-03 -0.117103D-03  0.740785D-03 -0.289689D-02
     25  0.280058D-01  0.203775D-03 -0.156826D-03 -0.462897D-03  0.560011D-01
     26  0.512036D-03  0.731286D-03  0.354511D-03  0.475127D-03  0.410326D-03
     27 -0.127171D-02 -0.187307D-03 -0.151266D-02  0.174412D-02  0.525977D-02
     28  0.870909D-02  0.107115D-04 -0.579635D-03  0.141543D-02  0.151139D-01
     29  0.908986D-02  0.839309D-02 -0.179700D-02 -0.251750D-02  0.169324D-01
     30 -0.517156D-02  0.268429D-02 -0.777723D-03 -0.927174D-03 -0.124217D-01
               21            22            23            24            25 
     21  0.170166D+00
     22 -0.805752D-01  0.170514D+00
     23 -0.724870D-03  0.748533D-03  0.150325D+00
     24  0.958042D-04 -0.359157D-03 -0.247890D-03  0.311147D-02
     25 -0.174974D-02 -0.179707D-02  0.361885D-03 -0.289329D-02  0.118008D+00
     26 -0.158816D-03 -0.108367D-03  0.604205D-03  0.527619D-03  0.110626D-02
     27  0.700876D-02  0.731370D-02  0.161771D-03 -0.125614D-02 -0.538270D-02
     28 -0.728278D-03 -0.654577D-03  0.147956D-02  0.370051D-02  0.342327D-01
     29 -0.267287D-03  0.138951D-03  0.765948D-01  0.102615D-02  0.298331D-02
     30  0.747689D-03 -0.663502D-03 -0.340543D-02  0.134968D-03 -0.687685D-03
               26            27            28            29            30 
     26  0.136940D-01
     27 -0.549911D-03  0.161550D-01
     28  0.376295D-02 -0.520028D-02  0.120878D+00
     29  0.805758D-03 -0.448193D-03  0.278044D-02  0.184286D+00
     30  0.974477D-03  0.599742D-04 -0.423707D-03 -0.672359D-02 -0.145873D-01
 Force constants in internal coordinates: 
                1             2             3             4             5 
      1  0.401238D+00
      2  0.990757D-02  0.358691D+00
      3  0.127609D-01  0.130824D-02  0.342397D+00
      4  0.173079D-02 -0.192927D-02  0.429978D-03  0.551075D+00
      5  0.160728D-01  0.153072D-02  0.216311D-02 -0.837183D-03 -0.145873D-01
      6  0.367753D-02  0.128561D-02  0.177256D-02 -0.568178D-03  0.440213D-02
      7  0.290192D-02 -0.367284D-03  0.286129D-03 -0.379119D-03  0.136990D-02
      8  0.203245D-02  0.248414D-03 -0.350060D-03 -0.100805D-03  0.990191D-03
      9  0.141514D-02  0.124261D-03  0.189339D-03 -0.230115D-03 -0.187587D-02
     10  0.776710D-03 -0.490055D-04 -0.395580D-04 -0.786428D-04  0.463240D-03
     11  0.535845D-03 -0.104093D-04 -0.271988D-04 -0.563145D-04  0.396049D-03
     12  0.574516D-01  0.333589D-02 -0.838623D-02  0.669785D-02 -0.466925D-02
     13  0.552467D-01 -0.765179D-02 -0.237779D-03 -0.609431D-02 -0.565069D-02
     14  0.523218D-01  0.313444D-02  0.269007D-03  0.178104D-01  0.851495D-03
     15  0.268348D-01  0.106687D-02  0.696685D-03 -0.361931D-02 -0.672359D-02
     16  0.634292D-02  0.195442D-02  0.249800D-02 -0.217517D-02 -0.340543D-02
     17 -0.283829D-02  0.104352D-03 -0.319377D-03 -0.219485D-03 -0.545375D-02
     18 -0.261133D-02 -0.252170D-03  0.716639D-05 -0.189210D-04 -0.517156D-02
     19  0.786040D-02  0.589213D-03  0.864544D-03 -0.957848D-03  0.268429D-02
     20 -0.342031D-04  0.174422D-04  0.929135D-03 -0.948230D-05 -0.777723D-03
     21 -0.270527D-03  0.708771D-03  0.815987D-04 -0.313356D-05 -0.927174D-03
     22 -0.577298D-02 -0.127464D-01 -0.145433D-01 -0.589179D-03  0.169695D-01
     23 -0.113549D-02  0.135137D-03 -0.205014D-02 -0.991151D-03  0.974477D-03
     24  0.171788D-03  0.673884D-03 -0.149171D-02  0.319959D-03 -0.423707D-03
     25 -0.505322D-03 -0.440278D-03  0.633460D-03 -0.101084D-03  0.134968D-03
     26 -0.298893D-03 -0.549789D-03  0.698029D-03  0.686437D-03 -0.687685D-03
     27 -0.433833D-02 -0.637252D-03 -0.713900D-03  0.283675D-03 -0.124217D-01
     28  0.358877D-03  0.294660D-03 -0.475114D-03 -0.320302D-04  0.599742D-04
     29  0.115587D-02  0.611884D-04 -0.322345D-03 -0.130229D-03  0.747689D-03
     30 -0.989940D-03  0.263442D-03 -0.922643D-04  0.346691D-04 -0.663502D-03
                6             7             8             9            10 
      6  0.306210D+00
      7  0.422482D-02  0.349951D+00
      8  0.386930D-02  0.172065D-02  0.353521D+00
      9  0.894102D-02  0.510125D-03  0.480837D-03  0.329330D+00
     10  0.611394D-02  0.582359D-03 -0.746836D-03  0.303117D-02  0.337983D+00
     11  0.593436D-02 -0.721177D-03  0.557844D-03  0.297378D-02  0.235722D-02
     12  0.418587D-03  0.408858D-03 -0.291670D-03  0.309288D-03 -0.446682D-04
     13  0.737979D-03 -0.460551D-03  0.268696D-03  0.406272D-03 -0.139087D-02
     14 -0.322445D-03  0.670935D-03 -0.219389D-03 -0.195163D-03  0.889249D-04
     15  0.873155D-02  0.155001D-02 -0.459109D-04  0.323406D-02 -0.199610D-02
     16  0.142447D-01 -0.782998D-03 -0.561808D-03  0.348215D-02 -0.169229D-03
     17  0.307463D-01  0.166493D-02 -0.120262D-01 -0.147765D-03 -0.335917D-03
     18  0.305299D-01 -0.128109D-01  0.116872D-02 -0.635067D-04  0.486222D-02
     19  0.291226D-01 -0.269599D-03 -0.104567D-03 -0.509898D-02 -0.937484D-02
     20  0.342961D-01 -0.556118D-03  0.516086D-02 -0.895732D-02 -0.473234D-02
     21  0.342946D-01  0.559572D-02 -0.613797D-03 -0.894246D-02 -0.860631D-02
     22  0.704097D-03  0.127187D-02  0.801116D-03 -0.196628D-04  0.187655D-02
     23  0.526303D-03 -0.637020D-03 -0.108303D-03  0.148688D-03  0.225862D-03
     24  0.418151D-03 -0.120484D-02 -0.252975D-03  0.121716D-03 -0.146440D-02
     25  0.297686D-03  0.760624D-04 -0.601997D-03 -0.145103D-04 -0.935701D-04
     26 -0.171115D-03  0.143657D-02 -0.108563D-02  0.540861D-04 -0.165969D-03
     27  0.514215D-03  0.124259D-01  0.110922D-01 -0.629250D-03 -0.889763D-03
     28 -0.249161D-05 -0.356106D-03  0.380350D-03  0.233421D-04 -0.173926D-02
     29 -0.280250D-02 -0.525339D-03 -0.117939D-03  0.154624D-01 -0.374387D-03
     30  0.272270D-02  0.111794D-03  0.502607D-03 -0.154623D-01  0.142163D-01
               11            12            13            14            15 
     11  0.338989D+00
     12 -0.111241D-02  0.248554D+00
     13 -0.210783D-03  0.459464D-01  0.246962D+00
     14 -0.200529D-03  0.236352D-01 -0.266351D-02  0.179365D+00
     15 -0.175102D-02  0.142234D-01  0.217148D-01 -0.308803D-02  0.184286D+00
     16 -0.349868D-03  0.655092D-02  0.988647D-02 -0.208589D-02  0.765948D-01
     17  0.485461D-02  0.278097D-02  0.177370D-03 -0.817035D-03  0.573150D-02
     18 -0.429101D-03 -0.267054D-03  0.326575D-02  0.655985D-03  0.908986D-02
     19 -0.923643D-02 -0.732269D-03 -0.959430D-03 -0.386263D-03  0.839309D-02
     20 -0.854608D-02  0.685865D-04 -0.954269D-03  0.286669D-03 -0.179700D-02
     21 -0.476344D-02 -0.903494D-03 -0.953651D-05 -0.336225D-03 -0.251750D-02
     22  0.427651D-03  0.463334D-01  0.198305D-01  0.195768D-02 -0.297756D-01
     23  0.385908D-03  0.400452D-02  0.881386D-04  0.187302D-02  0.805758D-03
     24  0.146605D-02 -0.233353D-01  0.249021D-01  0.154914D-02  0.278044D-02
     25  0.252589D-03 -0.450672D-03  0.593296D-03 -0.326577D-03  0.102615D-02
     26  0.217394D-03 -0.686832D-02  0.739689D-02  0.161386D-02  0.298331D-02
     27  0.967866D-03 -0.113600D-02  0.589427D-02 -0.165388D-03  0.169324D-01
     28  0.145449D-02  0.903085D-03 -0.116888D-02  0.109516D-03 -0.448193D-03
     29 -0.141281D-01  0.109871D-03  0.313222D-03 -0.251633D-05 -0.267287D-03
     30  0.223627D-03 -0.467376D-03 -0.856716D-04 -0.107111D-03  0.138951D-03
               16            17            18            19            20 
     16  0.150325D+00
     17  0.127886D-01  0.208151D+00
     18  0.118436D-01  0.546688D-01  0.207972D+00
     19  0.207486D-01 -0.508983D-02 -0.478790D-02  0.212730D+00
     20 -0.392477D-02 -0.582254D-02  0.243864D-01  0.304590D-01  0.221674D+00
     21 -0.358962D-02  0.246829D-01 -0.585569D-02  0.303241D-01  0.298322D-01
     22 -0.113298D-01  0.160415D-02 -0.613357D-02  0.311683D-02  0.165104D-02
     23  0.604205D-03  0.103398D-02  0.512036D-03  0.731286D-03  0.354511D-03
     24  0.147956D-02 -0.645336D-02  0.870909D-02  0.107115D-04 -0.579635D-03
     25 -0.247890D-03  0.172613D-02  0.183151D-03  0.155659D-03 -0.117103D-03
     26  0.361885D-03 -0.290179D-01  0.280058D-01  0.203775D-03 -0.156826D-03
     27  0.350816D-01 -0.509229D-01 -0.249381D-01 -0.927149D-03 -0.937950D-03
     28  0.161771D-03  0.979082D-03 -0.127171D-02 -0.187307D-03 -0.151266D-02
     29 -0.724870D-03  0.568546D-03 -0.462313D-03 -0.545884D-01 -0.448837D-03
     30  0.748533D-03  0.255915D-03 -0.608001D-03  0.544637D-01 -0.551881D-01
               21            22            23            24            25 
     21  0.221546D+00
     22  0.793634D-03  0.120771D+00
     23  0.475127D-03  0.363805D-02  0.136940D-01
     24  0.141543D-02 -0.557537D-01  0.376295D-02  0.120878D+00
     25  0.740785D-03 -0.176076D-02  0.527619D-03  0.370051D-02  0.311147D-02
     26 -0.462897D-03 -0.163220D-01  0.110626D-02  0.342327D-01 -0.289329D-02
     27  0.608284D-03 -0.123810D-01  0.410326D-03  0.151139D-01 -0.289689D-02
     28  0.174412D-02  0.224758D-02 -0.549911D-03 -0.520028D-02 -0.125614D-02
     29  0.552237D-01  0.605669D-03 -0.158816D-03 -0.728278D-03  0.958042D-04
     30  0.573681D-03 -0.735331D-04 -0.108367D-03 -0.654577D-03 -0.359157D-03
               26            27            28            29            30 
     26  0.118008D+00
     27  0.560011D-01  0.114502D+00
     28 -0.538270D-02  0.525977D-02  0.161550D-01
     29 -0.174974D-02  0.373698D-02  0.700876D-02  0.170166D+00
     30 -0.179707D-02  0.155331D-02  0.731370D-02 -0.805752D-01  0.170514D+00
 Final forces over variables, Energy=-1.94292455D+02:
 -6.21126462D-06-7.98315339D-07-8.07885823D-06 7.22682626D-06
  1.87255978D-05 6.11302765D-06 1.90343477D-05-3.27169413D-05
  1.54739348D-05 1.48397642D-06 8.29939889D-06 2.48234774D-06
 -2.67786360D-06-8.73057673D-06-9.88179824D-06-1.38912338D-05
 -1.23218150D-05-3.16446621D-06-1.95601609D-05-4.69686636D-05
 -6.82823060D-06 8.48882598D-06-1.43245966D-05 8.38103842D-06
  2.44641885D-05-1.16019488D-05 2.04337929D-05-3.16684013D-06
  2.77024282D-05-6.92383535D-02

 GradGradGradGradGradGradGradGradGradGradGradGradGradGradGradGradGradGrad
 Berny optimization.
 Search for a local minimum.
 Step number   1 out of a maximum of    2
 All quantities printed in internal units (Hartrees-Bohrs-Radians)
 Second derivative matrix not updated -- analytic derivatives used.
 ITU=  0
     Eigenvalues ---    0.00269   0.01271   0.01352   0.03961   0.05472
     Eigenvalues ---    0.06526   0.08325   0.11109   0.11548   0.13418
     Eigenvalues ---    0.15890   0.18777   0.21869   0.22275   0.22927
     Eigenvalues ---    0.26090   0.26810   0.27934   0.30955   0.33707
     Eigenvalues ---    0.34304   0.34547   0.34883   0.35107   0.35805
     Eigenvalues ---    0.36053   0.37255   0.46191   0.552461000.00000
 Angle between quadratic step and forces=  62.34 degrees.
 Linear search not attempted -- first point.
 Variable       Old X    -DE/DX   Delta X   Delta X   Delta X     New X
                                 (Linear)    (Quad)   (Total)
    R1        2.58974  -0.00001   0.00000  -0.00009  -0.00009   2.58965
    R2        2.04573  -0.00000   0.00000  -0.00001  -0.00001   2.04572
    R3        2.05595  -0.00001   0.00000  -0.00005  -0.00005   2.05590
    R4        1.80810   0.00001   0.00000   0.00001   0.00001   1.80811
    A2        1.92699   0.00002   0.00000   0.00014   0.00014   1.92713
    A3        2.01888   0.00001   0.00000   0.00007   0.00007   2.01895
    A4        1.90895   0.00002   0.00000   0.00013   0.00013   1.90908
    D3        3.99482  -0.00003   0.00000  -0.00042  -0.00042   3.99441
   R21        2.83647   0.00002   0.00000   0.00011   0.00011   2.83658
   R22        2.05197   0.00000   0.00000   0.00003   0.00003   2.05200
   R23        2.04956   0.00001   0.00000   0.00006   0.00006   2.04962
   R24        2.06850   0.00000   0.00000   0.00000   0.00000   2.06850
   R25        2.06151  -0.00000   0.00000   0.00001   0.00001   2.06152
   R26        2.06090  -0.00001   0.00000  -0.00004  -0.00004   2.06086
   A22        2.01203  -0.00001   0.00000  -0.00016  -0.00016   2.01187
   A23        2.01948  -0.00001   0.00000  -0.00032  -0.00032   2.01917
   A24        1.94538  -0.00001   0.00000  -0.00011  -0.00011   1.94527
   A25        1.94558  -0.00000   0.00000   0.00003   0.00003   1.94561
   A26        1.94428  -0.00002   0.00000  -0.00007  -0.00007   1.94422
   D23        2.32889  -0.00005   0.00000  -0.00111  -0.00111   2.32778
   D25        2.08938  -0.00001   0.00000  -0.00014  -0.00014   2.08924
   D26        4.19370   0.00001   0.00000  -0.00004  -0.00004   4.19366
   ANG2       1.88238  -0.00001   0.00000   0.00012   0.00012   1.88249
   DH2        3.15250   0.00001   0.00000   0.00395   0.00395   3.15645
   DH3        1.98323   0.00002   0.00000   0.00102   0.00102   1.98425
    D4        3.06826  -0.00001   0.00000  -0.00081  -0.00081   3.06745
   D24        5.13044   0.00002   0.00000   0.00227   0.00227   5.13271
   DH1        1.97175  -0.00000   0.00000  -0.00034  -0.00034   1.97140
   ANG1       1.96119   0.00003   0.00000   0.00013   0.00013   1.96132
    BB        4.15740  -0.06924   0.00000   0.00000   0.00000   4.15740
         Item               Value     Threshold  Converged?
 Maximum Force            0.000047     0.000450     YES
 RMS     Force            0.000016     0.000300     YES
 Maximum Displacement     0.003946     0.001800     NO 
 RMS     Displacement     0.000898     0.001200     YES
 Predicted change in Energy=-1.004760D-07
 GradGradGradGradGradGradGradGradGradGradGradGradGradGradGradGradGradGrad


 Test job not archived.
 1\1\GINC-NODE-5-2\Freq\UwB97XD\Jun-CC-pVTZ\C3H8O1\MDITEODORO\12-Jun-20
 24\1\\# uwb97xd/jun-cc-pvtz # int=ultrafine nosym freq iop(7/33=1) gue
 ss=( ) #guess=read geom=allcheck\\geom 0\\0,1\C\O,1,R1\H,1,R2,2,A2\H,1
 ,R3,2,A3,3,D3,0\H,2,R4,1,A4,3,D4,0\C,1,BB,2,ANG1,3,DH1,0\C,6,R21,1,ANG
 2,2,DH2,0\H,6,R22,7,A22,1,DH3,0\H,6,R23,7,A23,8,D23,0\H,7,R24,6,A24,8,
 D24,0\H,7,R25,6,A25,10,D25,0\H,7,R26,6,A26,10,D26,0\\R1=1.37043239\R2=
 1.08255552\R3=1.08796253\R4=0.95680451\A2=110.40827283\A3=115.67308581
 \A4=109.37497514\D3=228.88634447\R21=1.50099687\R22=1.08585439\R23=1.0
 8457965\R24=1.09460143\R25=1.09090613\R26=1.09057976\A22=115.28063968\
 A23=115.70792474\A24=111.46216565\A25=111.47366272\A26=111.39917462\D2
 3=133.4356531\D25=119.7126372\D26=240.28155263\ANG2=107.85223974\DH2=1
 80.62490791\DH3=113.63082531\D4=175.79856632\D24=293.95279053\DH1=112.
 97278121\ANG1=112.36789854\BB=2.2\\Version=EM64L-G09RevD.01\HF=-194.29
 24545\S2=0.\S2-1=0.\S2A=0.\RMSD=1.445e-09\RMSF=1.633e-02\ZeroPoint=0.1
 044917\Thermal=0.1104651\Dipole=-0.4839084,0.1488463,-0.1714159\Dipole
 Deriv=0.2848755,0.1097994,0.1049956,0.0890386,0.5730219,0.2993689,0.20
 85788,0.6283457,1.301191,-0.2517725,-0.0049907,0.0506357,-0.0489085,-0
 .5776644,-0.16079,-0.1962081,-0.6564254,-1.504478,-0.0926732,-0.046819
 7,0.0475552,-0.0471807,-0.0368385,-0.0668668,0.0225911,0.0020618,0.000
 356,-0.031728,0.0218146,-0.1172609,0.0275155,-0.1916995,-0.0263652,-0.
 0197182,0.0365126,-0.0635098,0.1418131,-0.0349451,-0.0462179,0.0087258
 ,0.3650235,0.058024,-0.0173145,0.0323779,0.3168692,0.1051801,-0.001537
 1,-0.0139661,0.0023388,0.0915167,-0.0042618,0.0425352,0.1018749,0.1489
 374,0.0535111,-0.0591244,-0.0447714,-0.0495255,-0.0532252,-0.1114547,-
 0.0006595,-0.0093324,0.0281311,-0.135271,-0.0585379,0.0643945,-0.03988
 8,-0.0150388,-0.039158,0.0531399,-0.0072419,-0.0519494,-0.0093471,0.05
 61394,-0.0595945,0.0429459,-0.1153468,0.0155576,-0.0311385,0.0270923,-
 0.0441278,0.0515398,-0.0635472,-0.043407,-0.064677,-0.0721966,-0.10406
 99,-0.06472,-0.1635438,-0.1118438,0.0026274,0.0907317,-0.0463669,0.105
 0068,-0.0457598,0.105479,-0.0298893,0.0181045,-0.0113026,-0.1187551,-0
 .008983,0.1040036,-0.0253914,0.0782074,0.0345371,0.0328031,-0.0098262,
 -0.0082731\Polar=45.2835386,7.7287223,61.4207784,4.5867017,13.5439081,
 59.4385644\PG=C01 [X(C3H8O1)]\NImag=1\\0.60601822,-0.16674877,0.245541
 66,-0.06669834,-0.13240105,0.52051950,-0.10045113,0.01101549,0.0208678
 7,0.57515628,0.01235007,-0.04953698,-0.00002151,-0.04561060,0.04580556
 ,-0.01513695,0.02626732,-0.30502661,-0.15063924,0.00181697,0.46113450,
 -0.31543818,0.01239712,0.09482745,0.00542271,-0.00059093,0.00104061,0.
 32122843,0.00055601,-0.03653255,0.01051447,-0.00011742,0.00135791,-0.0
 0284669,-0.00766157,0.03495585,0.07514498,0.00371996,-0.07540152,0.039
 37112,-0.00090078,-0.02276103,-0.09905436,-0.00231307,0.09685439,-0.15
 438500,0.11763210,-0.05959884,0.00714985,-0.00161812,-0.00195019,-0.01
 172112,0.02052883,-0.01137715,0.15425882,0.13056983,-0.16861072,0.0865
 2257,-0.00363681,0.00740696,-0.00318140,-0.00285674,0.00273846,-0.0007
 3806,-0.12710062,0.17010656,-0.05745241,0.07005835,-0.09129577,-0.0198
 4041,0.02567164,-0.03112023,0.00542660,-0.00707703,0.00659119,0.071889
 80,-0.08433280,0.11163924,-0.00029329,0.00117968,-0.00463492,-0.491048
 83,0.03631304,0.17056702,0.00259956,-0.00006888,0.00015345,0.00119230,
 -0.00074540,-0.00218243,0.48757735,-0.00066498,-0.00108329,-0.00133805
 ,0.03758056,-0.00851626,-0.01148128,0.00013584,0.00189107,0.00109491,-
 0.00167854,0.00012242,-0.00033909,-0.03622573,0.00742137,0.04785759,-0
 .00445411,-0.02319319,0.11726841,-0.00833158,-0.08776929,-0.00154787,0
 .00052575,-0.00701465,-0.00030459,0.00102687,0.00137290,-0.16257246,0.
 01156149,0.11564214,-0.03850167,0.02758120,0.01388362,0.00357249,0.000
 69323,0.00201524,-0.00237067,-0.01367636,-0.00485397,0.00438278,0.0066
 3263,0.00254553,0.00101454,0.00153350,-0.00028861,0.55736622,0.0270810
 3,0.01404258,0.03491669,0.00163470,0.00699985,0.00173503,0.00010990,-0
 .00176835,-0.00080060,-0.00718802,-0.00930888,-0.00456114,0.00045684,0
 .00008018,-0.00051879,-0.15276670,0.26163513,0.01768393,0.03935583,-0.
 02474441,-0.00659575,-0.01653392,-0.00908926,0.00084355,0.00223502,0.0
 0156041,0.00090137,0.00306097,0.00225139,-0.00107136,0.00041528,0.0006
 4857,-0.05580816,-0.14308142,0.47784008,0.00130106,0.00262956,-0.00398
 474,-0.00106420,-0.00285226,-0.00391389,-0.00033087,-0.00042358,-0.000
 23795,0.00021371,0.00000969,0.00074343,-0.00050925,-0.00008667,0.00017
 460,-0.08199150,0.00681909,0.00793341,0.56806129,0.00308306,0.00598101
 ,-0.00944556,-0.00220199,-0.00673885,-0.00890382,-0.00043049,-0.000033
 82,0.00067066,-0.00003720,-0.00095242,0.00052679,-0.00088150,0.0002926
 1,0.00056916,0.00710919,-0.06894241,0.01467966,-0.00959362,0.54760715,
 -0.00111975,-0.00248202,-0.00855337,-0.00076350,-0.00161718,-0.0000547
 0,-0.00042637,0.00111917,0.00092954,0.00132277,0.00059821,0.00134777,-
 0.00009620,-0.00025080,0.00005285,0.01109801,0.02251114,-0.22588170,-0
 .00311248,-0.00839758,0.48548790,-0.00294773,0.00055113,0.00314109,0.0
 0074984,-0.00014668,-0.00289393,0.00031532,-0.00083856,-0.00018450,-0.
 00010238,-0.00060014,-0.00006293,-0.00046426,-0.00042668,-0.00029597,-
 0.29129311,0.00198098,0.10327478,0.00224381,-0.00011260,-0.00249914,0.
 30371647,-0.01381014,-0.00172547,0.00645351,0.00197232,0.00125171,-0.0
 0179503,-0.00060986,-0.00331596,-0.00107810,0.00060899,-0.00002489,0.0
 0029242,-0.00001299,0.00005155,-0.00058944,-0.00870471,-0.03527724,0.0
 1316918,-0.00086867,0.00036561,0.00005722,0.00191475,0.03424124,-0.006
 81314,-0.00069963,0.00229531,0.00089425,0.00089276,-0.00012708,-0.0003
 7276,-0.00149792,-0.00068613,0.00054208,0.00042528,0.00007771,0.000203
 04,-0.00013833,-0.00017696,0.09537571,0.00782956,-0.08760181,0.0315754
 0,0.00220814,-0.00966661,-0.10863629,-0.00833626,0.09493976,0.00387942
 ,-0.00662825,0.00278229,0.00004083,0.00152027,0.00011648,0.00004581,0.
 00057176,0.00028322,-0.00079481,-0.00181961,-0.00062936,-0.00010561,0.
 00000200,-0.00014207,-0.15470183,0.12236797,-0.06669155,0.00241670,-0.
 00226224,0.00211939,-0.01440886,0.02033569,-0.01173510,0.16163710,0.00
 725326,-0.00982054,0.00688489,-0.00017955,0.00204389,-0.00346497,-0.00
 036596,0.00029806,0.00027153,-0.00205597,-0.00250574,-0.00104901,-0.00
 014380,-0.00015965,0.00014437,0.13193742,-0.16943572,0.08849229,-0.000
 96448,0.00142455,-0.00201407,-0.00258517,0.00305585,-0.00092979,-0.133
 05982,0.17376711,0.00385508,-0.00547046,0.00267772,-0.00001741,0.00147
 778,-0.00058409,0.00001553,0.00070277,0.00014327,-0.00082712,-0.001430
 18,-0.00071541,0.00006278,-0.00012156,0.00008798,-0.06527854,0.0798179
 0,-0.09379883,-0.01972625,0.02371856,-0.01004282,0.00742915,-0.0088337
 9,0.00536056,0.07358450,-0.08920043,0.10119195,0.00070697,0.00026670,0
 .00017242,0.00024440,0.00002149,0.00014770,0.00015293,0.00052464,0.000
 34725,-0.00017942,-0.00023306,-0.00020760,0.00001231,-0.00008703,-0.00
 004714,0.00054998,0.00187753,-0.00030894,-0.07884418,-0.07609608,-0.03
 756561,0.00012338,0.00011872,-0.00029465,0.00000283,0.00014174,-0.0002
 0199,0.08139383,0.00028575,0.00136672,-0.00001194,-0.00016519,-0.00006
 002,0.00030922,0.00002731,0.00007942,0.00006023,0.00028447,0.00047181,
 0.00035608,0.00000824,0.00002329,0.00007526,0.00163055,0.00345316,-0.0
 0096002,-0.07613697,-0.22282827,-0.08756277,0.00026569,0.00025302,-0.0
 0053453,0.00002630,0.00029746,-0.00056224,0.08442100,0.24129243,0.0020
 7746,0.00457413,0.00031612,-0.00066147,-0.00246470,-0.00433976,-0.0003
 2093,-0.00050927,0.00002740,-0.00024499,-0.00083091,0.00009075,-0.0004
 2361,0.00025539,0.00030304,-0.01163506,-0.02738632,-0.01710370,-0.0394
 4430,-0.09173954,-0.09053051,0.00052745,0.00032512,0.00100399,-0.00018
 299,0.00062390,0.00089384,0.04284885,0.09977979,0.10143252,-0.00013974
 ,0.00037804,0.00033200,0.00014262,-0.00013860,0.00006703,0.00003748,-0
 .00001717,-0.00005493,-0.00012349,-0.00031876,-0.00033743,0.00001572,0
 .00008388,-0.00001133,0.00111181,-0.00251525,-0.00047288,-0.12746406,0
 .11148298,-0.04505058,0.00050362,-0.00055856,-0.00041229,0.00132246,0.
 00006637,0.00058374,0.00661631,-0.00969362,0.00450791,0.13340908,-0.00
 069364,0.00043465,-0.00149517,-0.00016135,-0.00004862,0.00097513,-0.00
 001800,0.00006176,0.00001079,0.00060749,0.00049283,0.00048130,0.000096
 91,-0.00005710,-0.00001449,-0.00007411,-0.00056084,-0.00019808,0.11177
 360,-0.20440058,0.06646965,-0.00021270,0.00009364,0.00039630,-0.000639
 36,0.00112970,-0.00007293,0.01547314,-0.02107990,0.00863403,-0.1230304
 0,0.21993041,0.00006648,0.00093748,0.00123759,0.00028711,-0.00010692,-
 0.00012635,0.00001224,-0.00022444,0.00000171,-0.00017608,-0.00091445,-
 0.00021796,-0.00004320,0.00014631,-0.00007522,-0.02098563,0.02668835,-
 0.01238590,-0.04490658,0.06528963,-0.07285357,0.00049918,-0.00047567,0
 .00123530,0.00115953,0.00019149,-0.00648247,0.00831692,-0.01015784,0.0
 0407737,0.05102663,-0.07265670,0.08304285,0.00025107,-0.00025399,-0.00
 108990,0.00008514,0.00005908,0.00058011,0.00005860,0.00062230,0.000462
 85,0.00010875,0.00009899,0.00010721,0.00000947,-0.00016614,-0.00009055
 ,0.00086097,0.00014194,0.00031160,-0.28403251,-0.03005950,0.07609347,0
 .00156390,-0.00038554,-0.00032625,0.00066597,-0.00004404,0.00052052,-0
 .01077932,-0.00095352,0.00295168,-0.01543180,-0.00312159,0.00474341,0.
 30663977,0.00073853,-0.00005706,-0.00057887,-0.00013015,0.00003485,0.0
 0056951,-0.00013664,0.00026814,0.00000253,0.00001658,0.00006363,-0.000
 02752,0.00002360,-0.00006619,0.00000551,-0.00189582,-0.00091745,-0.000
 63478,-0.03030570,-0.05177457,0.01156904,0.00021000,0.00103095,0.00038
 442,-0.00041470,-0.00009497,-0.00002542,-0.02642879,-0.00326913,0.0087
 3838,0.02426109,0.00400405,-0.00871725,0.03406200,0.05077776,0.0005350
 8,0.00059420,0.00116863,-0.00017097,0.00011745,-0.00013611,-0.00044370
 ,-0.00062877,-0.00024457,-0.00017705,-0.00020610,-0.00002156,0.0000379
 0,0.00019572,0.00012183,0.03393186,0.00284961,-0.01169485,0.07489934,0
 .01082389,-0.07023478,-0.00029890,0.00081084,-0.00665404,-0.00066434,0
 .00004980,0.00126832,-0.01320722,-0.00079126,0.00382894,-0.01017786,-0
 .00252984,0.00254664,-0.08426415,-0.01128554,0.08005157\\0.02497498,0.
 05893170,0.02633208,-0.00000367,0.00000570,0.00001854,0.00000394,0.000
 00547,0.00000830,0.00000767,0.00001807,-0.00000082,0.00000282,-0.00000
 703,-0.00001233,-0.02499861,-0.05904587,-0.02637437,-0.00001822,0.0000
 0784,0.00003445,0.00000279,0.00004916,0.00000722,0.00001097,0.00002489
 ,0.00000467,0.00001091,0.00000053,-0.00000417,0.00000179,0.00000383,-0
 .00000208,0.00000463,0.00000571,-0.00001148\\\@


 HE THAT RISETH LATE MUST TROT ALL DAY.

                  -- BENJAMIN FRANKLIN
 Job cpu time:       0 days  1 hours 39 minutes 57.6 seconds.
 File lengths (MBytes):  RWF=    183 Int=      0 D2E=      0 Chk=     10 Scr=      1
 Normal termination of Gaussian 09 at Wed Jun 12 09:22:58 2024.
