 Entering Gaussian System, Link 0=g09
 Input=geom.com
 Output=geom.log
 Initial command:
 /software/cinetica/g09d1/g09d01/d01/build-node-6-2-59348/src/main/l1.exe "/scratch/mdt/200674/Gau-32233.inp" -scrdir="/scratch/mdt/200674/"
 Entering Link 1 = /software/cinetica/g09d1/g09d01/d01/build-node-6-2-59348/src/main/l1.exe PID=     32234.
  
 Copyright (c) 1988,1990,1992,1993,1995,1998,2003,2009,2013,
            Gaussian, Inc.  All Rights Reserved.
  
 This is part of the Gaussian(R) 09 program.  It is based on
 the Gaussian(R) 03 system (copyright 2003, Gaussian, Inc.),
 the Gaussian(R) 98 system (copyright 1998, Gaussian, Inc.),
 the Gaussian(R) 94 system (copyright 1995, Gaussian, Inc.),
 the Gaussian 92(TM) system (copyright 1992, Gaussian, Inc.),
 the Gaussian 90(TM) system (copyright 1990, Gaussian, Inc.),
 the Gaussian 88(TM) system (copyright 1988, Gaussian, Inc.),
 the Gaussian 86(TM) system (copyright 1986, Carnegie Mellon
 University), and the Gaussian 82(TM) system (copyright 1983,
 Carnegie Mellon University). Gaussian is a federally registered
 trademark of Gaussian, Inc.
  
 This software contains proprietary and confidential information,
 including trade secrets, belonging to Gaussian, Inc.
  
 This software is provided under written license and may be
 used, copied, transmitted, or stored only in accord with that
 written license.
  
 The following legend is applicable only to US Government
 contracts under FAR:
  
                    RESTRICTED RIGHTS LEGEND
  
 Use, reproduction and disclosure by the US Government is
 subject to restrictions as set forth in subparagraphs (a)
 and (c) of the Commercial Computer Software - Restricted
 Rights clause in FAR 52.227-19.
  
 Gaussian, Inc.
 340 Quinnipiac St., Bldg. 40, Wallingford CT 06492
  
  
 ---------------------------------------------------------------
 Warning -- This program may not be used in any manner that
 competes with the business of Gaussian, Inc. or will provide
 assistance to any competitor of Gaussian, Inc.  The licensee
 of this program is prohibited from giving any competitor of
 Gaussian, Inc. access to this program.  By using this program,
 the user acknowledges that Gaussian, Inc. is engaged in the
 business of creating and licensing software in the field of
 computational chemistry and represents and warrants to the
 licensee that it is not a competitor of Gaussian, Inc. and that
 it will not use this program in any manner prohibited above.
 ---------------------------------------------------------------
  

 Cite this work as:
 Gaussian 09, Revision D.01,
 M. J. Frisch, G. W. Trucks, H. B. Schlegel, G. E. Scuseria, 
 M. A. Robb, J. R. Cheeseman, G. Scalmani, V. Barone, B. Mennucci, 
 G. A. Petersson, H. Nakatsuji, M. Caricato, X. Li, H. P. Hratchian, 
 A. F. Izmaylov, J. Bloino, G. Zheng, J. L. Sonnenberg, M. Hada, 
 M. Ehara, K. Toyota, R. Fukuda, J. Hasegawa, M. Ishida, T. Nakajima, 
 Y. Honda, O. Kitao, H. Nakai, T. Vreven, J. A. Montgomery, Jr., 
 J. E. Peralta, F. Ogliaro, M. Bearpark, J. J. Heyd, E. Brothers, 
 K. N. Kudin, V. N. Staroverov, T. Keith, R. Kobayashi, J. Normand, 
 K. Raghavachari, A. Rendell, J. C. Burant, S. S. Iyengar, J. Tomasi, 
 M. Cossi, N. Rega, J. M. Millam, M. Klene, J. E. Knox, J. B. Cross, 
 V. Bakken, C. Adamo, J. Jaramillo, R. Gomperts, R. E. Stratmann, 
 O. Yazyev, A. J. Austin, R. Cammi, C. Pomelli, J. W. Ochterski, 
 R. L. Martin, K. Morokuma, V. G. Zakrzewski, G. A. Voth, 
 P. Salvador, J. J. Dannenberg, S. Dapprich, A. D. Daniels, 
 O. Farkas, J. B. Foresman, J. V. Ortiz, J. Cioslowski, 
 and D. J. Fox, Gaussian, Inc., Wallingford CT, 2013.
 
 ******************************************
 Gaussian 09:  EM64L-G09RevD.01 24-Apr-2013
                12-Jun-2024 
 ******************************************
 %mem=400MW
 %chk=tmp
 %NProcShared= 32
 Will use up to   32 processors via shared memory.
 ----------------------------------------------------------------------
 # uwb97xd/jun-cc-pvtz opt=(noeig,intern,maxcyc=50) # int=ultrafine nos
 ym iop(7/33=1)
 ----------------------------------------------------------------------
 1/6=50,10=7,11=1,14=-1,18=40,26=4,38=1/1,3;
 2/12=2,15=1,17=6,18=5,29=3,40=1/2;
 3/5=16,6=1,7=60,11=2,16=1,25=1,30=1,71=1,74=-58,75=-5,116=2/1,2,3;
 4//1;
 5/5=2,38=5/2;
 6/7=2,8=2,9=2,10=2,28=1/1;
 7/29=1,30=1,33=1/1,2,3,16;
 1/6=50,10=7,11=1,14=-1,18=40,26=4/3(2);
 2/15=1,29=3/2;
 99//99;
 2/15=1,29=3/2;
 3/5=16,6=1,7=60,11=2,16=1,25=1,30=1,71=1,74=-58,75=-5,116=2/1,2,3;
 4/5=5,16=3,69=1/1;
 5/5=2,38=5/2;
 7/30=1,33=1/1,2,3,16;
 1/6=50,11=1,14=-1,18=40,26=4/3(-5);
 2/15=1,29=3/2;
 6/7=2,8=2,9=2,10=2,19=2,28=1/1;
 99/9=1/99;
 ------
 geom 0
 ------
 Symbolic Z-matrix:
 Charge =  0 Multiplicity = 3
 C1
 O2                   C1   R1
 H3                   C1   R2       O2   A2
 H4                   C1   R3       O2   A3       H3   D3       0
 H5                   O2   R4       C1   A4       H3   D4       0
 C21                  C1   BB       O2   ANG1     H3   DH1      0
 C22                  C21  R21      C1   ANG2     O2   DH2      0
 H23                  C21  R22      C22  A22      C1   DH3      0
 H24                  C21  R23      C22  A23      H23  D23      0
 H25                  C22  R24      C21  A24      H23  D24      0
 H26                  C22  R25      C21  A25      H25  D25      0
 H27                  C22  R26      C21  A26      H25  D26      0
       Variables:
  R1                    1.3567                   
  R2                    1.0783                   
  R3                    1.0822                   
  R4                    0.9572                   
  A2                  113.512                    
  A3                  118.643                    
  A4                  109.7577                   
  D3                  210.5968                   
  R21                   1.4855                   
  R22                   1.081                    
  R23                   1.0803                   
  R24                   1.0984                   
  R25                   1.0911                   
  R26                   1.0906                   
  A22                 119.8885                   
  A23                 120.1561                   
  A24                 111.6737                   
  A25                 111.7141                   
  A26                 111.6467                   
  D23                 159.5421                   
  D25                 119.3262                   
  D26                 240.5433                   
  ANG2                101.4381                   
  DH2                 191.5213                   
  DH3                 102.3348                   
  D4                  176.5969                   
  D24                 281.7792                   
  DH1                 104.4145                   
  ANG1                113.6859                   
       Constants:
  BB                   10.                       
 

 GradGradGradGradGradGradGradGradGradGradGradGradGradGradGradGradGradGrad
 Berny optimization.
 Initialization pass.
                       ----------------------------
                       !    Initial Parameters    !
                       ! (Angstroms and Degrees)  !
 ----------------------                            ----------------------
 !      Name          Value   Derivative information (Atomic Units)     !
 ------------------------------------------------------------------------
 !       R1          1.3567   estimate D2E/DX2                          !
 !       R2          1.0783   estimate D2E/DX2                          !
 !       R3          1.0822   estimate D2E/DX2                          !
 !       R4          0.9572   estimate D2E/DX2                          !
 !       A2        113.512    estimate D2E/DX2                          !
 !       A3        118.643    estimate D2E/DX2                          !
 !       A4        109.7577   estimate D2E/DX2                          !
 !       D3        210.5968   estimate D2E/DX2                          !
 !       R21         1.4855   estimate D2E/DX2                          !
 !       R22         1.081    estimate D2E/DX2                          !
 !       R23         1.0803   estimate D2E/DX2                          !
 !       R24         1.0984   estimate D2E/DX2                          !
 !       R25         1.0911   estimate D2E/DX2                          !
 !       R26         1.0906   estimate D2E/DX2                          !
 !       A22       119.8885   estimate D2E/DX2                          !
 !       A23       120.1561   estimate D2E/DX2                          !
 !       A24       111.6737   estimate D2E/DX2                          !
 !       A25       111.7141   estimate D2E/DX2                          !
 !       A26       111.6467   estimate D2E/DX2                          !
 !       D23       159.5421   estimate D2E/DX2                          !
 !       D25       119.3262   estimate D2E/DX2                          !
 !       D26       240.5433   estimate D2E/DX2                          !
 !      ANG2       101.4381   estimate D2E/DX2                          !
 !       DH2       191.5213   estimate D2E/DX2                          !
 !       DH3       102.3348   estimate D2E/DX2                          !
 !       D4        176.5969   estimate D2E/DX2                          !
 !       D24       281.7792   estimate D2E/DX2                          !
 !       DH1       104.4145   estimate D2E/DX2                          !
 !      ANG1       113.6859   estimate D2E/DX2                          !
 !       BB          10.0     Frozen                                    !
 ------------------------------------------------------------------------
 Trust Radius=3.00D-01 FncErr=1.00D-07 GrdErr=1.00D-06
 Number of steps in this run=     50 maximum allowed number of steps=    100.
 GradGradGradGradGradGradGradGradGradGradGradGradGradGradGradGradGradGrad

 ---------------------------------------------------------------------------------------------------
                            Z-MATRIX (ANGSTROMS AND DEGREES)
   CD    Cent   Atom    N1       Length/X        N2       Alpha/Y        N3        Beta/Z          J
 ---------------------------------------------------------------------------------------------------
      1      1  C 
      2      2  O        1   1.356700(     1)
      3      3  H        1   1.078300(     2)      2  113.512(    12)
      4      4  H        1   1.082200(     3)      2  118.643(    13)      3  210.597(    22)      0
      5      5  H        2   0.957200(     4)      1  109.758(    14)      3  176.597(    23)      0
      6      6  C        1  10.000000(     5)      2  113.686(    15)      3  104.415(    24)      0
      7      7  C        6   1.485500(     6)      1  101.438(    16)      2  191.521(    25)      0
      8      8  H        6   1.081000(     7)      7  119.888(    17)      1  102.335(    26)      0
      9      9  H        6   1.080300(     8)      7  120.156(    18)      8  159.542(    27)      0
     10     10  H        7   1.098400(     9)      6  111.674(    19)      8  281.779(    28)      0
     11     11  H        7   1.091100(    10)      6  111.714(    20)     10  119.326(    29)      0
     12     12  H        7   1.090600(    11)      6  111.647(    21)     10  240.543(    30)      0
 ---------------------------------------------------------------------------------------------------
                         Z-Matrix orientation:                         
 ---------------------------------------------------------------------
 Center     Atomic      Atomic             Coordinates (Angstroms)
 Number     Number       Type             X           Y           Z
 ---------------------------------------------------------------------
      1          6           0        0.000000    0.000000    0.000000
      2          8           0        0.000000    0.000000    1.356700
      3          1           0        0.988776    0.000000   -0.430178
      4          1           0       -0.817529    0.483424   -0.518753
      5          1           0       -0.899262    0.053475    1.680275
      6          6           0       -2.279651   -8.869335   -4.017224
      7          6           0       -1.922482   -8.647928   -5.442047
      8          1           0       -3.316085   -8.842353   -3.711224
      9          1           0       -1.588160   -9.371056   -3.356040
     10          1           0       -2.102802   -9.545065   -6.049594
     11          1           0       -2.513697   -7.845775   -5.886473
     12          1           0       -0.867685   -8.396178   -5.557950
 ---------------------------------------------------------------------
                    Distance matrix (angstroms):
                    1          2          3          4          5
     1  C    0.000000
     2  O    1.356700   0.000000
     3  H    1.078300   2.042207   0.000000
     4  H    1.082200   2.102231   1.871972   0.000000
     5  H    1.906530   0.957200   2.832235   2.242156   0.000000
     6  C   10.000000  10.617955  10.110124  10.092135  10.676306
     7  C   10.397042  11.167164  10.410615  10.432705  11.291097
     8  H   10.146763  10.717625  10.367463  10.168813  10.679187
     9  H   10.079779  10.608904  10.149776  10.283717  10.707979
    10  H   11.494678  12.263084  11.499737  11.524439  12.382703
    11  H   10.125484  10.969887  10.178146  10.053107  11.057135
    12  H   10.106409  10.911511  10.011808  10.209963  11.126075
                    6          7          8          9         10
     6  C    0.000000
     7  C    1.485500   0.000000
     8  H    1.081000   2.230623   0.000000
     9  H    1.080300   2.232960   1.841577   0.000000
    10  H    2.149049   1.098400   2.726506   2.747794   0.000000
    11  H    2.143955   1.091100   2.523629   3.096158   1.755855
    12  H    2.142746   1.090600   3.099054   2.513539   1.757034
                   11         12
    11  H    0.000000
    12  H    1.766416   0.000000
 Symmetry turned off by external request.
 Stoichiometry    C3H8O(3)
 Framework group  C1[X(C3H8O)]
 Deg. of freedom    30
 Full point group                 C1      NOp   1
 Rotational constants (GHZ):     13.5714484      0.2997677      0.2953016
 Standard basis: Jun-CC-pVTZ (5D, 7F)
   268 basis functions,   384 primitive gaussians,   300 cartesian basis functions
    18 alpha electrons       16 beta electrons
       nuclear repulsion energy        86.9275743091 Hartrees.
 NAtoms=   12 NActive=   12 NUniq=   12 SFac= 1.00D+00 NAtFMM=   60 NAOKFM=F Big=F
 Integral buffers will be    131072 words long.
 Raffenetti 2 integral format.
 Two-electron integral symmetry is turned off.
 Nuclear repulsion after empirical dispersion term =       86.9258209593 Hartrees.
 One-electron integrals computed using PRISM.
 NBasis=   268 RedAO= T EigKep=  1.18D-04  NBF=   268
 NBsUse=   268 1.00D-06 EigRej= -1.00D+00 NBFU=   268
 ExpMin= 3.57D-02 ExpMax= 1.53D+04 ExpMxC= 5.22D+02 IAcc=3 IRadAn=         5 AccDes= 0.00D+00
 Harris functional with IExCor= 4639 and IRadAn=       5 diagonalized for initial guess.
 HarFok:  IExCor= 4639 AccDes= 0.00D+00 IRadAn=         5 IDoV= 1 UseB2=F ITyADJ=14
 ICtDFT=  3500011 ScaDFX=  1.000000  1.000000  1.000000  1.000000
 FoFCou: FMM=F IPFlag=           0 FMFlag=      100000 FMFlg1=           0
         NFxFlg=           0 DoJE=T BraDBF=F KetDBF=T FulRan=T
         wScrn=  0.000000 ICntrl=     500 IOpCl=  0 I1Cent=   200000004 NGrid=           0
         NMat0=    1 NMatS0=      1 NMatT0=    0 NMatD0=    1 NMtDS0=    0 NMtDT0=    0
 Symmetry not used in FoFCou.
 Initial guess <Sx>= 0.0000 <Sy>= 0.0000 <Sz>= 1.0000 <S**2>= 2.0000 S= 1.0000
 Requested convergence on RMS density matrix=1.00D-08 within 128 cycles.
 Requested convergence on MAX density matrix=1.00D-06.
 Requested convergence on             energy=1.00D-06.
 No special actions if energy rises.
 SCF Done:  E(UwB97XD) =  -194.229111464     A.U. after   14 cycles
            NFock= 14  Conv=0.50D-08     -V/T= 2.0064
 <Sx>= 0.0000 <Sy>= 0.0000 <Sz>= 1.0000 <S**2>= 2.0085 S= 1.0028
 <L.S>=  0.00000000000    
 Annihilation of the first spin contaminant:
 S**2 before annihilation     2.0085,   after     2.0000

 **********************************************************************

            Population analysis using the SCF density.

 **********************************************************************

 Alpha  occ. eigenvalues --  -19.29259 -10.33023 -10.29006 -10.27942  -1.17006
 Alpha  occ. eigenvalues --   -0.85834  -0.77498  -0.70496  -0.62551  -0.54576
 Alpha  occ. eigenvalues --   -0.53978  -0.50249  -0.49909  -0.47603  -0.44450
 Alpha  occ. eigenvalues --   -0.44005  -0.28569  -0.26248
 Alpha virt. eigenvalues --    0.05465   0.05820   0.06788   0.07220   0.07986
 Alpha virt. eigenvalues --    0.08212   0.08337   0.09609   0.11051   0.11409
 Alpha virt. eigenvalues --    0.11709   0.16279   0.16972   0.18161   0.19605
 Alpha virt. eigenvalues --    0.20231   0.20856   0.21073   0.22026   0.24526
 Alpha virt. eigenvalues --    0.24866   0.25212   0.26732   0.27617   0.29283
 Alpha virt. eigenvalues --    0.29404   0.30709   0.31114   0.31204   0.32111
 Alpha virt. eigenvalues --    0.32492   0.34441   0.34880   0.34886   0.37018
 Alpha virt. eigenvalues --    0.37890   0.38627   0.40673   0.43913   0.45090
 Alpha virt. eigenvalues --    0.46371   0.49859   0.52575   0.54666   0.55566
 Alpha virt. eigenvalues --    0.57342   0.57714   0.59321   0.60092   0.61965
 Alpha virt. eigenvalues --    0.63109   0.64048   0.65158   0.65305   0.66446
 Alpha virt. eigenvalues --    0.68162   0.69711   0.70735   0.72764   0.73526
 Alpha virt. eigenvalues --    0.73677   0.74357   0.75335   0.83754   0.84422
 Alpha virt. eigenvalues --    0.85913   0.87979   0.89251   0.89567   0.93918
 Alpha virt. eigenvalues --    0.96184   0.97371   0.97870   0.98771   1.00695
 Alpha virt. eigenvalues --    1.04355   1.04429   1.07305   1.09952   1.14853
 Alpha virt. eigenvalues --    1.16546   1.17822   1.17871   1.18573   1.19226
 Alpha virt. eigenvalues --    1.23119   1.24630   1.25287   1.27556   1.28381
 Alpha virt. eigenvalues --    1.33402   1.36482   1.39420   1.39744   1.40153
 Alpha virt. eigenvalues --    1.41597   1.45521   1.47625   1.47963   1.49755
 Alpha virt. eigenvalues --    1.54050   1.55332   1.57354   1.60598   1.64028
 Alpha virt. eigenvalues --    1.66574   1.72125   1.78323   1.82649   1.96141
 Alpha virt. eigenvalues --    2.04640   2.07012   2.22731   2.24863   2.33580
 Alpha virt. eigenvalues --    2.35661   2.42650   2.46622   2.47887   2.48428
 Alpha virt. eigenvalues --    2.53511   2.56111   2.58566   2.59009   2.62942
 Alpha virt. eigenvalues --    2.68980   2.73137   2.76686   2.80193   2.83321
 Alpha virt. eigenvalues --    2.85043   2.88077   2.89713   2.92590   2.92912
 Alpha virt. eigenvalues --    2.97694   3.00678   3.01960   3.03038   3.05259
 Alpha virt. eigenvalues --    3.07058   3.07449   3.08779   3.11049   3.11139
 Alpha virt. eigenvalues --    3.12686   3.14802   3.18069   3.19039   3.19639
 Alpha virt. eigenvalues --    3.20762   3.22167   3.24049   3.27022   3.31344
 Alpha virt. eigenvalues --    3.35488   3.41895   3.41904   3.42204   3.47025
 Alpha virt. eigenvalues --    3.48151   3.50761   3.50793   3.52557   3.54088
 Alpha virt. eigenvalues --    3.56778   3.57099   3.60319   3.68443   3.69765
 Alpha virt. eigenvalues --    3.74958   3.77176   3.82650   3.84567   3.86458
 Alpha virt. eigenvalues --    3.86598   3.94593   3.94759   3.95152   3.98491
 Alpha virt. eigenvalues --    3.99760   3.99904   4.00401   4.01212   4.05427
 Alpha virt. eigenvalues --    4.07853   4.07880   4.08465   4.09384   4.14064
 Alpha virt. eigenvalues --    4.15843   4.16691   4.21006   4.27369   4.30307
 Alpha virt. eigenvalues --    4.31397   4.32554   4.33158   4.35421   4.37675
 Alpha virt. eigenvalues --    4.44823   4.56242   4.59582   4.71359   4.72126
 Alpha virt. eigenvalues --    4.77538   4.84165   4.85744   4.87598   4.91939
 Alpha virt. eigenvalues --    4.93198   4.96408   4.98509   5.00818   5.00869
 Alpha virt. eigenvalues --    5.05915   5.13923   5.14865   5.22591   5.22696
 Alpha virt. eigenvalues --    5.27542   5.33578   5.40004   5.40063   5.43168
 Alpha virt. eigenvalues --    5.47792   5.48733   5.60112   5.68035   5.69426
 Alpha virt. eigenvalues --    5.72033   5.85208   5.99261   5.99274   6.14252
 Alpha virt. eigenvalues --    6.16904   6.22431   6.51650   6.64366   6.72901
 Alpha virt. eigenvalues --    6.81406   6.88892   6.92405   7.12908   7.31336
 Alpha virt. eigenvalues --    7.60855  12.49141  12.61473  12.72493  13.53143
  Beta  occ. eigenvalues --  -19.28799 -10.31954 -10.28010 -10.27883  -1.15710
  Beta  occ. eigenvalues --   -0.83987  -0.74633  -0.67791  -0.61287  -0.53500
  Beta  occ. eigenvalues --   -0.53198  -0.48505  -0.46617  -0.45811  -0.43440
  Beta  occ. eigenvalues --   -0.43164
  Beta virt. eigenvalues --    0.01645   0.03379   0.05928   0.06361   0.07643
  Beta virt. eigenvalues --    0.08422   0.08721   0.09094   0.09567   0.11618
  Beta virt. eigenvalues --    0.11891   0.12886   0.14727   0.16728   0.17242
  Beta virt. eigenvalues --    0.18854   0.20456   0.20969   0.21078   0.21328
  Beta virt. eigenvalues --    0.23107   0.25227   0.25400   0.26282   0.26961
  Beta virt. eigenvalues --    0.27987   0.29543   0.29793   0.31042   0.31127
  Beta virt. eigenvalues --    0.31339   0.32426   0.32753   0.34602   0.35047
  Beta virt. eigenvalues --    0.35062   0.38217   0.38901   0.39202   0.41870
  Beta virt. eigenvalues --    0.45168   0.46280   0.46356   0.52307   0.52927
  Beta virt. eigenvalues --    0.54808   0.55904   0.57885   0.58838   0.60272
  Beta virt. eigenvalues --    0.60451   0.62714   0.63696   0.64407   0.65836
  Beta virt. eigenvalues --    0.66416   0.67465   0.68425   0.69810   0.70835
  Beta virt. eigenvalues --    0.73490   0.73578   0.74182   0.74799   0.76252
  Beta virt. eigenvalues --    0.84455   0.85656   0.86629   0.88464   0.90136
  Beta virt. eigenvalues --    0.90765   0.95272   0.96366   0.98027   0.98949
  Beta virt. eigenvalues --    0.99100   1.00862   1.04552   1.05451   1.07906
  Beta virt. eigenvalues --    1.10726   1.15744   1.17831   1.18227   1.18486
  Beta virt. eigenvalues --    1.19258   1.19571   1.23237   1.25464   1.25903
  Beta virt. eigenvalues --    1.28346   1.29020   1.33888   1.36616   1.40133
  Beta virt. eigenvalues --    1.40273   1.40744   1.41802   1.45794   1.48164
  Beta virt. eigenvalues --    1.48442   1.50346   1.54740   1.56023   1.57989
  Beta virt. eigenvalues --    1.61325   1.64936   1.67347   1.72304   1.79011
  Beta virt. eigenvalues --    1.83299   1.96989   2.05868   2.07776   2.23132
  Beta virt. eigenvalues --    2.30250   2.37530   2.39805   2.43734   2.48038
  Beta virt. eigenvalues --    2.48580   2.49669   2.55558   2.57502   2.59342
  Beta virt. eigenvalues --    2.60687   2.64974   2.70761   2.74272   2.78172
  Beta virt. eigenvalues --    2.81457   2.85731   2.87082   2.89806   2.90303
  Beta virt. eigenvalues --    2.94295   2.95165   2.98729   3.02923   3.03537
  Beta virt. eigenvalues --    3.05457   3.07757   3.08398   3.09712   3.10443
  Beta virt. eigenvalues --    3.12390   3.13778   3.14298   3.16435   3.19014
  Beta virt. eigenvalues --    3.20985   3.22758   3.22899   3.24338   3.24730
  Beta virt. eigenvalues --    3.31691   3.34362   3.35815   3.42321   3.42578
  Beta virt. eigenvalues --    3.43114   3.48435   3.49115   3.51994   3.52148
  Beta virt. eigenvalues --    3.52827   3.54937   3.57580   3.57780   3.60727
  Beta virt. eigenvalues --    3.69252   3.71157   3.75889   3.77590   3.82985
  Beta virt. eigenvalues --    3.85230   3.86882   3.87391   3.94993   3.95260
  Beta virt. eigenvalues --    3.95841   3.99256   4.00378   4.00488   4.01051
  Beta virt. eigenvalues --    4.01468   4.05677   4.08045   4.08521   4.08914
  Beta virt. eigenvalues --    4.09758   4.14556   4.16675   4.17819   4.21392
  Beta virt. eigenvalues --    4.28039   4.30951   4.32127   4.32994   4.33733
  Beta virt. eigenvalues --    4.35523   4.38742   4.45349   4.56535   4.60922
  Beta virt. eigenvalues --    4.72267   4.72849   4.78373   4.85956   4.86819
  Beta virt. eigenvalues --    4.88451   4.92431   4.94059   4.96963   4.99117
  Beta virt. eigenvalues --    5.02444   5.03034   5.07061   5.14816   5.15854
  Beta virt. eigenvalues --    5.23421   5.23571   5.28128   5.34090   5.40892
  Beta virt. eigenvalues --    5.40897   5.44100   5.48089   5.49000   5.60741
  Beta virt. eigenvalues --    5.68870   5.70409   5.72634   5.86136   6.00064
  Beta virt. eigenvalues --    6.00765   6.14571   6.17113   6.23433   6.52714
  Beta virt. eigenvalues --    6.65723   6.74105   6.81967   6.89665   6.93925
  Beta virt. eigenvalues --    7.13580   7.31895   7.61403  12.51567  12.63602
  Beta virt. eigenvalues --   12.73354  13.53239
          Condensed to atoms (all electrons):
               1          2          3          4          5          6
     1  C    5.262547   0.143333   0.419760   0.416794   0.005997  -0.000002
     2  O    0.143333   7.941434  -0.050575  -0.025752   0.214824   0.000000
     3  H    0.419760  -0.050575   0.505380  -0.027229   0.007264   0.000000
     4  H    0.416794  -0.025752  -0.027229   0.495022  -0.013735   0.000000
     5  H    0.005997   0.214824   0.007264  -0.013735   0.614256   0.000000
     6  C   -0.000002   0.000000   0.000000   0.000000   0.000000   5.442486
     7  C   -0.000001   0.000000   0.000000  -0.000000   0.000000   0.266649
     8  H   -0.000000   0.000000  -0.000000   0.000000  -0.000000   0.419676
     9  H   -0.000000   0.000000   0.000000  -0.000000   0.000000   0.420413
    10  H   -0.000000   0.000000   0.000000   0.000000   0.000000  -0.029126
    11  H    0.000000  -0.000000  -0.000000  -0.000000  -0.000000  -0.032052
    12  H    0.000000  -0.000000  -0.000000  -0.000000  -0.000000  -0.031437
               7          8          9         10         11         12
     1  C   -0.000001  -0.000000  -0.000000  -0.000000   0.000000   0.000000
     2  O    0.000000   0.000000   0.000000   0.000000  -0.000000  -0.000000
     3  H    0.000000  -0.000000   0.000000   0.000000  -0.000000  -0.000000
     4  H   -0.000000   0.000000  -0.000000   0.000000  -0.000000  -0.000000
     5  H    0.000000  -0.000000   0.000000   0.000000  -0.000000  -0.000000
     6  C    0.266649   0.419676   0.420413  -0.029126  -0.032052  -0.031437
     7  C    4.939234  -0.028781  -0.029036   0.392336   0.413543   0.413902
     8  H   -0.028781   0.471236  -0.026230  -0.002557  -0.005680   0.003658
     9  H   -0.029036  -0.026230   0.470354  -0.002158   0.003644  -0.005894
    10  H    0.392336  -0.002557  -0.002158   0.498875  -0.017284  -0.016858
    11  H    0.413543  -0.005680   0.003644  -0.017284   0.500927  -0.018682
    12  H    0.413902   0.003658  -0.005894  -0.016858  -0.018682   0.500795
          Atomic-Atomic Spin Densities.
               1          2          3          4          5          6
     1  C    1.069516  -0.161221   0.001674   0.000574  -0.006295  -0.000002
     2  O   -0.161221   0.281751   0.001724  -0.001604   0.004300   0.000000
     3  H    0.001674   0.001724  -0.024339   0.007852  -0.000185   0.000000
     4  H    0.000574  -0.001604   0.007852  -0.020245   0.002026   0.000000
     5  H   -0.006295   0.004300  -0.000185   0.002026  -0.004373   0.000000
     6  C   -0.000002   0.000000   0.000000   0.000000   0.000000   1.082136
     7  C   -0.000001   0.000000  -0.000000  -0.000000   0.000000  -0.057465
     8  H   -0.000000   0.000000   0.000000   0.000000   0.000000   0.003647
     9  H   -0.000000   0.000000   0.000000   0.000000   0.000000   0.003531
    10  H   -0.000000   0.000000   0.000000   0.000000  -0.000000  -0.023001
    11  H    0.000000  -0.000000  -0.000000  -0.000000  -0.000000  -0.011958
    12  H    0.000000  -0.000000  -0.000000  -0.000000  -0.000000  -0.010084
               7          8          9         10         11         12
     1  C   -0.000001  -0.000000  -0.000000  -0.000000   0.000000   0.000000
     2  O    0.000000   0.000000   0.000000   0.000000  -0.000000  -0.000000
     3  H   -0.000000   0.000000   0.000000   0.000000  -0.000000  -0.000000
     4  H   -0.000000   0.000000   0.000000   0.000000  -0.000000  -0.000000
     5  H    0.000000   0.000000   0.000000  -0.000000  -0.000000  -0.000000
     6  C   -0.057465   0.003647   0.003531  -0.023001  -0.011958  -0.010084
     7  C   -0.030412   0.006274   0.006345   0.017129   0.010586   0.008741
     8  H    0.006274  -0.033006   0.006615  -0.001630   0.001078   0.000140
     9  H    0.006345   0.006615  -0.032967  -0.001624   0.000197   0.001024
    10  H    0.017129  -0.001630  -0.001624   0.086077  -0.008328  -0.007398
    11  H    0.010586   0.001078   0.000197  -0.008328   0.020560   0.001329
    12  H    0.008741   0.000140   0.001024  -0.007398   0.001329   0.017323
 Mulliken charges and spin densities:
               1          2
     1  C   -0.248429   0.904246
     2  O   -0.223265   0.124950
     3  H    0.145399  -0.013274
     4  H    0.154900  -0.011396
     5  H    0.171394  -0.004526
     6  C   -0.456609   0.986804
     7  C   -0.367846  -0.038804
     8  H    0.168677  -0.016883
     9  H    0.168907  -0.016881
    10  H    0.176773   0.061224
    11  H    0.155582   0.013464
    12  H    0.154515   0.011074
 Sum of Mulliken charges =  -0.00000   2.00000
 Mulliken charges and spin densities with hydrogens summed into heavy atoms:
               1          2
     1  C    0.051871   0.879576
     2  O   -0.051871   0.120425
     6  C   -0.119024   0.953041
     7  C    0.119025   0.046959
 Electronic spatial extent (au):  <R**2>=           6520.7540
 Charge=             -0.0000 electrons
 Dipole moment (field-independent basis, Debye):
    X=             -1.3463    Y=              0.3408    Z=             -0.4144  Tot=              1.4493
 Quadrupole moment (field-independent basis, Debye-Ang):
   XX=            -24.3159   YY=            -25.7379   ZZ=            -23.7288
   XY=             -0.5920   XZ=             -2.3551   YZ=              3.3789
 Traceless Quadrupole moment (field-independent basis, Debye-Ang):
   XX=              0.2783   YY=             -1.1437   ZZ=              0.8654
   XY=             -0.5920   XZ=             -2.3551   YZ=              3.3789
 Octapole moment (field-independent basis, Debye-Ang**2):
  XXX=             86.2793  YYY=            347.5268  ZZZ=            163.7232  XYY=             30.9115
  XXY=            121.5183  XXZ=             59.2890  XZZ=             18.3019  YZZ=             98.1078
  YYZ=             28.3537  XYZ=             -5.8828
 Hexadecapole moment (field-independent basis, Debye-Ang**3):
 XXXX=           -410.5364 YYYY=          -6419.0454 ZZZZ=          -1993.8318 XXXY=           -761.2864
 XXXZ=           -407.1724 YYYX=           -813.2100 YYYZ=          -1509.3511 ZZZX=           -384.7760
 ZZZY=          -1611.2558 XXYY=          -1153.9584 XXZZ=           -396.0952 YYZZ=          -1218.3263
 XXYZ=           -568.5125 YYXZ=            -94.1671 ZZXY=           -209.2885
 N-N= 8.692582095933D+01 E-N=-6.266051059159D+02  KE= 1.929854975856D+02
                          Isotropic Fermi Contact Couplings
        Atom                 a.u.       MegaHertz       Gauss      10(-4) cm-1
     1  C(13)              0.08290      46.59748      16.62714      15.54325
     2  O(17)              0.02121      -6.42787      -2.29363      -2.14411
     3  H(1)              -0.00971     -21.69328      -7.74070      -7.23610
     4  H(1)              -0.00714     -15.95913      -5.69462      -5.32339
     5  H(1)              -0.00198      -4.43281      -1.58174      -1.47863
     6  C(13)              0.04198      23.59511       8.41932       7.87048
     7  C(13)             -0.02522     -14.17819      -5.05913      -4.72934
     8  H(1)              -0.01249     -27.91636      -9.96125      -9.31189
     9  H(1)              -0.01251     -27.96069      -9.97707      -9.32668
    10  H(1)               0.03185      71.19154      25.40291      23.74694
    11  H(1)               0.00802      17.91890       6.39391       5.97710
    12  H(1)               0.00669      14.96134       5.33858       4.99057
 --------------------------------------------------------
       Center         ----  Spin Dipole Couplings  ----
                      3XX-RR        3YY-RR        3ZZ-RR
 --------------------------------------------------------
     1   Atom       -0.416079      0.914919     -0.498840
     2   Atom       -0.385975      0.818722     -0.432746
     3   Atom        0.049154     -0.002455     -0.046700
     4   Atom        0.023022      0.013985     -0.037008
     5   Atom        0.022329     -0.015585     -0.006744
     6   Atom       -0.472180      0.873433     -0.401252
     7   Atom       -0.017182      0.003759      0.013422
     8   Atom        0.063711     -0.007981     -0.055730
     9   Atom       -0.007166      0.018371     -0.011205
    10   Atom       -0.010044     -0.003400      0.013444
    11   Atom       -0.007870     -0.004707      0.012577
    12   Atom        0.002536     -0.007698      0.005162
 --------------------------------------------------------
                        XY            XZ            YZ
 --------------------------------------------------------
     1   Atom        0.372475      0.053113      0.205100
     2   Atom        0.229626      0.023229      0.195788
     3   Atom        0.006715     -0.047190      0.011427
     4   Atom       -0.020589      0.054277     -0.016711
     5   Atom       -0.007619     -0.031019      0.008466
     6   Atom        0.339334      0.113707      0.473487
     7   Atom        0.005016     -0.003651      0.009658
     8   Atom        0.006282     -0.035352      0.024732
     9   Atom       -0.025681      0.065709     -0.017171
    10   Atom        0.001117     -0.002238      0.007640
    11   Atom       -0.001059      0.003966     -0.010218
    12   Atom        0.002008     -0.013380     -0.003041
 --------------------------------------------------------


 ---------------------------------------------------------------------------------
              Anisotropic Spin Dipole Couplings in Principal Axis System
 ---------------------------------------------------------------------------------

       Atom             a.u.   MegaHertz   Gauss  10(-4) cm-1        Axes

              Baa    -0.5280   -70.852   -25.282   -23.634 -0.0106 -0.1380  0.9904
     1 C(13)  Bbb    -0.5132   -68.869   -24.574   -22.972  0.9682 -0.2490 -0.0244
              Bcc     1.0412   139.721    49.856    46.606  0.2500  0.9586  0.1363
 
              Baa    -0.4661    33.728    12.035    11.250  0.2826 -0.1937  0.9395
     2 O(17)  Bbb    -0.4242    30.691    10.951    10.238  0.9426 -0.1254 -0.3094
              Bcc     0.8903   -64.419   -22.986   -21.488  0.1777  0.9730  0.1471
 
              Baa    -0.0686   -36.620   -13.067   -12.215  0.3743 -0.1945  0.9067
     3 H(1)   Bbb     0.0001     0.051     0.018     0.017  0.0488  0.9805  0.1902
              Bcc     0.0685    36.569    13.049    12.198  0.9260  0.0270 -0.3765
 
              Baa    -0.0692   -36.930   -13.178   -12.319 -0.4981  0.0506  0.8656
     4 H(1)   Bbb     0.0014     0.740     0.264     0.247  0.4033  0.8973  0.1796
              Bcc     0.0678    36.190    12.914    12.072  0.7676 -0.4386  0.4673
 
              Baa    -0.0274   -14.615    -5.215    -4.875  0.4741 -0.2901  0.8313
     5 H(1)   Bbb    -0.0167    -8.899    -3.176    -2.969  0.3057  0.9397  0.1536
              Bcc     0.0441    23.514     8.390     7.843  0.8257 -0.1813 -0.5342
 
              Baa    -0.5582   -74.910   -26.730   -24.987 -0.2464 -0.2512  0.9361
     6 C(13)  Bbb    -0.5527   -74.171   -26.466   -24.741  0.9438 -0.2819  0.1727
              Bcc     1.1110   149.081    53.196    49.728  0.2205  0.9260  0.3065
 
              Baa    -0.0194    -2.605    -0.929    -0.869  0.9410 -0.2819  0.1875
     7 C(13)  Bbb     0.0000     0.002     0.001     0.001  0.3383  0.8048 -0.4877
              Bcc     0.0194     2.603     0.929     0.868 -0.0135  0.5223  0.8526
 
              Baa    -0.0751   -40.073   -14.299   -13.367  0.2458 -0.3553  0.9019
     8 H(1)   Bbb     0.0017     0.914     0.326     0.305  0.0998  0.9347  0.3410
              Bcc     0.0734    39.159    13.973    13.062  0.9642 -0.0062 -0.2652
 
              Baa    -0.0753   -40.166   -14.332   -13.398 -0.7052 -0.0639  0.7061
     9 H(1)   Bbb     0.0019     1.003     0.358     0.335  0.3042  0.8723  0.3828
              Bcc     0.0734    39.163    13.974    13.063  0.6404 -0.4848  0.5957
 
              Baa    -0.0109    -5.815    -2.075    -1.940  0.9250 -0.3300  0.1886
    10 H(1)   Bbb    -0.0056    -2.989    -1.066    -0.997  0.3747  0.8749 -0.3069
              Bcc     0.0165     8.804     3.141     2.937 -0.0637  0.3546  0.9329
 
              Baa    -0.0098    -5.240    -1.870    -1.748 -0.4641  0.7720  0.4344
    11 H(1)   Bbb    -0.0081    -4.338    -1.548    -1.447  0.8722  0.4839  0.0717
              Bcc     0.0180     9.578     3.418     3.195  0.1548 -0.4121  0.8979
 
              Baa    -0.0098    -5.222    -1.863    -1.742  0.6706  0.3258  0.6665
    12 H(1)   Bbb    -0.0080    -4.277    -1.526    -1.426 -0.3328  0.9350 -0.1222
              Bcc     0.0178     9.499     3.389     3.168 -0.6630 -0.1399  0.7355
 

 ---------------------------------------------------------------------------------

 DipInt: DoE/N= T T RetVal/Mat= T F Init=T NMatP=  1 IDeriv=0 Min/MaxMlt=  1  1
 Entering OneElI...
 Multipole integrals L=1 to 1 MinM= 0 MaxM= 0.
 Requested accuracy = 0.1000D-12
 PrsmSu:  NPrtUS=   1 ThrOK=F IAlg=1 NPAlg=1 LenDen=           0.
 Prism:   IPart=     0 DynPar=F LinDyn=F Incr=          34.
 PRISM was handed   419084350 working-precision words and  3437 shell-pairs
 IPart=  0 NShTot=        3437 NBatch=          52 AvBLen=        66.1
 PrSmSu:  NxtVal=             35.
 Entering OneElI...
 Calculate overlap and kinetic energy integrals
    NBasis = 300  MinDer = 1  MaxDer = 1
 Requested accuracy = 0.1000D-12
 PrsmSu:  NPrtUS=  32 ThrOK=T IAlg=1 NPAlg=1 LenDen=           0.
 PRISM was handed    13023208 working-precision words and  3680 shell-pairs
 PRISM was handed    13023208 working-precision words and  3680 shell-pairs
 PRISM was handed    13023208 working-precision words and  3680 shell-pairs
 Prism:   IPart=     0 DynPar=F LinDyn=F Incr=           1.
 PRISM was handed    13023208 working-precision words and  3680 shell-pairs
 IPart=  8 NShTot=         118 NBatch=          22 AvBLen=         5.4
 IPart=  9 NShTot=         116 NBatch=          21 AvBLen=         5.5
 PRISM was handed    13023208 working-precision words and  3680 shell-pairs
 PRISM was handed    13023208 working-precision words and  3680 shell-pairs
 PRISM was handed    13023208 working-precision words and  3680 shell-pairs
 PRISM was handed    13023208 working-precision words and  3680 shell-pairs
 PRISM was handed    13023208 working-precision words and  3680 shell-pairs
 PRISM was handed    13023208 working-precision words and  3680 shell-pairs
 IPart= 23 NShTot=         104 NBatch=          20 AvBLen=         5.2
 PRISM was handed    13023208 working-precision words and  3680 shell-pairs
 PRISM was handed    13023208 working-precision words and  3680 shell-pairs
 IPart=  2 NShTot=         145 NBatch=          43 AvBLen=         3.4
 PRISM was handed    13023208 working-precision words and  3680 shell-pairs
 PRISM was handed    13023208 working-precision words and  3680 shell-pairs
 IPart=  7 NShTot=         126 NBatch=          29 AvBLen=         4.3
 IPart= 19 NShTot=         106 NBatch=          20 AvBLen=         5.3
 PRISM was handed    13023208 working-precision words and  3680 shell-pairs
 IPart= 17 NShTot=         106 NBatch=          20 AvBLen=         5.3
 PRISM was handed    13023208 working-precision words and  3680 shell-pairs
 PRISM was handed    13023208 working-precision words and  3680 shell-pairs
 IPart= 28 NShTot=         103 NBatch=          20 AvBLen=         5.2
 PRISM was handed    13023208 working-precision words and  3680 shell-pairs
 PRISM was handed    13023208 working-precision words and  3680 shell-pairs
 PRISM was handed    13023208 working-precision words and  3680 shell-pairs
 IPart= 16 NShTot=         106 NBatch=          20 AvBLen=         5.3
 PRISM was handed    13023208 working-precision words and  3680 shell-pairs
 PRISM was handed    13023208 working-precision words and  3680 shell-pairs
 PRISM was handed    13023208 working-precision words and  3680 shell-pairs
 PRISM was handed    13023208 working-precision words and  3680 shell-pairs
 PRISM was handed    13023208 working-precision words and  3680 shell-pairs
 PRISM was handed    13023208 working-precision words and  3680 shell-pairs
 PRISM was handed    13023208 working-precision words and  3680 shell-pairs
 PRISM was handed    13023208 working-precision words and  3680 shell-pairs
 PRISM was handed    13023208 working-precision words and  3680 shell-pairs
 PRISM was handed    13023208 working-precision words and  3680 shell-pairs
 PRISM was handed    13023208 working-precision words and  3680 shell-pairs
 PRISM was handed    13023208 working-precision words and  3680 shell-pairs
 IPart=  0 NShTot=         151 NBatch=          49 AvBLen=         3.1
 IPart= 12 NShTot=         115 NBatch=          21 AvBLen=         5.5
 IPart= 22 NShTot=         104 NBatch=          20 AvBLen=         5.2
 IPart=  6 NShTot=         127 NBatch=          29 AvBLen=         4.4
 IPart= 14 NShTot=         108 NBatch=          21 AvBLen=         5.1
 IPart= 29 NShTot=         102 NBatch=          20 AvBLen=         5.1
 IPart= 24 NShTot=         104 NBatch=          20 AvBLen=         5.2
 IPart= 15 NShTot=         107 NBatch=          21 AvBLen=         5.1
 IPart= 13 NShTot=         113 NBatch=          21 AvBLen=         5.4
 IPart= 10 NShTot=         116 NBatch=          21 AvBLen=         5.5
 IPart=  4 NShTot=         134 NBatch=          33 AvBLen=         4.1
 IPart= 30 NShTot=         102 NBatch=          20 AvBLen=         5.1
 IPart= 31 NShTot=         102 NBatch=          20 AvBLen=         5.1
 IPart= 11 NShTot=         116 NBatch=          21 AvBLen=         5.5
 IPart= 18 NShTot=         106 NBatch=          20 AvBLen=         5.3
 IPart= 27 NShTot=         103 NBatch=          20 AvBLen=         5.2
 IPart= 25 NShTot=         103 NBatch=          20 AvBLen=         5.2
 IPart=  3 NShTot=         144 NBatch=          42 AvBLen=         3.4
 IPart= 20 NShTot=         106 NBatch=          20 AvBLen=         5.3
 IPart= 26 NShTot=         103 NBatch=          20 AvBLen=         5.2
 IPart=  1 NShTot=         148 NBatch=          46 AvBLen=         3.2
 IPart= 21 NShTot=         106 NBatch=          20 AvBLen=         5.3
 IPart=  5 NShTot=         130 NBatch=          30 AvBLen=         4.3
 PrSmSu:  NxtVal=             33.
 Entering OneElI...
 Calculate potential energy integrals
    NBasis = 300  MinDer = 1  MaxDer = 1
 Requested accuracy = 0.1000D-12
 PrsmSu:  NPrtUS=  32 ThrOK=T IAlg=1 NPAlg=1 LenDen=           0.
 PRISM was handed    13039515 working-precision words and  2973 shell-pairs
 PRISM was handed    13039515 working-precision words and  2973 shell-pairs
 PRISM was handed    13039515 working-precision words and  2973 shell-pairs
 PRISM was handed    13039515 working-precision words and  2973 shell-pairs
 PRISM was handed    13039515 working-precision words and  2973 shell-pairs
 PRISM was handed    13039515 working-precision words and  2973 shell-pairs
 PRISM was handed    13039515 working-precision words and  2973 shell-pairs
 PRISM was handed    13039515 working-precision words and  2973 shell-pairs
 PRISM was handed    13039515 working-precision words and  2973 shell-pairs
 PRISM was handed    13039515 working-precision words and  2973 shell-pairs
 PRISM was handed    13039515 working-precision words and  2973 shell-pairs
 PRISM was handed    13039515 working-precision words and  2973 shell-pairs
 PRISM was handed    13039515 working-precision words and  2973 shell-pairs
 PRISM was handed    13039515 working-precision words and  2973 shell-pairs
 PRISM was handed    13039515 working-precision words and  2973 shell-pairs
 PRISM was handed    13039515 working-precision words and  2973 shell-pairs
 PRISM was handed    13039515 working-precision words and  2973 shell-pairs
 PRISM was handed    13039515 working-precision words and  2973 shell-pairs
 PRISM was handed    13039515 working-precision words and  2973 shell-pairs
 PRISM was handed    13039515 working-precision words and  2973 shell-pairs
 PRISM was handed    13039515 working-precision words and  2973 shell-pairs
 PRISM was handed    13039515 working-precision words and  2973 shell-pairs
 PRISM was handed    13039515 working-precision words and  2973 shell-pairs
 PRISM was handed    13039515 working-precision words and  2973 shell-pairs
 PRISM was handed    13039515 working-precision words and  2973 shell-pairs
 PRISM was handed    13039515 working-precision words and  2973 shell-pairs
 PRISM was handed    13039515 working-precision words and  2973 shell-pairs
 PRISM was handed    13039515 working-precision words and  2973 shell-pairs
 PRISM was handed    13039515 working-precision words and  2973 shell-pairs
 PRISM was handed    13039515 working-precision words and  2973 shell-pairs
 PRISM was handed    13039515 working-precision words and  2973 shell-pairs
 Prism:   IPart=     0 DynPar=F LinDyn=F Incr=          11.
 PRISM was handed    13039515 working-precision words and  2973 shell-pairs
 IPart= 13 NShTot=        1068 NBatch=          89 AvBLen=        12.0
 IPart= 24 NShTot=        1008 NBatch=          84 AvBLen=        12.0
 IPart=  8 NShTot=        1140 NBatch=          95 AvBLen=        12.0
 IPart= 14 NShTot=        1068 NBatch=          89 AvBLen=        12.0
 IPart= 17 NShTot=        1032 NBatch=          86 AvBLen=        12.0
 IPart= 26 NShTot=        1008 NBatch=          84 AvBLen=        12.0
 IPart= 29 NShTot=         984 NBatch=          82 AvBLen=        12.0
 IPart= 19 NShTot=        1032 NBatch=          86 AvBLen=        12.0
 IPart= 30 NShTot=         960 NBatch=          80 AvBLen=        12.0
 IPart= 28 NShTot=         996 NBatch=          83 AvBLen=        12.0
 IPart=  6 NShTot=        1260 NBatch=         105 AvBLen=        12.0
 IPart= 25 NShTot=        1008 NBatch=          84 AvBLen=        12.0
 IPart=  7 NShTot=        1248 NBatch=         104 AvBLen=        12.0
 IPart=  4 NShTot=        1284 NBatch=         107 AvBLen=        12.0
 IPart= 11 NShTot=        1068 NBatch=          89 AvBLen=        12.0
 IPart= 22 NShTot=        1008 NBatch=          84 AvBLen=        12.0
 IPart=  2 NShTot=        1428 NBatch=         119 AvBLen=        12.0
 IPart= 18 NShTot=        1032 NBatch=          86 AvBLen=        12.0
 IPart= 23 NShTot=        1008 NBatch=          84 AvBLen=        12.0
 IPart= 21 NShTot=        1032 NBatch=          86 AvBLen=        12.0
 IPart=  9 NShTot=        1092 NBatch=          91 AvBLen=        12.0
 IPart= 31 NShTot=         948 NBatch=          79 AvBLen=        12.0
 IPart= 10 NShTot=        1080 NBatch=          90 AvBLen=        12.0
 IPart= 15 NShTot=        1044 NBatch=          87 AvBLen=        12.0
 IPart=  5 NShTot=        1272 NBatch=         106 AvBLen=        12.0
 IPart= 27 NShTot=         996 NBatch=          83 AvBLen=        12.0
 IPart=  3 NShTot=        1404 NBatch=         117 AvBLen=        12.0
 IPart= 16 NShTot=        1032 NBatch=          86 AvBLen=        12.0
 IPart= 12 NShTot=        1068 NBatch=          89 AvBLen=        12.0
 IPart=  1 NShTot=        1476 NBatch=         123 AvBLen=        12.0
 IPart=  0 NShTot=        1560 NBatch=         130 AvBLen=        12.0
 IPart= 20 NShTot=        1032 NBatch=          86 AvBLen=        12.0
 PrSmSu:  NxtVal=            353.
 l701 out
 I=    0 X=  -5.296945691573D-01 Y=   1.340835906934D-01 Z=  -1.630471530089D-01
 I=    1 X=   1.114986343072D-02 Y=  -1.038415303925D+00 Z=  -5.638054588301D+00
 I=    2 X=   2.522835651406D+00 Y=   4.157404709670D-02 Z=   7.055135310256D+00
 I=    3 X=   2.679487465047D+00 Y=  -9.415961024107D-03 Z=  -1.514194144118D+00
 I=    4 X=  -2.156714344679D+00 Y=   1.399787134968D+00 Z=  -1.708480305592D+00
 I=    5 X=  -2.914459543256D+00 Y=   2.075075297161D-01 Z=   2.169839027655D+00
 I=    6 X=  -5.295424566104D-01 Y=   9.786052355349D-02 Z=   2.712033572929D+00
 I=    7 X=   5.377368111934D-01 Y=   1.469478947674D-01 Z=  -2.534837132450D+00
 I=    8 X=  -2.734044650513D+00 Y=  -3.846054236123D-02 Z=   1.090077936640D+00
 I=    9 X=   1.664779317329D+00 Y=  -1.385894749210D+00 Z=   2.000546321413D+00
 I=   10 X=  -3.897087605001D-01 Y=  -2.182478049037D+00 Z=  -1.729739897388D+00
 I=   11 X=  -1.444830819769D+00 Y=   2.080244781550D+00 Z=  -1.370736460968D+00
 I=   12 X=   2.753311466922D+00 Y=   6.807426939064D-01 Z=  -5.315896400749D-01
 ICntrl=      2127.
 Calling FoFJK, ICntrl=      2127 FMM=F ISym2X=0 I1Cent= 0 IOpClX= 1 NMat=1 NMatS=1 NMatT=0.
 FoFJK:  IHMeth= 1 ICntrl=    2127 DoSepK=T KAlg= 0 I1Cent=   0 FoldK=F
 IRaf=         1 NMat=   1 IRICut=       1 DoRegI=T DoRafI=F ISym2E= 0.
 FoFCou: FMM=F IPFlag=           0 FMFlag=      100000 FMFlg1=         800
         NFxFlg=           0 DoJE=F BraDBF=F KetDBF=F FulRan=T
         wScrn=  0.000000 ICntrl=    2527 IOpCl=  0 I1Cent=           0 NGrid=           0
         NMat0=    1 NMatS0=      1 NMatT0=    0 NMatD0=    1 NMtDS0=    0 NMtDT0=    0
 Symmetry not used in FoFCou.
 FoFCou:  KetSym=F NOpSet=  1 NOpAb=1 NOp=  1.
 FoFCou:  CnvScl= 1.00D+00 Thresh= 1.00D-10 IAcrcy=      10.
 PrismS was handed   418997040 working-precision words and  3238 shell-pairs
 FoFCou: LinMIO=F DoNuc=F BraDBF=F KetDBF=F HaveP=T PDBF=F HaveZ=T HaveW=F
         NIJTC =      10 NIJTAt=       0 NIJTCD=       0 NIJTT =      10
         IJTBeg=       1 IJTEnd=      10 KLTBeg=       1 KLTEnd=      10
         IPTBeg=       1 IPTEnd=      10 IPTBCv=       1 IPTECv=      10
         IZTBeg=       1 IZTEnd=      10 IZTBCv=       1 IZTECv=      10
         IWTBeg=      11 IWTEnd=      10 IWTBCv=      11 IWTECv=      10
         INTBeg=       1 INTEnd=       0 IFTBCv=       1 IFTECv=      10
 NCel replicated for PrismC:     1
 CoulSu:  IncDef=  1024 NBBP=        5243941 NTPThr=   100 NPartT=   32 Incr=        1024 LDynOK=F.
 CoulSu:  NPrtUS=  32 ThrOK=T IAlg=1 NPAlg=1 LenDen=           0 LWGrdD=           0 DoCopy=F.
 Enter PrismC: JobTyp=21 DoJE=F Cont=F.
 Enter PrismC: JobTyp=21 DoJE=F Cont=F.
 Enter PrismC: JobTyp=21 DoJE=F Cont=F.
 Enter PrismC: JobTyp=21 DoJE=F Cont=F.
 Enter PrismC: JobTyp=21 DoJE=F Cont=F.
 Enter PrismC: JobTyp=21 DoJE=F Cont=F.
 Enter PrismC: JobTyp=21 DoJE=F Cont=F.
 Enter PrismC: JobTyp=21 DoJE=F Cont=F.
 Enter PrismC: JobTyp=21 DoJE=F Cont=F.
 Enter PrismC: JobTyp=21 DoJE=F Cont=F.
 Enter PrismC: JobTyp=21 DoJE=F Cont=F.
 Enter PrismC: JobTyp=21 DoJE=F Cont=F.
 Enter PrismC: JobTyp=21 DoJE=F Cont=F.
 Enter PrismC: JobTyp=21 DoJE=F Cont=F.
 Enter PrismC: JobTyp=21 DoJE=F Cont=F.
 Enter PrismC: JobTyp=21 DoJE=F Cont=F.
 Enter PrismC: JobTyp=21 DoJE=F Cont=F.
 Enter PrismC: JobTyp=21 DoJE=F Cont=F.
 Enter PrismC: JobTyp=21 DoJE=F Cont=F.
 Enter PrismC: JobTyp=21 DoJE=F Cont=F.
 Enter PrismC: JobTyp=21 DoJE=F Cont=F.
 Enter PrismC: JobTyp=21 DoJE=F Cont=F.
 Enter PrismC: JobTyp=21 DoJE=F Cont=F.
 Enter PrismC: JobTyp=21 DoJE=F Cont=F.
 Enter PrismC: JobTyp=21 DoJE=F Cont=F.
 Enter PrismC: JobTyp=21 DoJE=F Cont=F.
 Enter PrismC: JobTyp=21 DoJE=F Cont=F.
 Enter PrismC: JobTyp=21 DoJE=F Cont=F.
 Enter PrismC: JobTyp=21 DoJE=F Cont=F.
 Enter PrismC: JobTyp=21 DoJE=F Cont=F.
 PrismC was handed    13033152 working-precision words and  3238 shell-pairs
 Enter PrismC: JobTyp=21 DoJE=F Cont=F.
 PrismC was handed    13033152 working-precision words and  3238 shell-pairs
 PrismC was handed    13033152 working-precision words and  3238 shell-pairs
 PrismC was handed    13033152 working-precision words and  3238 shell-pairs
 PrismC was handed    13033152 working-precision words and  3238 shell-pairs
 PrismC was handed    13033152 working-precision words and  3238 shell-pairs
 PrismC was handed    13033152 working-precision words and  3238 shell-pairs
 PrismC was handed    13033152 working-precision words and  3238 shell-pairs
 PrismC was handed    13033152 working-precision words and  3238 shell-pairs
 PrismC was handed    13033152 working-precision words and  3238 shell-pairs
 PrismC was handed    13033152 working-precision words and  3238 shell-pairs
 PrismC was handed    13033152 working-precision words and  3238 shell-pairs
 PrismC was handed    13033152 working-precision words and  3238 shell-pairs
 PrismC was handed    13033152 working-precision words and  3238 shell-pairs
 PrismC was handed    13033152 working-precision words and  3238 shell-pairs
 PrismC was handed    13033152 working-precision words and  3238 shell-pairs
 PrismC was handed    13033152 working-precision words and  3238 shell-pairs
 PrismC was handed    13033152 working-precision words and  3238 shell-pairs
 PrismC was handed    13033152 working-precision words and  3238 shell-pairs
 PrismC was handed    13033152 working-precision words and  3238 shell-pairs
 PrismC was handed    13033152 working-precision words and  3238 shell-pairs
 PrismC was handed    13033152 working-precision words and  3238 shell-pairs
 PrismC was handed    13033152 working-precision words and  3238 shell-pairs
 PrismC was handed    13033152 working-precision words and  3238 shell-pairs
 PrismC was handed    13033152 working-precision words and  3238 shell-pairs
 PrismC was handed    13033152 working-precision words and  3238 shell-pairs
 PrismC was handed    13033152 working-precision words and  3238 shell-pairs
 PrismC was handed    13033152 working-precision words and  3238 shell-pairs
 PrismC was handed    13033152 working-precision words and  3238 shell-pairs
 PrismC was handed    13033152 working-precision words and  3238 shell-pairs
 Enter PrismC: JobTyp=21 DoJE=F Cont=F.
 PrismC was handed    13033152 working-precision words and  3238 shell-pairs
 PrismC:  IPart=     0 DynPar=T LinDyn=F Incr=        1024 UseFst=F UseS4=T IGathr=2.
 PrismC was handed    13033152 working-precision words and  3238 shell-pairs
 IPart= 20 NShTot=      200110 NShNF=      200110 NShFF=           0 NBatch=        1140 AvBLen=       175.5
 IPart= 25 NShTot=      114557 NShNF=      114557 NShFF=           0 NBatch=        1042 AvBLen=       109.9
 IPart= 29 NShTot=       78008 NShNF=       78008 NShFF=           0 NBatch=         686 AvBLen=       113.7
 IPart=  3 NShTot=      115938 NShNF=      115938 NShFF=           0 NBatch=        1220 AvBLen=        95.0
 IPart= 28 NShTot=      135382 NShNF=      135382 NShFF=           0 NBatch=         950 AvBLen=       142.5
 IPart= 12 NShTot=      137997 NShNF=      137997 NShFF=           0 NBatch=        1635 AvBLen=        84.4
 IPart= 31 NShTot=      186399 NShNF=      186399 NShFF=           0 NBatch=        1589 AvBLen=       117.3
 IPart= 14 NShTot=       91719 NShNF=       91719 NShFF=           0 NBatch=         658 AvBLen=       139.4
 IPart= 11 NShTot=      106579 NShNF=      106579 NShFF=           0 NBatch=         797 AvBLen=       133.7
 IPart= 27 NShTot=       96489 NShNF=       96489 NShFF=           0 NBatch=         828 AvBLen=       116.5
 IPart= 21 NShTot=       84896 NShNF=       84896 NShFF=           0 NBatch=         690 AvBLen=       123.0
 IPart= 30 NShTot=       91672 NShNF=       91672 NShFF=           0 NBatch=         623 AvBLen=       147.1
 IPart= 24 NShTot=       90765 NShNF=       90765 NShFF=           0 NBatch=         758 AvBLen=       119.7
 IPart=  2 NShTot=       93885 NShNF=       93885 NShFF=           0 NBatch=         607 AvBLen=       154.7
 IPart=  4 NShTot=      113512 NShNF=      113512 NShFF=           0 NBatch=         846 AvBLen=       134.2
 IPart= 18 NShTot=      173943 NShNF=      173943 NShFF=           0 NBatch=        1176 AvBLen=       147.9
 IPart= 22 NShTot=       78161 NShNF=       78161 NShFF=           0 NBatch=         624 AvBLen=       125.3
 IPart= 16 NShTot=       87926 NShNF=       87926 NShFF=           0 NBatch=         686 AvBLen=       128.2
 IPart= 19 NShTot=       93711 NShNF=       93711 NShFF=           0 NBatch=         741 AvBLen=       126.5
 IPart=  8 NShTot=       88196 NShNF=       88196 NShFF=           0 NBatch=         723 AvBLen=       122.0
 IPart= 10 NShTot=      122256 NShNF=      122256 NShFF=           0 NBatch=        1345 AvBLen=        90.9
 IPart= 23 NShTot=      143728 NShNF=      143728 NShFF=           0 NBatch=        1050 AvBLen=       136.9
 IPart= 17 NShTot=      108725 NShNF=      108725 NShFF=           0 NBatch=         811 AvBLen=       134.1
 IPart= 26 NShTot=      100310 NShNF=      100310 NShFF=           0 NBatch=         564 AvBLen=       177.9
 IPart=  6 NShTot=       84599 NShNF=       84599 NShFF=           0 NBatch=         773 AvBLen=       109.4
 IPart=  9 NShTot=      126308 NShNF=      126308 NShFF=           0 NBatch=        1026 AvBLen=       123.1
 IPart=  1 NShTot=      101619 NShNF=      101619 NShFF=           0 NBatch=         818 AvBLen=       124.2
 IPart=  5 NShTot=      102257 NShNF=      102257 NShFF=           0 NBatch=         692 AvBLen=       147.8
 IPart=  0 NShTot=      114825 NShNF=      114825 NShFF=           0 NBatch=         843 AvBLen=       136.2
 IPart= 15 NShTot=      100502 NShNF=      100502 NShFF=           0 NBatch=         778 AvBLen=       129.2
 IPart= 13 NShTot=      120079 NShNF=      120079 NShFF=           0 NBatch=        1503 AvBLen=        79.9
 IPart=  7 NShTot=      179288 NShNF=      179288 NShFF=           0 NBatch=        1346 AvBLen=       133.2
 CoulSu:  NxtVal=        5731329.
 FoFCou: FMM=F IPFlag=           0 FMFlag=      100000 FMFlg1=         800
         NFxFlg=           0 DoJE=F BraDBF=F KetDBF=F FulRan=T
         wScrn=  0.000000 ICntrl=    2127 IOpCl=  1 I1Cent=           0 NGrid=           0
         NMat0=    1 NMatS0=      0 NMatT0=    1 NMatD0=    1 NMtDS0=    0 NMtDT0=    0
         CW=    0.222036    0.777964
         WU=    0.000000   12.500000
 Symmetry not used in FoFCou.
 FoFCou:  KetSym=F NOpSet=  1 NOpAb=1 NOp=  1.
 FoFCou:  CnvScl= 1.00D+00 Thresh= 1.00D-10 IAcrcy=      10.
 PrismS was handed   418992074 working-precision words and  3238 shell-pairs
 FoFCou: LinMIO=F DoNuc=F BraDBF=F KetDBF=F HaveP=T PDBF=F HaveZ=T HaveW=F
         NIJTC =      10 NIJTAt=       0 NIJTCD=       0 NIJTT =      10
         IJTBeg=       1 IJTEnd=      10 KLTBeg=       1 KLTEnd=      10
         IPTBeg=       1 IPTEnd=      10 IPTBCv=       1 IPTECv=      10
         IZTBeg=       1 IZTEnd=      10 IZTBCv=       1 IZTECv=      10
         IWTBeg=      11 IWTEnd=      10 IWTBCv=      11 IWTECv=      10
         INTBeg=       1 INTEnd=       0 IFTBCv=       1 IFTECv=      10
 NCel replicated for PrismC:     1
 CoulSu:  IncDef=  1024 NBBP=        5243941 NTPThr=   100 NPartT=   32 Incr=        1024 LDynOK=F.
 CoulSu:  NPrtUS=  32 ThrOK=T IAlg=1 NPAlg=1 LenDen=           0 LWGrdD=           0 DoCopy=F.
 Enter PrismC: JobTyp=21 DoJE=F Cont=F.
 Linear combination for Coulomb/exchange, wScrn=  0.000000
 Enter PrismC: JobTyp=21 DoJE=F Cont=F.
 Linear combination for Coulomb/exchange, wScrn=  0.000000
 CW=    0.222036    0.777964
 WU=    0.000000   12.500000
 PrismC was handed    13032997 working-precision words and  3238 shell-pairs
 Enter PrismC: JobTyp=21 DoJE=F Cont=F.
 Linear combination for Coulomb/exchange, wScrn=  0.000000
 CW=    0.222036    0.777964
 WU=    0.000000   12.500000
 PrismC was handed    13032997 working-precision words and  3238 shell-pairs
 Enter PrismC: JobTyp=21 DoJE=F Cont=F.
 Linear combination for Coulomb/exchange, wScrn=  0.000000
 Enter PrismC: JobTyp=21 DoJE=F Cont=F.
 Linear combination for Coulomb/exchange, wScrn=  0.000000
 CW=    0.222036    0.777964
 WU=    0.000000   12.500000
 PrismC was handed    13032997 working-precision words and  3238 shell-pairs
 Enter PrismC: JobTyp=21 DoJE=F Cont=F.
 Linear combination for Coulomb/exchange, wScrn=  0.000000
 CW=    0.222036    0.777964
 WU=    0.000000   12.500000
 PrismC was handed    13032997 working-precision words and  3238 shell-pairs
 Enter PrismC: JobTyp=21 DoJE=F Cont=F.
 Linear combination for Coulomb/exchange, wScrn=  0.000000
 CW=    0.222036    0.777964
 WU=    0.000000   12.500000
 PrismC was handed    13032997 working-precision words and  3238 shell-pairs
 Enter PrismC: JobTyp=21 DoJE=F Cont=F.
 Linear combination for Coulomb/exchange, wScrn=  0.000000
 CW=    0.222036    0.777964
 WU=    0.000000   12.500000
 PrismC was handed    13032997 working-precision words and  3238 shell-pairs
 Enter PrismC: JobTyp=21 DoJE=F Cont=F.
 Linear combination for Coulomb/exchange, wScrn=  0.000000
 CW=    0.222036    0.777964
 WU=    0.000000   12.500000
 PrismC was handed    13032997 working-precision words and  3238 shell-pairs
 Enter PrismC: JobTyp=21 DoJE=F Cont=F.
 Linear combination for Coulomb/exchange, wScrn=  0.000000
 CW=    0.222036    0.777964
 WU=    0.000000   12.500000
 PrismC was handed    13032997 working-precision words and  3238 shell-pairs
 Enter PrismC: JobTyp=21 DoJE=F Cont=F.
 Linear combination for Coulomb/exchange, wScrn=  0.000000
 Enter PrismC: JobTyp=21 DoJE=F Cont=F.
 Linear combination for Coulomb/exchange, wScrn=  0.000000
 CW=    0.222036    0.777964
 WU=    0.000000   12.500000
 PrismC was handed    13032997 working-precision words and  3238 shell-pairs
 Enter PrismC: JobTyp=21 DoJE=F Cont=F.
 Linear combination for Coulomb/exchange, wScrn=  0.000000
 CW=    0.222036    0.777964
 WU=    0.000000   12.500000
 PrismC was handed    13032997 working-precision words and  3238 shell-pairs
 Enter PrismC: JobTyp=21 DoJE=F Cont=F.
 Linear combination for Coulomb/exchange, wScrn=  0.000000
 CW=    0.222036    0.777964
 WU=    0.000000   12.500000
 PrismC was handed    13032997 working-precision words and  3238 shell-pairs
 Enter PrismC: JobTyp=21 DoJE=F Cont=F.
 Linear combination for Coulomb/exchange, wScrn=  0.000000
 CW=    0.222036    0.777964
 WU=    0.000000   12.500000
 PrismC was handed    13032997 working-precision words and  3238 shell-pairs
 CW=    0.222036    0.777964
 WU=    0.000000   12.500000
 CW=    0.222036    0.777964
 WU=    0.000000   12.500000
 PrismC was handed    13032997 working-precision words and  3238 shell-pairs
 Enter PrismC: JobTyp=21 DoJE=F Cont=F.
 Linear combination for Coulomb/exchange, wScrn=  0.000000
 CW=    0.222036    0.777964
 WU=    0.000000   12.500000
 PrismC was handed    13032997 working-precision words and  3238 shell-pairs
 Enter PrismC: JobTyp=21 DoJE=F Cont=F.
 Linear combination for Coulomb/exchange, wScrn=  0.000000
 CW=    0.222036    0.777964
 WU=    0.000000   12.500000
 PrismC was handed    13032997 working-precision words and  3238 shell-pairs
 Enter PrismC: JobTyp=21 DoJE=F Cont=F.
 Linear combination for Coulomb/exchange, wScrn=  0.000000
 CW=    0.222036    0.777964
 WU=    0.000000   12.500000
 PrismC was handed    13032997 working-precision words and  3238 shell-pairs
 CW=    0.222036    0.777964
 WU=    0.000000   12.500000
 Enter PrismC: JobTyp=21 DoJE=F Cont=F.
 Linear combination for Coulomb/exchange, wScrn=  0.000000
 CW=    0.222036    0.777964
 WU=    0.000000   12.500000
 PrismC was handed    13032997 working-precision words and  3238 shell-pairs
 Enter PrismC: JobTyp=21 DoJE=F Cont=F.
 Linear combination for Coulomb/exchange, wScrn=  0.000000
 CW=    0.222036    0.777964
 WU=    0.000000   12.500000
 PrismC was handed    13032997 working-precision words and  3238 shell-pairs
 Enter PrismC: JobTyp=21 DoJE=F Cont=F.
 Linear combination for Coulomb/exchange, wScrn=  0.000000
 CW=    0.222036    0.777964
 WU=    0.000000   12.500000
 PrismC was handed    13032997 working-precision words and  3238 shell-pairs
 Enter PrismC: JobTyp=21 DoJE=F Cont=F.
 Linear combination for Coulomb/exchange, wScrn=  0.000000
 CW=    0.222036    0.777964
 WU=    0.000000   12.500000
 PrismC was handed    13032997 working-precision words and  3238 shell-pairs
 Enter PrismC: JobTyp=21 DoJE=F Cont=F.
 Linear combination for Coulomb/exchange, wScrn=  0.000000
 CW=    0.222036    0.777964
 WU=    0.000000   12.500000
 Enter PrismC: JobTyp=21 DoJE=F Cont=F.
 Linear combination for Coulomb/exchange, wScrn=  0.000000
 CW=    0.222036    0.777964
 WU=    0.000000   12.500000
 PrismC was handed    13032997 working-precision words and  3238 shell-pairs
 Enter PrismC: JobTyp=21 DoJE=F Cont=F.
 Linear combination for Coulomb/exchange, wScrn=  0.000000
 CW=    0.222036    0.777964
 WU=    0.000000   12.500000
 PrismC was handed    13032997 working-precision words and  3238 shell-pairs
 Enter PrismC: JobTyp=21 DoJE=F Cont=F.
 Linear combination for Coulomb/exchange, wScrn=  0.000000
 CW=    0.222036    0.777964
 WU=    0.000000   12.500000
 PrismC was handed    13032997 working-precision words and  3238 shell-pairs
 Enter PrismC: JobTyp=21 DoJE=F Cont=F.
 Linear combination for Coulomb/exchange, wScrn=  0.000000
 CW=    0.222036    0.777964
 WU=    0.000000   12.500000
 PrismC was handed    13032997 working-precision words and  3238 shell-pairs
 PrismC was handed    13032997 working-precision words and  3238 shell-pairs
 PrismC was handed    13032997 working-precision words and  3238 shell-pairs
 Enter PrismC: JobTyp=21 DoJE=F Cont=F.
 Linear combination for Coulomb/exchange, wScrn=  0.000000
 CW=    0.222036    0.777964
 WU=    0.000000   12.500000
 PrismC:  IPart=     0 DynPar=T LinDyn=F Incr=        1024 UseFst=F UseS4=T IGathr=2.
 PrismC was handed    13032997 working-precision words and  3238 shell-pairs
 Enter PrismC: JobTyp=21 DoJE=F Cont=F.
 Linear combination for Coulomb/exchange, wScrn=  0.000000
 CW=    0.222036    0.777964
 WU=    0.000000   12.500000
 Enter PrismC: JobTyp=21 DoJE=F Cont=F.
 Linear combination for Coulomb/exchange, wScrn=  0.000000
 CW=    0.222036    0.777964
 WU=    0.000000   12.500000
 PrismC was handed    13032997 working-precision words and  3238 shell-pairs
 PrismC was handed    13032997 working-precision words and  3238 shell-pairs
 Enter PrismC: JobTyp=21 DoJE=F Cont=F.
 Linear combination for Coulomb/exchange, wScrn=  0.000000
 CW=    0.222036    0.777964
 WU=    0.000000   12.500000
 Enter PrismC: JobTyp=21 DoJE=F Cont=F.
 Linear combination for Coulomb/exchange, wScrn=  0.000000
 CW=    0.222036    0.777964
 WU=    0.000000   12.500000
 PrismC was handed    13032997 working-precision words and  3238 shell-pairs
 PrismC was handed    13032997 working-precision words and  3238 shell-pairs
 PrismC was handed    13032997 working-precision words and  3238 shell-pairs
 IPart=  6 NShTot=      151647 NShNF=      151647 NShFF=           0 NBatch=        1127 AvBLen=       134.6
 IPart= 16 NShTot=       94635 NShNF=       94635 NShFF=           0 NBatch=         958 AvBLen=        98.8
 IPart= 14 NShTot=       98831 NShNF=       98831 NShFF=           0 NBatch=         984 AvBLen=       100.4
 IPart= 19 NShTot=      131963 NShNF=      131963 NShFF=           0 NBatch=         876 AvBLen=       150.6
 IPart= 29 NShTot=      113731 NShNF=      113731 NShFF=           0 NBatch=        1134 AvBLen=       100.3
 IPart= 20 NShTot=      121146 NShNF=      121146 NShFF=           0 NBatch=        1327 AvBLen=        91.3
 IPart= 30 NShTot=      131246 NShNF=      131246 NShFF=           0 NBatch=        1115 AvBLen=       117.7
 IPart=  8 NShTot=       79559 NShNF=       79559 NShFF=           0 NBatch=        1117 AvBLen=        71.2
 IPart= 12 NShTot=      139292 NShNF=      139292 NShFF=           0 NBatch=        1418 AvBLen=        98.2
 IPart=  2 NShTot=      133243 NShNF=      133243 NShFF=           0 NBatch=        1287 AvBLen=       103.5
 IPart= 31 NShTot=       74712 NShNF=       74712 NShFF=           0 NBatch=         906 AvBLen=        82.5
 IPart= 21 NShTot=      114160 NShNF=      114160 NShFF=           0 NBatch=        1225 AvBLen=        93.2
 IPart=  4 NShTot=       91082 NShNF=       91082 NShFF=           0 NBatch=         999 AvBLen=        91.2
 IPart= 28 NShTot=      112882 NShNF=      112882 NShFF=           0 NBatch=        1326 AvBLen=        85.1
 IPart= 18 NShTot=      131116 NShNF=      131116 NShFF=           0 NBatch=        1373 AvBLen=        95.5
 IPart= 13 NShTot=       94787 NShNF=       94787 NShFF=           0 NBatch=         888 AvBLen=       106.7
 IPart=  9 NShTot=      124856 NShNF=      124856 NShFF=           0 NBatch=        1270 AvBLen=        98.3
 IPart= 15 NShTot=       94985 NShNF=       94985 NShFF=           0 NBatch=         916 AvBLen=       103.7
 IPart= 24 NShTot=      125863 NShNF=      125863 NShFF=           0 NBatch=        1076 AvBLen=       117.0
 IPart=  5 NShTot=       97876 NShNF=       97876 NShFF=           0 NBatch=         983 AvBLen=        99.6
 IPart=  7 NShTot=       94210 NShNF=       94210 NShFF=           0 NBatch=        1075 AvBLen=        87.6
 IPart= 22 NShTot=      133924 NShNF=      133924 NShFF=           0 NBatch=        1307 AvBLen=       102.5
 IPart=  1 NShTot=       87869 NShNF=       87869 NShFF=           0 NBatch=        1113 AvBLen=        78.9
 IPart= 23 NShTot=      109377 NShNF=      109377 NShFF=           0 NBatch=        1142 AvBLen=        95.8
 IPart=  0 NShTot=       87893 NShNF=       87893 NShFF=           0 NBatch=        1024 AvBLen=        85.8
 IPart= 11 NShTot=      102634 NShNF=      102634 NShFF=           0 NBatch=        1131 AvBLen=        90.7
 IPart= 25 NShTot=      118389 NShNF=      118389 NShFF=           0 NBatch=        1104 AvBLen=       107.2
 IPart= 26 NShTot=      166186 NShNF=      166186 NShFF=           0 NBatch=        1341 AvBLen=       123.9
 IPart= 27 NShTot=      113625 NShNF=      113625 NShFF=           0 NBatch=        1073 AvBLen=       105.9
 IPart= 17 NShTot=      103932 NShNF=      103932 NShFF=           0 NBatch=        1000 AvBLen=       103.9
 IPart=  3 NShTot=      148491 NShNF=      148491 NShFF=           0 NBatch=        1247 AvBLen=       119.1
 IPart= 10 NShTot=      114380 NShNF=      114380 NShFF=           0 NBatch=        1164 AvBLen=        98.3
 CoulSu:  NxtVal=        5731329.
 ReadGW:  IGet=0 IStart=           1 Next=           1 LGW=           0.
 Remaining memory in FofDFT      399.83 Mw
 CkSvGd:  ISavGI=        -1 IRadAn=       5 IRASav=       5 ISavGd=        -1.
 CalDSu:  NPrtUS=  32 ThrOK=T IAlg=1 NPAlg=2 DoDPD=T LenP=       45150 LenD1P=             0.
 IPart=  0 IRanGd=          0 ScrnBf=T ScrnGd=T RCrit=4.00D+00 DoMicB=T.
 IPart=  7         8119 of        11168 points in      18 batches and       75 microbatches, Max-NSigAt=      12 Max-NSgAt2=      12
 IPart=  3         6322 of         7098 points in      11 batches and       48 microbatches, Max-NSigAt=      12 Max-NSgAt2=      12
 IPart=  9         7268 of         7508 points in      12 batches and       38 microbatches, Max-NSigAt=      12 Max-NSgAt2=      12
 IPart=  5         8697 of        10246 points in      16 batches and       46 microbatches, Max-NSigAt=      12 Max-NSgAt2=      12
 IPart=  6         9711 of        12298 points in      18 batches and       35 microbatches, Max-NSigAt=      12 Max-NSgAt2=      12
 IPart= 27         9023 of         9610 points in      14 batches and       27 microbatches, Max-NSigAt=      12 Max-NSgAt2=      11
 IPart= 21         7143 of         8398 points in      13 batches and       22 microbatches, Max-NSigAt=      12 Max-NSgAt2=      11
 IPart= 28        11154 of        12022 points in      19 batches and       59 microbatches, Max-NSigAt=      12 Max-NSgAt2=      12
 IPart= 19         8376 of         8886 points in      13 batches and       45 microbatches, Max-NSigAt=      12 Max-NSgAt2=      12
 IPart= 17         8523 of         9172 points in      14 batches and       26 microbatches, Max-NSigAt=      12 Max-NSgAt2=      11
 IPart=  8        11279 of        13494 points in      20 batches and       65 microbatches, Max-NSigAt=      12 Max-NSgAt2=      12
 IPart= 24         7054 of         7916 points in      12 batches and       77 microbatches, Max-NSigAt=      12 Max-NSgAt2=      12
 IPart=  1         9325 of         9764 points in      14 batches and       42 microbatches, Max-NSigAt=      12 Max-NSgAt2=      12
 IPart= 13         7534 of         8998 points in      14 batches and       48 microbatches, Max-NSigAt=      12 Max-NSgAt2=      12
 IPart= 23         9583 of        10772 points in      17 batches and       48 microbatches, Max-NSigAt=      12 Max-NSgAt2=      12
 IPart= 20         7746 of         9928 points in      15 batches and       77 microbatches, Max-NSigAt=      12 Max-NSgAt2=      12
 IPart= 12         6888 of         7294 points in      12 batches and       28 microbatches, Max-NSigAt=      12 Max-NSgAt2=      12
 IPart= 29         7170 of         8048 points in      13 batches and       81 microbatches, Max-NSigAt=      12 Max-NSgAt2=      12
 IPart= 16         7770 of         9646 points in      15 batches and       36 microbatches, Max-NSigAt=      12 Max-NSgAt2=      12
 IPart= 31         6545 of         7020 points in      11 batches and       45 microbatches, Max-NSigAt=      12 Max-NSgAt2=      12
 IPart= 26         5905 of         6574 points in      11 batches and       59 microbatches, Max-NSigAt=      12 Max-NSgAt2=      12
 IPart=  4         5725 of         6184 points in      10 batches and       44 microbatches, Max-NSigAt=      12 Max-NSgAt2=      12
 IPart=  0         8101 of         9052 points in      14 batches and       56 microbatches, Max-NSigAt=      12 Max-NSgAt2=      12
 IPart= 11         5462 of         5854 points in       9 batches and       47 microbatches, Max-NSigAt=      12 Max-NSgAt2=      12
 IPart= 14         6613 of         7624 points in      13 batches and       67 microbatches, Max-NSigAt=      12 Max-NSgAt2=      12
 IPart= 22         7307 of         7912 points in      13 batches and       68 microbatches, Max-NSigAt=      12 Max-NSgAt2=      12
 IPart= 18         6181 of         6834 points in      11 batches and       59 microbatches, Max-NSigAt=      12 Max-NSgAt2=      12
 IPart= 25         7721 of         8482 points in      13 batches and       65 microbatches, Max-NSigAt=      12 Max-NSgAt2=      12
 IPart= 10         8114 of         9264 points in      15 batches and       87 microbatches, Max-NSigAt=      12 Max-NSgAt2=      12
 IPart= 30         8760 of         9544 points in      14 batches and       74 microbatches, Max-NSigAt=      12 Max-NSgAt2=      12
 IPart= 15         6987 of         7660 points in      11 batches and       62 microbatches, Max-NSigAt=      12 Max-NSgAt2=      12
 IPart=  2         7276 of         7726 points in      12 batches and       58 microbatches, Max-NSigAt=      12 Max-NSgAt2=      12
 Forces at end of L703
 I=    0 X=  -5.296945691573D-01 Y=   1.340835906934D-01 Z=  -1.630471530089D-01
 I=    1 X=  -1.002433242531D-03 Y=  -1.665842685566D-03 Z=   1.065747945471D-03
 I=    2 X=   1.951991926643D-04 Y=   9.244651142273D-04 Z=  -8.941617983549D-04
 I=    3 X=  -5.396199914354D-04 Y=   6.279922438521D-04 Z=   1.671449799923D-05
 I=    4 X=   1.161295485006D-03 Y=   5.131043655695D-04 Z=   1.169933120588D-04
 I=    5 X=   1.823171103705D-04 Y=  -4.009871783812D-04 Z=  -3.060585691612D-04
 I=    6 X=   1.203042700030D-03 Y=   3.875554651349D-03 Z=   3.359652599400D-03
 I=    7 X=  -4.138220629279D-04 Y=  -1.738758223681D-03 Z=  -1.772865532963D-03
 I=    8 X=   1.441017838086D-04 Y=  -1.593272818078D-03 Z=  -6.028070360946D-04
 I=    9 X=  -1.094301680450D-03 Y=  -1.108475961254D-03 Z=  -8.463663167464D-04
 I=   10 X=   7.733997622700D-05 Y=   1.698440408884D-04 Z=  -2.615060589559D-04
 I=   11 X=   2.029465145905D-04 Y=   1.859982126740D-04 Z=  -3.141237995274D-06
 I=   12 X=  -1.160657853427D-04 Y=   2.103782383890D-04 Z=   1.277981952974D-04
 FrcOut:
 IF    =    64 IFX   =   100 IFXYZ =   136
 IFFX  =   172 IFFFX =   838 IFLen =    36
 IFFLen=   666 IFFFLn=     0 IEDerv=   838
 LEDerv=  1781 IFroze=  3025 ICStrt=147350
 FCEst1:  Generated internal coordinate force constants:
                1             2             3             4             5 
      1  0.654629D+00
      2 -0.102200D+00  0.267661D+00
      3 -0.678541D-02 -0.690726D-01  0.848893D+00
      4 -0.108164D+00  0.548909D-02 -0.420872D-02  0.595303D+00
      5  0.257126D-02 -0.713570D-01 -0.107441D-01 -0.320885D-01  0.862346D-01
      6 -0.324130D-01  0.192745D-02 -0.536202D+00 -0.130157D+00  0.773982D-02
      7 -0.320270D+00  0.295825D-02  0.942409D-01  0.123462D-01  0.347347D-03
      8 -0.114307D-01 -0.665649D-01  0.128207D-01  0.437238D-03 -0.282232D-02
      9  0.959283D-01  0.679961D-02 -0.145390D+00  0.283782D-01  0.798385D-03
     10 -0.235934D+00  0.936802D-01 -0.836296D-01  0.123559D-01  0.973150D-03
     11  0.109097D+00 -0.133733D+00  0.660357D-01 -0.377312D-02  0.172328D-01
     12 -0.895980D-01  0.607040D-01 -0.163964D+00 -0.229885D-01  0.145256D-01
     13  0.117761D-01 -0.347893D-03  0.000000D+00 -0.512213D+00  0.286906D-01
     14  0.190223D-02  0.581257D-02  0.000000D+00  0.294957D-01 -0.314895D-01
     15  0.324130D-01 -0.192745D-02  0.000000D+00  0.130157D+00 -0.773982D-02
     16 -0.261402D-02  0.407793D-03  0.737588D-03  0.502339D-03 -0.527682D-03
     17 -0.396998D-04 -0.203771D-02  0.150081D-02  0.394870D-03  0.221279D-02
     18  0.694394D-03  0.184243D-02 -0.407702D-02 -0.115687D-02 -0.458601D-02
     19  0.541962D-03  0.379800D-03 -0.114608D-02  0.320363D-03 -0.823417D-04
     20  0.123098D-02  0.148170D-02 -0.396988D-02 -0.110910D-03  0.285066D-04
     21  0.327143D-03  0.325452D-03 -0.904184D-03  0.630729D-04 -0.162114D-04
     22 -0.590788D-03  0.635831D-04  0.194873D-03 -0.112724D-03  0.289729D-04
     23 -0.347410D-02  0.360528D-03  0.117546D-02  0.210302D-03 -0.540530D-04
     24 -0.169468D-02  0.183568D-03  0.556395D-03 -0.400343D-03  0.102899D-03
     25  0.622763D-03 -0.429997D-03  0.595960D-03 -0.339137D-03  0.871670D-04
     26  0.234451D-02 -0.162359D-02  0.225416D-02 -0.546852D-04  0.140555D-04
     27  0.112776D-02 -0.782307D-03  0.108723D-02  0.313185D-03 -0.804967D-04
     28  0.232041D-03 -0.803324D-04  0.456840D-04  0.000000D+00  0.000000D+00
     29 -0.778391D-04  0.269479D-04 -0.153249D-04  0.000000D+00  0.000000D+00
     30  0.460715D-04 -0.159499D-04  0.907052D-05  0.000000D+00  0.000000D+00
     31 -0.173959D-03  0.602244D-04 -0.342489D-04  0.000000D+00  0.000000D+00
     32 -0.166728D-03  0.577213D-04 -0.328254D-04  0.000000D+00  0.000000D+00
     33 -0.695156D-04  0.240663D-04 -0.136862D-04  0.000000D+00  0.000000D+00
     34 -0.554641D-04  0.192016D-04 -0.109197D-04  0.000000D+00  0.000000D+00
     35  0.243399D-03 -0.842645D-04  0.479202D-04  0.000000D+00  0.000000D+00
     36  0.239188D-04 -0.828067D-05  0.470911D-05  0.000000D+00  0.000000D+00
                6             7             8             9            10 
      6  0.643599D+00
      7  0.000000D+00  0.316593D+00
      8  0.000000D+00 -0.359954D-03  0.524693D-01
      9  0.000000D+00 -0.104380D+00 -0.827363D-03  0.122084D+00
     10  0.000000D+00 -0.798583D-02  0.142891D-01 -0.183556D-01  0.230966D+00
     11  0.000000D+00 -0.297379D-02  0.964463D-02 -0.683534D-02 -0.104740D+00
     12  0.000000D+00  0.981400D-02 -0.135311D-01  0.225577D-01  0.101486D+00
     13  0.162570D+00  0.000000D+00  0.422602D-03  0.000000D+00 -0.223937D-03
     14 -0.966726D-02  0.000000D+00  0.710671D-02  0.000000D+00 -0.376585D-02
     15 -0.107397D+00  0.000000D+00  0.000000D+00  0.000000D+00  0.000000D+00
     16  0.000000D+00 -0.738701D-03 -0.328631D-02 -0.169792D-02  0.726694D-03
     17  0.000000D+00  0.470175D-04  0.142153D-03  0.108071D-03 -0.404955D-03
     18  0.000000D+00  0.315384D-03  0.155103D-02  0.724917D-03  0.481694D-03
     19  0.000000D+00 -0.135174D-03  0.175471D-03 -0.310702D-03 -0.229822D-03
     20  0.000000D+00  0.467973D-04 -0.607479D-04  0.107565D-03  0.795643D-04
     21  0.000000D+00 -0.266131D-04  0.345466D-04 -0.611708D-04 -0.452472D-04
     22  0.000000D+00  0.475628D-04 -0.617416D-04  0.109324D-03  0.808657D-04
     23  0.000000D+00 -0.887350D-04  0.115188D-03 -0.203960D-03 -0.150866D-03
     24  0.000000D+00  0.168921D-03 -0.219278D-03  0.388270D-03  0.287198D-03
     25  0.000000D+00  0.143096D-03 -0.185754D-03  0.328909D-03  0.243290D-03
     26  0.000000D+00  0.230739D-04 -0.299524D-04  0.530360D-04  0.392301D-04
     27  0.000000D+00 -0.132146D-03  0.171539D-03 -0.303740D-03 -0.224673D-03
     28  0.000000D+00  0.000000D+00  0.000000D+00  0.000000D+00  0.000000D+00
     29  0.000000D+00  0.000000D+00  0.000000D+00  0.000000D+00  0.000000D+00
     30  0.000000D+00  0.000000D+00  0.000000D+00  0.000000D+00  0.000000D+00
     31  0.000000D+00  0.000000D+00  0.000000D+00  0.000000D+00  0.000000D+00
     32  0.000000D+00  0.000000D+00  0.000000D+00  0.000000D+00  0.000000D+00
     33  0.000000D+00  0.000000D+00  0.000000D+00  0.000000D+00  0.000000D+00
     34  0.000000D+00  0.000000D+00  0.000000D+00  0.000000D+00  0.000000D+00
     35  0.000000D+00  0.000000D+00  0.000000D+00  0.000000D+00  0.000000D+00
     36  0.000000D+00  0.000000D+00  0.000000D+00  0.000000D+00  0.000000D+00
               11            12            13            14            15 
     11  0.114740D+00
     12 -0.609750D-01  0.140539D+00
     13 -0.378705D-03  0.000000D+00  0.500617D+00
     14 -0.636851D-02  0.000000D+00 -0.283753D-01  0.251297D-01
     15  0.000000D+00  0.000000D+00 -0.162570D+00  0.966726D-02  0.107397D+00
     16  0.273834D-02  0.140661D-02  0.441932D-04  0.743178D-03  0.000000D+00
     17 -0.150509D-02 -0.764395D-03 -0.113588D-04 -0.191016D-03  0.000000D+00
     18  0.176905D-02  0.889441D-03  0.000000D+00  0.000000D+00  0.000000D+00
     19 -0.738190D-04  0.293396D-03  0.000000D+00  0.000000D+00  0.000000D+00
     20  0.255561D-04 -0.101574D-03  0.000000D+00  0.000000D+00  0.000000D+00
     21 -0.145334D-04  0.577637D-04  0.000000D+00  0.000000D+00  0.000000D+00
     22  0.259741D-04 -0.103235D-03  0.000000D+00  0.000000D+00  0.000000D+00
     23 -0.484583D-04  0.192600D-03  0.000000D+00  0.000000D+00  0.000000D+00
     24  0.922481D-04 -0.366644D-03  0.000000D+00  0.000000D+00  0.000000D+00
     25  0.781448D-04 -0.310590D-03  0.000000D+00  0.000000D+00  0.000000D+00
     26  0.126007D-04 -0.500820D-04  0.000000D+00  0.000000D+00  0.000000D+00
     27 -0.721650D-04  0.286823D-03  0.000000D+00  0.000000D+00  0.000000D+00
     28  0.000000D+00  0.000000D+00  0.000000D+00  0.000000D+00  0.000000D+00
     29  0.000000D+00  0.000000D+00  0.000000D+00  0.000000D+00  0.000000D+00
     30  0.000000D+00  0.000000D+00  0.000000D+00  0.000000D+00  0.000000D+00
     31  0.000000D+00  0.000000D+00  0.000000D+00  0.000000D+00  0.000000D+00
     32  0.000000D+00  0.000000D+00  0.000000D+00  0.000000D+00  0.000000D+00
     33  0.000000D+00  0.000000D+00  0.000000D+00  0.000000D+00  0.000000D+00
     34  0.000000D+00  0.000000D+00  0.000000D+00  0.000000D+00  0.000000D+00
     35  0.000000D+00  0.000000D+00  0.000000D+00  0.000000D+00  0.000000D+00
     36  0.000000D+00  0.000000D+00  0.000000D+00  0.000000D+00  0.000000D+00
               16            17            18            19            20 
     16  0.654006D+00
     17 -0.806938D-01  0.316309D+00
     18 -0.336735D-01 -0.128370D+00  0.650160D+00
     19 -0.131780D+00 -0.646956D-02  0.497266D-01  0.676187D+00
     20 -0.533628D-02 -0.114474D+00  0.280798D-01 -0.212878D-02  0.659533D+00
     21  0.513153D-01  0.335938D-01 -0.322587D+00 -0.469581D-02 -0.735092D-02
     22 -0.336461D+00  0.945243D-02  0.688113D-01  0.759434D-02  0.339559D-04
     23 -0.140367D-02 -0.785749D-01  0.102820D-01 -0.348901D-02  0.908923D-02
     24  0.755751D-01  0.731193D-02 -0.126578D+00  0.260299D-01 -0.686447D-03
     25 -0.201915D+00  0.784242D-01 -0.896601D-01  0.170307D-01 -0.530041D-02
     26  0.881057D-01 -0.140616D+00  0.867080D-01  0.156254D-03  0.876116D-02
     27 -0.980363D-01  0.841361D-01 -0.200015D+00 -0.176928D-01  0.121915D-01
     28  0.528161D-02  0.748732D-02  0.248745D-02 -0.855462D-01 -0.307467D-01
     29  0.268536D-02  0.128508D-01  0.267007D-02 -0.330436D-01 -0.246368D+00
     30 -0.553293D-02 -0.211985D-01 -0.468105D-02 -0.263118D-01 -0.127064D+00
     31  0.969490D-02 -0.832710D-02  0.113631D-02 -0.155290D+00  0.101365D+00
     32 -0.177517D-02  0.396609D-02  0.171309D-03  0.104661D+00 -0.222911D+00
     33 -0.161010D-01  0.182359D-01 -0.120242D-02 -0.659364D-01  0.888696D-01
     34  0.325329D-02  0.140645D-03  0.837378D-03 -0.328693D+00 -0.591333D-01
     35 -0.165746D-02  0.191816D-02 -0.117418D-03 -0.600855D-01 -0.951048D-01
     36  0.260071D-01  0.544635D-02  0.736567D-02  0.400436D-01  0.992441D-02
               21            22            23            24            25 
     21  0.689287D+00
     22  0.190900D-02  0.335826D+00
     23  0.537785D-03 -0.855316D-02  0.583348D-01
     24  0.641842D-02 -0.768499D-01 -0.248135D-02  0.986634D-01
     25  0.344555D-02 -0.638593D-02  0.169203D-01 -0.231213D-01  0.190612D+00
     26  0.140059D-02 -0.989016D-03  0.107906D-01 -0.430131D-02 -0.895991D-01
     27 -0.254069D-02  0.592815D-02 -0.950774D-02  0.209172D-01  0.108724D+00
     28 -0.223889D-01  0.199236D-03  0.256550D-02  0.448603D-03 -0.107369D-02
     29 -0.115338D+00 -0.668346D-04 -0.860608D-03 -0.150486D-03  0.360174D-03
     30 -0.161638D+00  0.395581D-04  0.509377D-03  0.890696D-04 -0.213180D-03
     31 -0.574353D-01 -0.149365D-03 -0.192333D-02 -0.336313D-03  0.804936D-03
     32  0.798003D-01 -0.143157D-03 -0.184339D-02 -0.322335D-03  0.771480D-03
     33 -0.126420D+00 -0.596879D-04 -0.768581D-03 -0.134394D-03  0.321660D-03
     34  0.275318D-01 -0.476228D-04 -0.613224D-03 -0.107228D-03  0.256641D-03
     35  0.702701D-02  0.208988D-03  0.269107D-02  0.470561D-03 -0.112625D-02
     36 -0.816125D-01  0.205373D-04  0.264452D-03  0.462420D-04 -0.110676D-03
               26            27            28            29            30 
     26  0.122680D+00
     27 -0.860596D-01  0.180570D+00
     28 -0.230691D-02 -0.627624D-03  0.685614D-01
     29  0.773862D-03  0.210539D-03  0.367322D-01  0.245657D+00
     30 -0.458034D-03 -0.124614D-03  0.259061D-01  0.126338D+00  0.144351D+00
     31  0.172947D-02  0.470524D-03  0.797308D-02 -0.651334D-02  0.725153D-02
     32  0.165758D-02  0.450967D-03  0.147276D-01 -0.123982D-01  0.139367D-01
     33  0.691111D-03  0.188026D-03  0.159757D-01 -0.137132D-01  0.155080D-01
     34  0.551413D-03  0.150019D-03  0.437260D-02 -0.761282D-04 -0.118538D-02
     35 -0.241982D-02 -0.658345D-03 -0.283787D-01  0.318326D-03  0.795276D-02
     36 -0.237796D-03 -0.646955D-04 -0.218469D-01 -0.139203D-05  0.648624D-02
               31            32            33            34            35 
     31  0.145196D+00
     32 -0.113418D+00  0.215764D+00
     33  0.635587D-01 -0.857357D-01  0.107561D+00
     34 -0.805602D-02 -0.465741D-02  0.231060D-02  0.328970D+00
     35  0.270267D-01  0.157072D-01 -0.760315D-02  0.637688D-01  0.769741D-01
     36 -0.146113D-01 -0.826841D-02  0.451342D-02 -0.295263D-01 -0.711934D-02
               36 
     36  0.632609D-01
 Quadrupole    = 2.06904166D-01-8.50311949D-01 6.43407783D-01
                -4.40160175D-01-1.75099147D+00 2.51214964D+00
 -------------------------------------------------------------------
 Center     Atomic                   Forces (Hartrees/Bohr)
 Number     Number              X              Y              Z
 -------------------------------------------------------------------
      1        6           0.001002433    0.001665843   -0.001065748
      2        8          -0.000195199   -0.000924465    0.000894162
      3        1           0.000539620   -0.000627992   -0.000016714
      4        1          -0.001161295   -0.000513104   -0.000116993
      5        1          -0.000182317    0.000400987    0.000306059
      6        6          -0.001203043   -0.003875555   -0.003359653
      7        6           0.000413822    0.001738758    0.001772866
      8        1          -0.000144102    0.001593273    0.000602807
      9        1           0.001094302    0.001108476    0.000846366
     10        1          -0.000077340   -0.000169844    0.000261506
     11        1          -0.000202947   -0.000185998    0.000003141
     12        1           0.000116066   -0.000210378   -0.000127798
 -------------------------------------------------------------------
 Cartesian Forces:  Max     0.003875555 RMS     0.001173994
 From PutF, contents of force:
   1    0.1200220368D-02
   2    0.5014869736D-03
   3    0.7041549739D-03
   4    0.2971441587D-03
   5   -0.4074360578D-03
   6   -0.5139171058D-03
   7    0.3951827938D-03
   8   -0.1853585703D-02
   9   -0.1596935218D-02
  10    0.3485672249D-03
  11    0.7036549080D-03
  12    0.6775342630D-05
  13   -0.2805423443D-04
  14    0.7727428236D-04
  15    0.4751610139D-03
  16    0.7079591334D-04
  17   -0.6639030548D-03
  18   -0.1534723019D-03
  19    0.2009405359D-03
  20    0.2871451079D-02
  21   -0.5048728973D-03
  22    0.4636565097D-03
  23    0.5430895048D-05
  24    0.1204676269D-04
  25    0.3392383680D-04
  26   -0.6629972285D-03
  27   -0.9793054516D-04
  28    0.2145430929D-04
  29   -0.1493895182D-04
  30    0.2170854353D-05
 -----------------------------------------------------------------------------------------------
                       Internal Coordinate Forces (Hartree/Bohr or radian)
  Cent   Atom   N1       Length/X         N2         Alpha/Y        N3         Beta/Z          J
 -----------------------------------------------------------------------------------------------
      1  C 
      2  O        1   0.001200(     1)
      3  H        1   0.000501(     2)      2  -0.000407(    12)
      4  H        1   0.000704(     3)      2  -0.000514(    13)      3  -0.001854(    22)     0
      5  H        2   0.000297(     4)      1   0.000395(    14)      3  -0.000663(    23)     0
      6  C        1   0.000002(     5)      2  -0.000015(    15)      3   0.000021(    24)     0
      7  C        6  -0.001597(     6)      1   0.000005(    16)      2   0.000012(    25)     0
      8  H        6   0.000349(     7)      7   0.000475(    17)      1   0.000034(    26)     0
      9  H        6   0.000704(     8)      7   0.000071(    18)      8   0.002871(    27)     0
     10  H        7   0.000007(     9)      6  -0.000664(    19)      8  -0.000098(    28)     0
     11  H        7  -0.000028(    10)      6  -0.000153(    20)     10  -0.000505(    29)     0
     12  H        7   0.000077(    11)      6   0.000201(    21)     10   0.000464(    30)     0
 -----------------------------------------------------------------------------------------------
 Internal  Forces:  Max     0.002871451 RMS     0.000803609
 Force constants in Cartesian coordinates: 
                1             2             3             4             5 
      1  0.654629D+00
      2 -0.102200D+00  0.267661D+00
      3 -0.678541D-02 -0.690726D-01  0.848893D+00
      4 -0.108164D+00  0.548909D-02 -0.420872D-02  0.595303D+00
      5  0.257126D-02 -0.713570D-01 -0.107441D-01 -0.320885D-01  0.862346D-01
      6 -0.324130D-01  0.192745D-02 -0.536202D+00 -0.130157D+00  0.773982D-02
      7 -0.320270D+00  0.295825D-02  0.942409D-01  0.123462D-01  0.347347D-03
      8 -0.114307D-01 -0.665649D-01  0.128207D-01  0.437238D-03 -0.282232D-02
      9  0.959283D-01  0.679961D-02 -0.145390D+00  0.283782D-01  0.798385D-03
     10 -0.235934D+00  0.936802D-01 -0.836296D-01  0.123559D-01  0.973150D-03
     11  0.109097D+00 -0.133733D+00  0.660357D-01 -0.377312D-02  0.172328D-01
     12 -0.895980D-01  0.607040D-01 -0.163964D+00 -0.229885D-01  0.145256D-01
     13  0.117761D-01 -0.347893D-03  0.000000D+00 -0.512213D+00  0.286906D-01
     14  0.190223D-02  0.581257D-02  0.000000D+00  0.294957D-01 -0.314895D-01
     15  0.324130D-01 -0.192745D-02  0.000000D+00  0.130157D+00 -0.773982D-02
     16 -0.261402D-02  0.407793D-03  0.737588D-03  0.502339D-03 -0.527682D-03
     17 -0.396998D-04 -0.203771D-02  0.150081D-02  0.394870D-03  0.221279D-02
     18  0.694394D-03  0.184243D-02 -0.407702D-02 -0.115687D-02 -0.458601D-02
     19  0.541962D-03  0.379800D-03 -0.114608D-02  0.320363D-03 -0.823417D-04
     20  0.123098D-02  0.148170D-02 -0.396988D-02 -0.110910D-03  0.285066D-04
     21  0.327143D-03  0.325452D-03 -0.904184D-03  0.630729D-04 -0.162114D-04
     22 -0.590788D-03  0.635831D-04  0.194873D-03 -0.112724D-03  0.289729D-04
     23 -0.347410D-02  0.360528D-03  0.117546D-02  0.210302D-03 -0.540530D-04
     24 -0.169468D-02  0.183568D-03  0.556395D-03 -0.400343D-03  0.102899D-03
     25  0.622763D-03 -0.429997D-03  0.595960D-03 -0.339137D-03  0.871670D-04
     26  0.234451D-02 -0.162359D-02  0.225416D-02 -0.546852D-04  0.140555D-04
     27  0.112776D-02 -0.782307D-03  0.108723D-02  0.313185D-03 -0.804967D-04
     28  0.232041D-03 -0.803324D-04  0.456840D-04  0.000000D+00  0.000000D+00
     29 -0.778391D-04  0.269479D-04 -0.153249D-04  0.000000D+00  0.000000D+00
     30  0.460715D-04 -0.159499D-04  0.907052D-05  0.000000D+00  0.000000D+00
     31 -0.173959D-03  0.602244D-04 -0.342489D-04  0.000000D+00  0.000000D+00
     32 -0.166728D-03  0.577213D-04 -0.328254D-04  0.000000D+00  0.000000D+00
     33 -0.695156D-04  0.240663D-04 -0.136862D-04  0.000000D+00  0.000000D+00
     34 -0.554641D-04  0.192016D-04 -0.109197D-04  0.000000D+00  0.000000D+00
     35  0.243399D-03 -0.842645D-04  0.479202D-04  0.000000D+00  0.000000D+00
     36  0.239188D-04 -0.828067D-05  0.470911D-05  0.000000D+00  0.000000D+00
                6             7             8             9            10 
      6  0.643599D+00
      7  0.000000D+00  0.316593D+00
      8  0.000000D+00 -0.359954D-03  0.524693D-01
      9  0.000000D+00 -0.104380D+00 -0.827363D-03  0.122084D+00
     10  0.000000D+00 -0.798583D-02  0.142891D-01 -0.183556D-01  0.230966D+00
     11  0.000000D+00 -0.297379D-02  0.964463D-02 -0.683534D-02 -0.104740D+00
     12  0.000000D+00  0.981400D-02 -0.135311D-01  0.225577D-01  0.101486D+00
     13  0.162570D+00  0.000000D+00  0.422602D-03  0.000000D+00 -0.223937D-03
     14 -0.966726D-02  0.000000D+00  0.710671D-02  0.000000D+00 -0.376585D-02
     15 -0.107397D+00  0.000000D+00  0.000000D+00  0.000000D+00  0.000000D+00
     16  0.000000D+00 -0.738701D-03 -0.328631D-02 -0.169792D-02  0.726694D-03
     17  0.000000D+00  0.470175D-04  0.142153D-03  0.108071D-03 -0.404955D-03
     18  0.000000D+00  0.315384D-03  0.155103D-02  0.724917D-03  0.481694D-03
     19  0.000000D+00 -0.135174D-03  0.175471D-03 -0.310702D-03 -0.229822D-03
     20  0.000000D+00  0.467973D-04 -0.607479D-04  0.107565D-03  0.795643D-04
     21  0.000000D+00 -0.266131D-04  0.345466D-04 -0.611708D-04 -0.452472D-04
     22  0.000000D+00  0.475628D-04 -0.617416D-04  0.109324D-03  0.808657D-04
     23  0.000000D+00 -0.887350D-04  0.115188D-03 -0.203960D-03 -0.150866D-03
     24  0.000000D+00  0.168921D-03 -0.219278D-03  0.388270D-03  0.287198D-03
     25  0.000000D+00  0.143096D-03 -0.185754D-03  0.328909D-03  0.243290D-03
     26  0.000000D+00  0.230739D-04 -0.299524D-04  0.530360D-04  0.392301D-04
     27  0.000000D+00 -0.132146D-03  0.171539D-03 -0.303740D-03 -0.224673D-03
     28  0.000000D+00  0.000000D+00  0.000000D+00  0.000000D+00  0.000000D+00
     29  0.000000D+00  0.000000D+00  0.000000D+00  0.000000D+00  0.000000D+00
     30  0.000000D+00  0.000000D+00  0.000000D+00  0.000000D+00  0.000000D+00
     31  0.000000D+00  0.000000D+00  0.000000D+00  0.000000D+00  0.000000D+00
     32  0.000000D+00  0.000000D+00  0.000000D+00  0.000000D+00  0.000000D+00
     33  0.000000D+00  0.000000D+00  0.000000D+00  0.000000D+00  0.000000D+00
     34  0.000000D+00  0.000000D+00  0.000000D+00  0.000000D+00  0.000000D+00
     35  0.000000D+00  0.000000D+00  0.000000D+00  0.000000D+00  0.000000D+00
     36  0.000000D+00  0.000000D+00  0.000000D+00  0.000000D+00  0.000000D+00
               11            12            13            14            15 
     11  0.114740D+00
     12 -0.609750D-01  0.140539D+00
     13 -0.378705D-03  0.000000D+00  0.500617D+00
     14 -0.636851D-02  0.000000D+00 -0.283753D-01  0.251297D-01
     15  0.000000D+00  0.000000D+00 -0.162570D+00  0.966726D-02  0.107397D+00
     16  0.273834D-02  0.140661D-02  0.441932D-04  0.743178D-03  0.000000D+00
     17 -0.150509D-02 -0.764395D-03 -0.113588D-04 -0.191016D-03  0.000000D+00
     18  0.176905D-02  0.889441D-03  0.000000D+00  0.000000D+00  0.000000D+00
     19 -0.738190D-04  0.293396D-03  0.000000D+00  0.000000D+00  0.000000D+00
     20  0.255561D-04 -0.101574D-03  0.000000D+00  0.000000D+00  0.000000D+00
     21 -0.145334D-04  0.577637D-04  0.000000D+00  0.000000D+00  0.000000D+00
     22  0.259741D-04 -0.103235D-03  0.000000D+00  0.000000D+00  0.000000D+00
     23 -0.484583D-04  0.192600D-03  0.000000D+00  0.000000D+00  0.000000D+00
     24  0.922481D-04 -0.366644D-03  0.000000D+00  0.000000D+00  0.000000D+00
     25  0.781448D-04 -0.310590D-03  0.000000D+00  0.000000D+00  0.000000D+00
     26  0.126007D-04 -0.500820D-04  0.000000D+00  0.000000D+00  0.000000D+00
     27 -0.721650D-04  0.286823D-03  0.000000D+00  0.000000D+00  0.000000D+00
     28  0.000000D+00  0.000000D+00  0.000000D+00  0.000000D+00  0.000000D+00
     29  0.000000D+00  0.000000D+00  0.000000D+00  0.000000D+00  0.000000D+00
     30  0.000000D+00  0.000000D+00  0.000000D+00  0.000000D+00  0.000000D+00
     31  0.000000D+00  0.000000D+00  0.000000D+00  0.000000D+00  0.000000D+00
     32  0.000000D+00  0.000000D+00  0.000000D+00  0.000000D+00  0.000000D+00
     33  0.000000D+00  0.000000D+00  0.000000D+00  0.000000D+00  0.000000D+00
     34  0.000000D+00  0.000000D+00  0.000000D+00  0.000000D+00  0.000000D+00
     35  0.000000D+00  0.000000D+00  0.000000D+00  0.000000D+00  0.000000D+00
     36  0.000000D+00  0.000000D+00  0.000000D+00  0.000000D+00  0.000000D+00
               16            17            18            19            20 
     16  0.654006D+00
     17 -0.806938D-01  0.316309D+00
     18 -0.336735D-01 -0.128370D+00  0.650160D+00
     19 -0.131780D+00 -0.646956D-02  0.497266D-01  0.676187D+00
     20 -0.533628D-02 -0.114474D+00  0.280798D-01 -0.212878D-02  0.659533D+00
     21  0.513153D-01  0.335938D-01 -0.322587D+00 -0.469581D-02 -0.735092D-02
     22 -0.336461D+00  0.945243D-02  0.688113D-01  0.759434D-02  0.339559D-04
     23 -0.140367D-02 -0.785749D-01  0.102820D-01 -0.348901D-02  0.908923D-02
     24  0.755751D-01  0.731193D-02 -0.126578D+00  0.260299D-01 -0.686447D-03
     25 -0.201915D+00  0.784242D-01 -0.896601D-01  0.170307D-01 -0.530041D-02
     26  0.881057D-01 -0.140616D+00  0.867080D-01  0.156254D-03  0.876116D-02
     27 -0.980363D-01  0.841361D-01 -0.200015D+00 -0.176928D-01  0.121915D-01
     28  0.528161D-02  0.748732D-02  0.248745D-02 -0.855462D-01 -0.307467D-01
     29  0.268536D-02  0.128508D-01  0.267007D-02 -0.330436D-01 -0.246368D+00
     30 -0.553293D-02 -0.211985D-01 -0.468105D-02 -0.263118D-01 -0.127064D+00
     31  0.969490D-02 -0.832710D-02  0.113631D-02 -0.155290D+00  0.101365D+00
     32 -0.177517D-02  0.396609D-02  0.171309D-03  0.104661D+00 -0.222911D+00
     33 -0.161010D-01  0.182359D-01 -0.120242D-02 -0.659364D-01  0.888696D-01
     34  0.325329D-02  0.140645D-03  0.837378D-03 -0.328693D+00 -0.591333D-01
     35 -0.165746D-02  0.191816D-02 -0.117418D-03 -0.600855D-01 -0.951048D-01
     36  0.260071D-01  0.544635D-02  0.736567D-02  0.400436D-01  0.992441D-02
               21            22            23            24            25 
     21  0.689287D+00
     22  0.190900D-02  0.335826D+00
     23  0.537785D-03 -0.855316D-02  0.583348D-01
     24  0.641842D-02 -0.768499D-01 -0.248135D-02  0.986634D-01
     25  0.344555D-02 -0.638593D-02  0.169203D-01 -0.231213D-01  0.190612D+00
     26  0.140059D-02 -0.989016D-03  0.107906D-01 -0.430131D-02 -0.895991D-01
     27 -0.254069D-02  0.592815D-02 -0.950774D-02  0.209172D-01  0.108724D+00
     28 -0.223889D-01  0.199236D-03  0.256550D-02  0.448603D-03 -0.107369D-02
     29 -0.115338D+00 -0.668346D-04 -0.860608D-03 -0.150486D-03  0.360174D-03
     30 -0.161638D+00  0.395581D-04  0.509377D-03  0.890696D-04 -0.213180D-03
     31 -0.574353D-01 -0.149365D-03 -0.192333D-02 -0.336313D-03  0.804936D-03
     32  0.798003D-01 -0.143157D-03 -0.184339D-02 -0.322335D-03  0.771480D-03
     33 -0.126420D+00 -0.596879D-04 -0.768581D-03 -0.134394D-03  0.321660D-03
     34  0.275318D-01 -0.476228D-04 -0.613224D-03 -0.107228D-03  0.256641D-03
     35  0.702701D-02  0.208988D-03  0.269107D-02  0.470561D-03 -0.112625D-02
     36 -0.816125D-01  0.205373D-04  0.264452D-03  0.462420D-04 -0.110676D-03
               26            27            28            29            30 
     26  0.122680D+00
     27 -0.860596D-01  0.180570D+00
     28 -0.230691D-02 -0.627624D-03  0.685614D-01
     29  0.773862D-03  0.210539D-03  0.367322D-01  0.245657D+00
     30 -0.458034D-03 -0.124614D-03  0.259061D-01  0.126338D+00  0.144351D+00
     31  0.172947D-02  0.470524D-03  0.797308D-02 -0.651334D-02  0.725153D-02
     32  0.165758D-02  0.450967D-03  0.147276D-01 -0.123982D-01  0.139367D-01
     33  0.691111D-03  0.188026D-03  0.159757D-01 -0.137132D-01  0.155080D-01
     34  0.551413D-03  0.150019D-03  0.437260D-02 -0.761282D-04 -0.118538D-02
     35 -0.241982D-02 -0.658345D-03 -0.283787D-01  0.318326D-03  0.795276D-02
     36 -0.237796D-03 -0.646955D-04 -0.218469D-01 -0.139203D-05  0.648624D-02
               31            32            33            34            35 
     31  0.145196D+00
     32 -0.113418D+00  0.215764D+00
     33  0.635587D-01 -0.857357D-01  0.107561D+00
     34 -0.805602D-02 -0.465741D-02  0.231060D-02  0.328970D+00
     35  0.270267D-01  0.157072D-01 -0.760315D-02  0.637688D-01  0.769741D-01
     36 -0.146113D-01 -0.826841D-02  0.451342D-02 -0.295263D-01 -0.711934D-02
               36 
     36  0.632609D-01
 FCInt: Cartesian first derivatives: 
                 1             2             3             4             5 
      1   0.000000D+00  0.000000D+00  0.000000D+00  0.000000D+00  0.000000D+00
      2   0.000000D+00  0.000000D+00  0.000000D+00  0.000000D+00  0.000000D+00
      3   0.000000D+00  0.000000D+00  0.000000D+00  0.000000D+00  0.000000D+00
                 6             7             8             9            10 
      1   0.000000D+00  0.000000D+00  0.000000D+00  0.000000D+00  0.000000D+00
      2   0.000000D+00  0.000000D+00  0.000000D+00  0.000000D+00  0.000000D+00
      3   0.000000D+00  0.000000D+00  0.000000D+00  0.000000D+00  0.000000D+00
                11            12 
      1   0.000000D+00  0.000000D+00
      2   0.000000D+00  0.000000D+00
      3   0.000000D+00  0.000000D+00
 FCInt: Cartesian force constants: 
                1             2             3             4             5 
      1  0.654629D+00
      2 -0.102200D+00  0.267661D+00
      3 -0.678541D-02 -0.690726D-01  0.848893D+00
      4 -0.108164D+00  0.548909D-02 -0.420872D-02  0.595303D+00
      5  0.257126D-02 -0.713570D-01 -0.107441D-01 -0.320885D-01  0.862346D-01
      6 -0.324130D-01  0.192745D-02 -0.536202D+00 -0.130157D+00  0.773982D-02
      7 -0.320270D+00  0.295825D-02  0.942409D-01  0.123462D-01  0.347347D-03
      8 -0.114307D-01 -0.665649D-01  0.128207D-01  0.437238D-03 -0.282232D-02
      9  0.959283D-01  0.679961D-02 -0.145390D+00  0.283782D-01  0.798385D-03
     10 -0.235934D+00  0.936802D-01 -0.836296D-01  0.123559D-01  0.973150D-03
     11  0.109097D+00 -0.133733D+00  0.660357D-01 -0.377312D-02  0.172328D-01
     12 -0.895980D-01  0.607040D-01 -0.163964D+00 -0.229885D-01  0.145256D-01
     13  0.117761D-01 -0.347893D-03  0.000000D+00 -0.512213D+00  0.286906D-01
     14  0.190223D-02  0.581257D-02  0.000000D+00  0.294957D-01 -0.314895D-01
     15  0.324130D-01 -0.192745D-02  0.000000D+00  0.130157D+00 -0.773982D-02
     16 -0.261402D-02  0.407793D-03  0.737588D-03  0.502339D-03 -0.527682D-03
     17 -0.396998D-04 -0.203771D-02  0.150081D-02  0.394870D-03  0.221279D-02
     18  0.694394D-03  0.184243D-02 -0.407702D-02 -0.115687D-02 -0.458601D-02
     19  0.541962D-03  0.379800D-03 -0.114608D-02  0.320363D-03 -0.823417D-04
     20  0.123098D-02  0.148170D-02 -0.396988D-02 -0.110910D-03  0.285066D-04
     21  0.327143D-03  0.325452D-03 -0.904184D-03  0.630729D-04 -0.162114D-04
     22 -0.590788D-03  0.635831D-04  0.194873D-03 -0.112724D-03  0.289729D-04
     23 -0.347410D-02  0.360528D-03  0.117546D-02  0.210302D-03 -0.540530D-04
     24 -0.169468D-02  0.183568D-03  0.556395D-03 -0.400343D-03  0.102899D-03
     25  0.622763D-03 -0.429997D-03  0.595960D-03 -0.339137D-03  0.871670D-04
     26  0.234451D-02 -0.162359D-02  0.225416D-02 -0.546852D-04  0.140555D-04
     27  0.112776D-02 -0.782307D-03  0.108723D-02  0.313185D-03 -0.804967D-04
     28  0.232041D-03 -0.803324D-04  0.456840D-04  0.000000D+00  0.000000D+00
     29 -0.778391D-04  0.269479D-04 -0.153249D-04  0.000000D+00  0.000000D+00
     30  0.460715D-04 -0.159499D-04  0.907052D-05  0.000000D+00  0.000000D+00
     31 -0.173959D-03  0.602244D-04 -0.342489D-04  0.000000D+00  0.000000D+00
     32 -0.166728D-03  0.577213D-04 -0.328254D-04  0.000000D+00  0.000000D+00
     33 -0.695156D-04  0.240663D-04 -0.136862D-04  0.000000D+00  0.000000D+00
     34 -0.554641D-04  0.192016D-04 -0.109197D-04  0.000000D+00  0.000000D+00
     35  0.243399D-03 -0.842645D-04  0.479202D-04  0.000000D+00  0.000000D+00
     36  0.239188D-04 -0.828067D-05  0.470911D-05  0.000000D+00  0.000000D+00
                6             7             8             9            10 
      6  0.643599D+00
      7  0.000000D+00  0.316593D+00
      8  0.000000D+00 -0.359954D-03  0.524693D-01
      9  0.000000D+00 -0.104380D+00 -0.827363D-03  0.122084D+00
     10  0.000000D+00 -0.798583D-02  0.142891D-01 -0.183556D-01  0.230966D+00
     11  0.000000D+00 -0.297379D-02  0.964463D-02 -0.683534D-02 -0.104740D+00
     12  0.000000D+00  0.981400D-02 -0.135311D-01  0.225577D-01  0.101486D+00
     13  0.162570D+00  0.000000D+00  0.422602D-03  0.000000D+00 -0.223937D-03
     14 -0.966726D-02  0.000000D+00  0.710671D-02  0.000000D+00 -0.376585D-02
     15 -0.107397D+00  0.000000D+00  0.000000D+00  0.000000D+00  0.000000D+00
     16  0.000000D+00 -0.738701D-03 -0.328631D-02 -0.169792D-02  0.726694D-03
     17  0.000000D+00  0.470175D-04  0.142153D-03  0.108071D-03 -0.404955D-03
     18  0.000000D+00  0.315384D-03  0.155103D-02  0.724917D-03  0.481694D-03
     19  0.000000D+00 -0.135174D-03  0.175471D-03 -0.310702D-03 -0.229822D-03
     20  0.000000D+00  0.467973D-04 -0.607479D-04  0.107565D-03  0.795643D-04
     21  0.000000D+00 -0.266131D-04  0.345466D-04 -0.611708D-04 -0.452472D-04
     22  0.000000D+00  0.475628D-04 -0.617416D-04  0.109324D-03  0.808657D-04
     23  0.000000D+00 -0.887350D-04  0.115188D-03 -0.203960D-03 -0.150866D-03
     24  0.000000D+00  0.168921D-03 -0.219278D-03  0.388270D-03  0.287198D-03
     25  0.000000D+00  0.143096D-03 -0.185754D-03  0.328909D-03  0.243290D-03
     26  0.000000D+00  0.230739D-04 -0.299524D-04  0.530360D-04  0.392301D-04
     27  0.000000D+00 -0.132146D-03  0.171539D-03 -0.303740D-03 -0.224673D-03
     28  0.000000D+00  0.000000D+00  0.000000D+00  0.000000D+00  0.000000D+00
     29  0.000000D+00  0.000000D+00  0.000000D+00  0.000000D+00  0.000000D+00
     30  0.000000D+00  0.000000D+00  0.000000D+00  0.000000D+00  0.000000D+00
     31  0.000000D+00  0.000000D+00  0.000000D+00  0.000000D+00  0.000000D+00
     32  0.000000D+00  0.000000D+00  0.000000D+00  0.000000D+00  0.000000D+00
     33  0.000000D+00  0.000000D+00  0.000000D+00  0.000000D+00  0.000000D+00
     34  0.000000D+00  0.000000D+00  0.000000D+00  0.000000D+00  0.000000D+00
     35  0.000000D+00  0.000000D+00  0.000000D+00  0.000000D+00  0.000000D+00
     36  0.000000D+00  0.000000D+00  0.000000D+00  0.000000D+00  0.000000D+00
               11            12            13            14            15 
     11  0.114740D+00
     12 -0.609750D-01  0.140539D+00
     13 -0.378705D-03  0.000000D+00  0.500617D+00
     14 -0.636851D-02  0.000000D+00 -0.283753D-01  0.251297D-01
     15  0.000000D+00  0.000000D+00 -0.162570D+00  0.966726D-02  0.107397D+00
     16  0.273834D-02  0.140661D-02  0.441932D-04  0.743178D-03  0.000000D+00
     17 -0.150509D-02 -0.764395D-03 -0.113588D-04 -0.191016D-03  0.000000D+00
     18  0.176905D-02  0.889441D-03  0.000000D+00  0.000000D+00  0.000000D+00
     19 -0.738190D-04  0.293396D-03  0.000000D+00  0.000000D+00  0.000000D+00
     20  0.255561D-04 -0.101574D-03  0.000000D+00  0.000000D+00  0.000000D+00
     21 -0.145334D-04  0.577637D-04  0.000000D+00  0.000000D+00  0.000000D+00
     22  0.259741D-04 -0.103235D-03  0.000000D+00  0.000000D+00  0.000000D+00
     23 -0.484583D-04  0.192600D-03  0.000000D+00  0.000000D+00  0.000000D+00
     24  0.922481D-04 -0.366644D-03  0.000000D+00  0.000000D+00  0.000000D+00
     25  0.781448D-04 -0.310590D-03  0.000000D+00  0.000000D+00  0.000000D+00
     26  0.126007D-04 -0.500820D-04  0.000000D+00  0.000000D+00  0.000000D+00
     27 -0.721650D-04  0.286823D-03  0.000000D+00  0.000000D+00  0.000000D+00
     28  0.000000D+00  0.000000D+00  0.000000D+00  0.000000D+00  0.000000D+00
     29  0.000000D+00  0.000000D+00  0.000000D+00  0.000000D+00  0.000000D+00
     30  0.000000D+00  0.000000D+00  0.000000D+00  0.000000D+00  0.000000D+00
     31  0.000000D+00  0.000000D+00  0.000000D+00  0.000000D+00  0.000000D+00
     32  0.000000D+00  0.000000D+00  0.000000D+00  0.000000D+00  0.000000D+00
     33  0.000000D+00  0.000000D+00  0.000000D+00  0.000000D+00  0.000000D+00
     34  0.000000D+00  0.000000D+00  0.000000D+00  0.000000D+00  0.000000D+00
     35  0.000000D+00  0.000000D+00  0.000000D+00  0.000000D+00  0.000000D+00
     36  0.000000D+00  0.000000D+00  0.000000D+00  0.000000D+00  0.000000D+00
               16            17            18            19            20 
     16  0.654006D+00
     17 -0.806938D-01  0.316309D+00
     18 -0.336735D-01 -0.128370D+00  0.650160D+00
     19 -0.131780D+00 -0.646956D-02  0.497266D-01  0.676187D+00
     20 -0.533628D-02 -0.114474D+00  0.280798D-01 -0.212878D-02  0.659533D+00
     21  0.513153D-01  0.335938D-01 -0.322587D+00 -0.469581D-02 -0.735092D-02
     22 -0.336461D+00  0.945243D-02  0.688113D-01  0.759434D-02  0.339559D-04
     23 -0.140367D-02 -0.785749D-01  0.102820D-01 -0.348901D-02  0.908923D-02
     24  0.755751D-01  0.731193D-02 -0.126578D+00  0.260299D-01 -0.686447D-03
     25 -0.201915D+00  0.784242D-01 -0.896601D-01  0.170307D-01 -0.530041D-02
     26  0.881057D-01 -0.140616D+00  0.867080D-01  0.156254D-03  0.876116D-02
     27 -0.980363D-01  0.841361D-01 -0.200015D+00 -0.176928D-01  0.121915D-01
     28  0.528161D-02  0.748732D-02  0.248745D-02 -0.855462D-01 -0.307467D-01
     29  0.268536D-02  0.128508D-01  0.267007D-02 -0.330436D-01 -0.246368D+00
     30 -0.553293D-02 -0.211985D-01 -0.468105D-02 -0.263118D-01 -0.127064D+00
     31  0.969490D-02 -0.832710D-02  0.113631D-02 -0.155290D+00  0.101365D+00
     32 -0.177517D-02  0.396609D-02  0.171309D-03  0.104661D+00 -0.222911D+00
     33 -0.161010D-01  0.182359D-01 -0.120242D-02 -0.659364D-01  0.888696D-01
     34  0.325329D-02  0.140645D-03  0.837378D-03 -0.328693D+00 -0.591333D-01
     35 -0.165746D-02  0.191816D-02 -0.117418D-03 -0.600855D-01 -0.951048D-01
     36  0.260071D-01  0.544635D-02  0.736567D-02  0.400436D-01  0.992441D-02
               21            22            23            24            25 
     21  0.689287D+00
     22  0.190900D-02  0.335826D+00
     23  0.537785D-03 -0.855316D-02  0.583348D-01
     24  0.641842D-02 -0.768499D-01 -0.248135D-02  0.986634D-01
     25  0.344555D-02 -0.638593D-02  0.169203D-01 -0.231213D-01  0.190612D+00
     26  0.140059D-02 -0.989016D-03  0.107906D-01 -0.430131D-02 -0.895991D-01
     27 -0.254069D-02  0.592815D-02 -0.950774D-02  0.209172D-01  0.108724D+00
     28 -0.223889D-01  0.199236D-03  0.256550D-02  0.448603D-03 -0.107369D-02
     29 -0.115338D+00 -0.668346D-04 -0.860608D-03 -0.150486D-03  0.360174D-03
     30 -0.161638D+00  0.395581D-04  0.509377D-03  0.890696D-04 -0.213180D-03
     31 -0.574353D-01 -0.149365D-03 -0.192333D-02 -0.336313D-03  0.804936D-03
     32  0.798003D-01 -0.143157D-03 -0.184339D-02 -0.322335D-03  0.771480D-03
     33 -0.126420D+00 -0.596879D-04 -0.768581D-03 -0.134394D-03  0.321660D-03
     34  0.275318D-01 -0.476228D-04 -0.613224D-03 -0.107228D-03  0.256641D-03
     35  0.702701D-02  0.208988D-03  0.269107D-02  0.470561D-03 -0.112625D-02
     36 -0.816125D-01  0.205373D-04  0.264452D-03  0.462420D-04 -0.110676D-03
               26            27            28            29            30 
     26  0.122680D+00
     27 -0.860596D-01  0.180570D+00
     28 -0.230691D-02 -0.627624D-03  0.685614D-01
     29  0.773862D-03  0.210539D-03  0.367322D-01  0.245657D+00
     30 -0.458034D-03 -0.124614D-03  0.259061D-01  0.126338D+00  0.144351D+00
     31  0.172947D-02  0.470524D-03  0.797308D-02 -0.651334D-02  0.725153D-02
     32  0.165758D-02  0.450967D-03  0.147276D-01 -0.123982D-01  0.139367D-01
     33  0.691111D-03  0.188026D-03  0.159757D-01 -0.137132D-01  0.155080D-01
     34  0.551413D-03  0.150019D-03  0.437260D-02 -0.761282D-04 -0.118538D-02
     35 -0.241982D-02 -0.658345D-03 -0.283787D-01  0.318326D-03  0.795276D-02
     36 -0.237796D-03 -0.646955D-04 -0.218469D-01 -0.139203D-05  0.648624D-02
               31            32            33            34            35 
     31  0.145196D+00
     32 -0.113418D+00  0.215764D+00
     33  0.635587D-01 -0.857357D-01  0.107561D+00
     34 -0.805602D-02 -0.465741D-02  0.231060D-02  0.328970D+00
     35  0.270267D-01  0.157072D-01 -0.760315D-02  0.637688D-01  0.769741D-01
     36 -0.146113D-01 -0.826841D-02  0.451342D-02 -0.295263D-01 -0.711934D-02
               36 
     36  0.632609D-01
 Internal force constants: 
                1             2             3             4             5 
      1  0.536202D+00
      2  0.000000D+00  0.362005D+00
      3  0.000000D+00  0.000000D+00  0.357298D+00
      4  0.000000D+00  0.000000D+00  0.000000D+00  0.560800D+00
      5  0.000000D+00  0.000000D+00  0.000000D+00  0.000000D+00  0.100000D-02
      6  0.000000D+00  0.000000D+00  0.000000D+00  0.000000D+00  0.000000D+00
      7  0.000000D+00  0.000000D+00  0.000000D+00  0.000000D+00  0.000000D+00
      8  0.000000D+00  0.000000D+00  0.000000D+00  0.000000D+00  0.000000D+00
      9  0.000000D+00  0.000000D+00  0.000000D+00  0.000000D+00  0.000000D+00
     10  0.000000D+00  0.000000D+00  0.000000D+00  0.000000D+00  0.000000D+00
     11  0.000000D+00  0.000000D+00  0.000000D+00  0.000000D+00  0.000000D+00
     12  0.000000D+00  0.000000D+00  0.000000D+00  0.000000D+00  0.000000D+00
     13  0.000000D+00  0.000000D+00  0.000000D+00  0.000000D+00  0.000000D+00
     14  0.000000D+00  0.000000D+00  0.000000D+00  0.000000D+00  0.000000D+00
     15  0.000000D+00  0.000000D+00  0.000000D+00  0.000000D+00  0.000000D+00
     16  0.000000D+00  0.000000D+00  0.000000D+00  0.000000D+00  0.000000D+00
     17  0.000000D+00  0.000000D+00  0.000000D+00  0.000000D+00  0.000000D+00
     18  0.000000D+00  0.000000D+00  0.000000D+00  0.000000D+00  0.000000D+00
     19  0.000000D+00  0.000000D+00  0.000000D+00  0.000000D+00  0.000000D+00
     20  0.000000D+00  0.000000D+00  0.000000D+00  0.000000D+00  0.000000D+00
     21  0.000000D+00  0.000000D+00  0.000000D+00  0.000000D+00  0.000000D+00
     22  0.000000D+00  0.000000D+00  0.000000D+00  0.000000D+00  0.000000D+00
     23  0.000000D+00  0.000000D+00  0.000000D+00  0.000000D+00  0.000000D+00
     24  0.000000D+00  0.000000D+00  0.000000D+00  0.000000D+00  0.000000D+00
     25  0.000000D+00  0.000000D+00  0.000000D+00  0.000000D+00  0.000000D+00
     26  0.000000D+00  0.000000D+00  0.000000D+00  0.000000D+00  0.000000D+00
     27  0.000000D+00  0.000000D+00  0.000000D+00  0.000000D+00  0.000000D+00
     28  0.000000D+00  0.000000D+00  0.000000D+00  0.000000D+00  0.000000D+00
     29  0.000000D+00  0.000000D+00  0.000000D+00  0.000000D+00  0.000000D+00
     30  0.000000D+00  0.000000D+00  0.000000D+00  0.000000D+00  0.000000D+00
                6             7             8             9            10 
      6  0.339475D+00
      7  0.000000D+00  0.358738D+00
      8  0.000000D+00  0.000000D+00  0.359581D+00
      9  0.000000D+00  0.000000D+00  0.000000D+00  0.338597D+00
     10  0.000000D+00  0.000000D+00  0.000000D+00  0.000000D+00  0.346858D+00
     11  0.000000D+00  0.000000D+00  0.000000D+00  0.000000D+00  0.000000D+00
     12  0.000000D+00  0.000000D+00  0.000000D+00  0.000000D+00  0.000000D+00
     13  0.000000D+00  0.000000D+00  0.000000D+00  0.000000D+00  0.000000D+00
     14  0.000000D+00  0.000000D+00  0.000000D+00  0.000000D+00  0.000000D+00
     15  0.000000D+00  0.000000D+00  0.000000D+00  0.000000D+00  0.000000D+00
     16  0.000000D+00  0.000000D+00  0.000000D+00  0.000000D+00  0.000000D+00
     17  0.000000D+00  0.000000D+00  0.000000D+00  0.000000D+00  0.000000D+00
     18  0.000000D+00  0.000000D+00  0.000000D+00  0.000000D+00  0.000000D+00
     19  0.000000D+00  0.000000D+00  0.000000D+00  0.000000D+00  0.000000D+00
     20  0.000000D+00  0.000000D+00  0.000000D+00  0.000000D+00  0.000000D+00
     21  0.000000D+00  0.000000D+00  0.000000D+00  0.000000D+00  0.000000D+00
     22  0.000000D+00  0.000000D+00  0.000000D+00  0.000000D+00  0.000000D+00
     23  0.000000D+00  0.000000D+00  0.000000D+00  0.000000D+00  0.000000D+00
     24  0.000000D+00  0.000000D+00  0.000000D+00  0.000000D+00  0.000000D+00
     25  0.000000D+00  0.000000D+00  0.000000D+00  0.000000D+00  0.000000D+00
     26  0.000000D+00  0.000000D+00  0.000000D+00  0.000000D+00  0.000000D+00
     27  0.000000D+00  0.000000D+00  0.000000D+00  0.000000D+00  0.000000D+00
     28  0.000000D+00  0.000000D+00  0.000000D+00  0.000000D+00  0.000000D+00
     29  0.000000D+00  0.000000D+00  0.000000D+00  0.000000D+00  0.000000D+00
     30  0.000000D+00  0.000000D+00  0.000000D+00  0.000000D+00  0.000000D+00
               11            12            13            14            15 
     11  0.347434D+00
     12  0.000000D+00  0.318357D+00
     13  0.000000D+00  0.116808D+00  0.317325D+00
     14  0.000000D+00  0.000000D+00  0.000000D+00  0.160000D+00
     15  0.000000D+00  0.343593D-01  0.416628D-01  0.000000D+00  0.330487D+00
     16  0.000000D+00 -0.108993D-03  0.107927D-03  0.000000D+00  0.151157D-04
     17  0.000000D+00 -0.197142D-02  0.195213D-02  0.000000D+00  0.260702D-04
     18  0.000000D+00  0.198490D-02 -0.196547D-02  0.000000D+00  0.122162D-04
     19  0.000000D+00  0.000000D+00  0.000000D+00  0.000000D+00  0.267720D-04
     20  0.000000D+00  0.000000D+00  0.000000D+00  0.000000D+00  0.958623D-05
     21  0.000000D+00  0.000000D+00  0.000000D+00  0.000000D+00  0.997316D-05
     22  0.000000D+00  0.607291D-01  0.346959D-02  0.000000D+00 -0.660022D-01
     23  0.000000D+00  0.000000D+00  0.000000D+00  0.000000D+00  0.000000D+00
     24  0.000000D+00 -0.569365D-01  0.553444D-01  0.000000D+00  0.663917D-02
     25  0.000000D+00  0.613443D-02 -0.607440D-02  0.000000D+00  0.114423D-03
     26  0.000000D+00 -0.919513D-03  0.910514D-03  0.000000D+00  0.217866D-04
     27  0.000000D+00 -0.426354D-03  0.422181D-03  0.000000D+00 -0.841529D-03
     28  0.000000D+00  0.000000D+00  0.000000D+00  0.000000D+00  0.000000D+00
     29  0.000000D+00  0.000000D+00  0.000000D+00  0.000000D+00  0.313382D-04
     30  0.000000D+00  0.000000D+00  0.000000D+00  0.000000D+00 -0.321017D-04
               16            17            18            19            20 
     16  0.337232D+00
     17  0.240769D-01  0.321653D+00
     18  0.202647D-01  0.142544D+00  0.318612D+00
     19 -0.274790D-04  0.000000D+00  0.000000D+00  0.252431D+00
     20 -0.105265D-04  0.000000D+00  0.000000D+00  0.463907D-01  0.254803D+00
     21 -0.939861D-05  0.000000D+00  0.000000D+00  0.464660D-01  0.489284D-01
     22  0.511462D-04  0.925110D-03 -0.931433D-03  0.000000D+00  0.000000D+00
     23  0.000000D+00  0.000000D+00  0.000000D+00  0.000000D+00  0.000000D+00
     24 -0.948263D-04 -0.165826D-02  0.170550D-02 -0.515332D-05  0.150859D-05
     25 -0.366521D-03 -0.665224D-02  0.671494D-02  0.139786D-05  0.166913D-04
     26 -0.756746D-03 -0.352255D-01  0.308689D-01  0.000000D+00  0.000000D+00
     27  0.701734D-01 -0.396144D-01 -0.868763D-02  0.000000D+00  0.000000D+00
     28  0.000000D+00  0.000000D+00  0.000000D+00  0.000000D+00  0.000000D+00
     29 -0.336984D-04  0.000000D+00  0.000000D+00 -0.665520D-01  0.939837D-03
     30  0.316997D-04  0.000000D+00  0.000000D+00  0.665566D-01 -0.674422D-01
               21            22            23            24            25 
     21  0.255035D+00
     22  0.000000D+00  0.170962D+00
     23  0.000000D+00  0.226456D-01  0.679367D-01
     24 -0.414178D-05 -0.970859D-01  0.226456D-01  0.227961D+00
     25 -0.145740D-04 -0.287865D-02  0.000000D+00  0.578257D-02  0.207020D-01
     26  0.000000D+00  0.431491D-03  0.000000D+00 -0.745640D-03 -0.310846D-02
     27  0.000000D+00  0.200071D-03  0.000000D+00 -0.115839D-03 -0.140259D-02
     28  0.000000D+00  0.000000D+00  0.000000D+00  0.000000D+00  0.000000D+00
     29  0.675180D-01  0.000000D+00  0.000000D+00 -0.201932D-05  0.291176D-04
     30 -0.930347D-03  0.000000D+00  0.000000D+00  0.123399D-04  0.279236D-04
               26            27            28            29            30 
     26  0.253206D+00
     27  0.112925D+00  0.180195D+00
     28 -0.287326D-01  0.287326D-01  0.861979D-01
     29 -0.957507D-02  0.957755D-02  0.287302D-01  0.226509D+00
     30 -0.957798D-02  0.957755D-02  0.287331D-01 -0.979472D-01  0.226505D+00
 Frcnst in PutFF: 
                1             2             3             4             5 
      1  0.536202D+00
      2  0.000000D+00  0.362005D+00
      3  0.000000D+00  0.000000D+00  0.357298D+00
      4  0.000000D+00  0.000000D+00  0.000000D+00  0.560800D+00
      5  0.000000D+00  0.000000D+00  0.000000D+00  0.000000D+00  0.318357D+00
      6  0.000000D+00  0.000000D+00  0.000000D+00  0.000000D+00  0.116808D+00
      7  0.000000D+00  0.000000D+00  0.000000D+00  0.000000D+00  0.000000D+00
      8  0.000000D+00  0.000000D+00  0.000000D+00  0.000000D+00  0.607291D-01
      9  0.000000D+00  0.000000D+00  0.000000D+00  0.000000D+00  0.000000D+00
     10  0.000000D+00  0.000000D+00  0.000000D+00  0.000000D+00  0.000000D+00
     11  0.000000D+00  0.000000D+00  0.000000D+00  0.000000D+00  0.000000D+00
     12  0.000000D+00  0.000000D+00  0.000000D+00  0.000000D+00  0.000000D+00
     13  0.000000D+00  0.000000D+00  0.000000D+00  0.000000D+00  0.000000D+00
     14  0.000000D+00  0.000000D+00  0.000000D+00  0.000000D+00  0.000000D+00
     15  0.000000D+00  0.000000D+00  0.000000D+00  0.000000D+00 -0.197142D-02
     16  0.000000D+00  0.000000D+00  0.000000D+00  0.000000D+00  0.198490D-02
     17  0.000000D+00  0.000000D+00  0.000000D+00  0.000000D+00  0.000000D+00
     18  0.000000D+00  0.000000D+00  0.000000D+00  0.000000D+00  0.000000D+00
     19  0.000000D+00  0.000000D+00  0.000000D+00  0.000000D+00  0.000000D+00
     20  0.000000D+00  0.000000D+00  0.000000D+00  0.000000D+00 -0.426354D-03
     21  0.000000D+00  0.000000D+00  0.000000D+00  0.000000D+00  0.000000D+00
     22  0.000000D+00  0.000000D+00  0.000000D+00  0.000000D+00  0.000000D+00
     23  0.000000D+00  0.000000D+00  0.000000D+00  0.000000D+00 -0.108993D-03
     24  0.000000D+00  0.000000D+00  0.000000D+00  0.000000D+00  0.613443D-02
     25  0.000000D+00  0.000000D+00  0.000000D+00  0.000000D+00 -0.919513D-03
     26  0.000000D+00  0.000000D+00  0.000000D+00  0.000000D+00  0.000000D+00
     27  0.000000D+00  0.000000D+00  0.000000D+00  0.000000D+00  0.000000D+00
     28  0.000000D+00  0.000000D+00  0.000000D+00  0.000000D+00 -0.569365D-01
     29  0.000000D+00  0.000000D+00  0.000000D+00  0.000000D+00  0.343593D-01
     30  0.000000D+00  0.000000D+00  0.000000D+00  0.000000D+00  0.000000D+00
                6             7             8             9            10 
      6  0.317325D+00
      7  0.000000D+00  0.160000D+00
      8  0.346959D-02  0.000000D+00  0.170962D+00
      9  0.000000D+00  0.000000D+00  0.000000D+00  0.339475D+00
     10  0.000000D+00  0.000000D+00  0.000000D+00  0.000000D+00  0.358738D+00
     11  0.000000D+00  0.000000D+00  0.000000D+00  0.000000D+00  0.000000D+00
     12  0.000000D+00  0.000000D+00  0.000000D+00  0.000000D+00  0.000000D+00
     13  0.000000D+00  0.000000D+00  0.000000D+00  0.000000D+00  0.000000D+00
     14  0.000000D+00  0.000000D+00  0.000000D+00  0.000000D+00  0.000000D+00
     15  0.195213D-02  0.000000D+00  0.925110D-03  0.000000D+00  0.000000D+00
     16 -0.196547D-02  0.000000D+00 -0.931433D-03  0.000000D+00  0.000000D+00
     17  0.000000D+00  0.000000D+00  0.000000D+00  0.000000D+00  0.000000D+00
     18  0.000000D+00  0.000000D+00  0.000000D+00  0.000000D+00  0.000000D+00
     19  0.000000D+00  0.000000D+00  0.000000D+00  0.000000D+00  0.000000D+00
     20  0.422181D-03  0.000000D+00  0.200071D-03  0.000000D+00  0.000000D+00
     21  0.000000D+00  0.000000D+00  0.000000D+00  0.000000D+00  0.000000D+00
     22  0.000000D+00  0.000000D+00  0.000000D+00  0.000000D+00  0.000000D+00
     23  0.107927D-03  0.000000D+00  0.511462D-04  0.000000D+00  0.000000D+00
     24 -0.607440D-02  0.000000D+00 -0.287865D-02  0.000000D+00  0.000000D+00
     25  0.910514D-03  0.000000D+00  0.431491D-03  0.000000D+00  0.000000D+00
     26  0.000000D+00  0.000000D+00  0.226456D-01  0.000000D+00  0.000000D+00
     27  0.000000D+00  0.000000D+00  0.000000D+00  0.000000D+00  0.000000D+00
     28  0.553444D-01  0.000000D+00 -0.970859D-01  0.000000D+00  0.000000D+00
     29  0.416628D-01  0.000000D+00 -0.660022D-01  0.000000D+00  0.000000D+00
     30  0.000000D+00  0.000000D+00  0.000000D+00  0.000000D+00  0.000000D+00
               11            12            13            14            15 
     11  0.359581D+00
     12  0.000000D+00  0.338597D+00
     13  0.000000D+00  0.000000D+00  0.346858D+00
     14  0.000000D+00  0.000000D+00  0.000000D+00  0.347434D+00
     15  0.000000D+00  0.000000D+00  0.000000D+00  0.000000D+00  0.321653D+00
     16  0.000000D+00  0.000000D+00  0.000000D+00  0.000000D+00  0.142544D+00
     17  0.000000D+00  0.000000D+00  0.000000D+00  0.000000D+00  0.000000D+00
     18  0.000000D+00  0.000000D+00  0.000000D+00  0.000000D+00  0.000000D+00
     19  0.000000D+00  0.000000D+00  0.000000D+00  0.000000D+00  0.000000D+00
     20  0.000000D+00  0.000000D+00  0.000000D+00  0.000000D+00 -0.396144D-01
     21  0.000000D+00  0.000000D+00  0.000000D+00  0.000000D+00  0.000000D+00
     22  0.000000D+00  0.000000D+00  0.000000D+00  0.000000D+00  0.000000D+00
     23  0.000000D+00  0.000000D+00  0.000000D+00  0.000000D+00  0.240769D-01
     24  0.000000D+00  0.000000D+00  0.000000D+00  0.000000D+00 -0.665224D-02
     25  0.000000D+00  0.000000D+00  0.000000D+00  0.000000D+00 -0.352255D-01
     26  0.000000D+00  0.000000D+00  0.000000D+00  0.000000D+00  0.000000D+00
     27  0.000000D+00  0.000000D+00  0.000000D+00  0.000000D+00  0.000000D+00
     28  0.000000D+00  0.000000D+00  0.000000D+00  0.000000D+00 -0.165826D-02
     29  0.000000D+00  0.000000D+00  0.000000D+00  0.000000D+00  0.260702D-04
     30  0.000000D+00  0.000000D+00  0.000000D+00  0.000000D+00  0.000000D+00
               16            17            18            19            20 
     16  0.318612D+00
     17  0.000000D+00  0.252431D+00
     18  0.000000D+00  0.463907D-01  0.254803D+00
     19  0.000000D+00  0.464660D-01  0.489284D-01  0.255035D+00
     20 -0.868763D-02  0.000000D+00  0.000000D+00  0.000000D+00  0.180195D+00
     21  0.000000D+00 -0.665520D-01  0.939837D-03  0.675180D-01  0.957755D-02
     22  0.000000D+00  0.665566D-01 -0.674422D-01 -0.930347D-03  0.957755D-02
     23  0.202647D-01 -0.274790D-04 -0.105265D-04 -0.939861D-05  0.701734D-01
     24  0.671494D-02  0.139786D-05  0.166913D-04 -0.145740D-04 -0.140259D-02
     25  0.308689D-01  0.000000D+00  0.000000D+00  0.000000D+00  0.112925D+00
     26  0.000000D+00  0.000000D+00  0.000000D+00  0.000000D+00  0.000000D+00
     27  0.000000D+00  0.000000D+00  0.000000D+00  0.000000D+00  0.287326D-01
     28  0.170550D-02 -0.515332D-05  0.150859D-05 -0.414178D-05 -0.115839D-03
     29  0.122162D-04  0.267720D-04  0.958623D-05  0.997316D-05 -0.841529D-03
     30  0.000000D+00  0.000000D+00  0.000000D+00  0.000000D+00  0.000000D+00
               21            22            23            24            25 
     21  0.226509D+00
     22 -0.979472D-01  0.226505D+00
     23 -0.336984D-04  0.316997D-04  0.337232D+00
     24  0.291176D-04  0.279236D-04 -0.366521D-03  0.207020D-01
     25 -0.957507D-02 -0.957798D-02 -0.756746D-03 -0.310846D-02  0.253206D+00
     26  0.000000D+00  0.000000D+00  0.000000D+00  0.000000D+00  0.000000D+00
     27  0.287302D-01  0.287331D-01  0.000000D+00  0.000000D+00 -0.287326D-01
     28 -0.201932D-05  0.123399D-04 -0.948263D-04  0.578257D-02 -0.745640D-03
     29  0.313382D-04 -0.321017D-04  0.151157D-04  0.114423D-03  0.217866D-04
     30  0.000000D+00  0.000000D+00  0.000000D+00  0.000000D+00  0.000000D+00
               26            27            28            29            30 
     26  0.679367D-01
     27  0.000000D+00  0.861979D-01
     28  0.226456D-01  0.000000D+00  0.227961D+00
     29  0.000000D+00  0.000000D+00  0.663917D-02  0.330487D+00
     30  0.000000D+00  0.000000D+00  0.000000D+00  0.000000D+00  0.100000D-02
 Force constants in internal coordinates: 
                1             2             3             4             5 
      1  0.536202D+00
      2  0.000000D+00  0.362005D+00
      3  0.000000D+00  0.000000D+00  0.357298D+00
      4  0.000000D+00  0.000000D+00  0.000000D+00  0.560800D+00
      5  0.000000D+00  0.000000D+00  0.000000D+00  0.000000D+00  0.100000D-02
      6  0.000000D+00  0.000000D+00  0.000000D+00  0.000000D+00  0.000000D+00
      7  0.000000D+00  0.000000D+00  0.000000D+00  0.000000D+00  0.000000D+00
      8  0.000000D+00  0.000000D+00  0.000000D+00  0.000000D+00  0.000000D+00
      9  0.000000D+00  0.000000D+00  0.000000D+00  0.000000D+00  0.000000D+00
     10  0.000000D+00  0.000000D+00  0.000000D+00  0.000000D+00  0.000000D+00
     11  0.000000D+00  0.000000D+00  0.000000D+00  0.000000D+00  0.000000D+00
     12  0.000000D+00  0.000000D+00  0.000000D+00  0.000000D+00  0.000000D+00
     13  0.000000D+00  0.000000D+00  0.000000D+00  0.000000D+00  0.000000D+00
     14  0.000000D+00  0.000000D+00  0.000000D+00  0.000000D+00  0.000000D+00
     15  0.000000D+00  0.000000D+00  0.000000D+00  0.000000D+00  0.000000D+00
     16  0.000000D+00  0.000000D+00  0.000000D+00  0.000000D+00  0.000000D+00
     17  0.000000D+00  0.000000D+00  0.000000D+00  0.000000D+00  0.000000D+00
     18  0.000000D+00  0.000000D+00  0.000000D+00  0.000000D+00  0.000000D+00
     19  0.000000D+00  0.000000D+00  0.000000D+00  0.000000D+00  0.000000D+00
     20  0.000000D+00  0.000000D+00  0.000000D+00  0.000000D+00  0.000000D+00
     21  0.000000D+00  0.000000D+00  0.000000D+00  0.000000D+00  0.000000D+00
     22  0.000000D+00  0.000000D+00  0.000000D+00  0.000000D+00  0.000000D+00
     23  0.000000D+00  0.000000D+00  0.000000D+00  0.000000D+00  0.000000D+00
     24  0.000000D+00  0.000000D+00  0.000000D+00  0.000000D+00  0.000000D+00
     25  0.000000D+00  0.000000D+00  0.000000D+00  0.000000D+00  0.000000D+00
     26  0.000000D+00  0.000000D+00  0.000000D+00  0.000000D+00  0.000000D+00
     27  0.000000D+00  0.000000D+00  0.000000D+00  0.000000D+00  0.000000D+00
     28  0.000000D+00  0.000000D+00  0.000000D+00  0.000000D+00  0.000000D+00
     29  0.000000D+00  0.000000D+00  0.000000D+00  0.000000D+00  0.000000D+00
     30  0.000000D+00  0.000000D+00  0.000000D+00  0.000000D+00  0.000000D+00
                6             7             8             9            10 
      6  0.339475D+00
      7  0.000000D+00  0.358738D+00
      8  0.000000D+00  0.000000D+00  0.359581D+00
      9  0.000000D+00  0.000000D+00  0.000000D+00  0.338597D+00
     10  0.000000D+00  0.000000D+00  0.000000D+00  0.000000D+00  0.346858D+00
     11  0.000000D+00  0.000000D+00  0.000000D+00  0.000000D+00  0.000000D+00
     12  0.000000D+00  0.000000D+00  0.000000D+00  0.000000D+00  0.000000D+00
     13  0.000000D+00  0.000000D+00  0.000000D+00  0.000000D+00  0.000000D+00
     14  0.000000D+00  0.000000D+00  0.000000D+00  0.000000D+00  0.000000D+00
     15  0.000000D+00  0.000000D+00  0.000000D+00  0.000000D+00  0.000000D+00
     16  0.000000D+00  0.000000D+00  0.000000D+00  0.000000D+00  0.000000D+00
     17  0.000000D+00  0.000000D+00  0.000000D+00  0.000000D+00  0.000000D+00
     18  0.000000D+00  0.000000D+00  0.000000D+00  0.000000D+00  0.000000D+00
     19  0.000000D+00  0.000000D+00  0.000000D+00  0.000000D+00  0.000000D+00
     20  0.000000D+00  0.000000D+00  0.000000D+00  0.000000D+00  0.000000D+00
     21  0.000000D+00  0.000000D+00  0.000000D+00  0.000000D+00  0.000000D+00
     22  0.000000D+00  0.000000D+00  0.000000D+00  0.000000D+00  0.000000D+00
     23  0.000000D+00  0.000000D+00  0.000000D+00  0.000000D+00  0.000000D+00
     24  0.000000D+00  0.000000D+00  0.000000D+00  0.000000D+00  0.000000D+00
     25  0.000000D+00  0.000000D+00  0.000000D+00  0.000000D+00  0.000000D+00
     26  0.000000D+00  0.000000D+00  0.000000D+00  0.000000D+00  0.000000D+00
     27  0.000000D+00  0.000000D+00  0.000000D+00  0.000000D+00  0.000000D+00
     28  0.000000D+00  0.000000D+00  0.000000D+00  0.000000D+00  0.000000D+00
     29  0.000000D+00  0.000000D+00  0.000000D+00  0.000000D+00  0.000000D+00
     30  0.000000D+00  0.000000D+00  0.000000D+00  0.000000D+00  0.000000D+00
               11            12            13            14            15 
     11  0.347434D+00
     12  0.000000D+00  0.318357D+00
     13  0.000000D+00  0.116808D+00  0.317325D+00
     14  0.000000D+00  0.000000D+00  0.000000D+00  0.160000D+00
     15  0.000000D+00  0.343593D-01  0.416628D-01  0.000000D+00  0.330487D+00
     16  0.000000D+00 -0.108993D-03  0.107927D-03  0.000000D+00  0.151157D-04
     17  0.000000D+00 -0.197142D-02  0.195213D-02  0.000000D+00  0.260702D-04
     18  0.000000D+00  0.198490D-02 -0.196547D-02  0.000000D+00  0.122162D-04
     19  0.000000D+00  0.000000D+00  0.000000D+00  0.000000D+00  0.267720D-04
     20  0.000000D+00  0.000000D+00  0.000000D+00  0.000000D+00  0.958623D-05
     21  0.000000D+00  0.000000D+00  0.000000D+00  0.000000D+00  0.997316D-05
     22  0.000000D+00  0.607291D-01  0.346959D-02  0.000000D+00 -0.660022D-01
     23  0.000000D+00  0.000000D+00  0.000000D+00  0.000000D+00  0.000000D+00
     24  0.000000D+00 -0.569365D-01  0.553444D-01  0.000000D+00  0.663917D-02
     25  0.000000D+00  0.613443D-02 -0.607440D-02  0.000000D+00  0.114423D-03
     26  0.000000D+00 -0.919513D-03  0.910514D-03  0.000000D+00  0.217866D-04
     27  0.000000D+00 -0.426354D-03  0.422181D-03  0.000000D+00 -0.841529D-03
     28  0.000000D+00  0.000000D+00  0.000000D+00  0.000000D+00  0.000000D+00
     29  0.000000D+00  0.000000D+00  0.000000D+00  0.000000D+00  0.313382D-04
     30  0.000000D+00  0.000000D+00  0.000000D+00  0.000000D+00 -0.321017D-04
               16            17            18            19            20 
     16  0.337232D+00
     17  0.240769D-01  0.321653D+00
     18  0.202647D-01  0.142544D+00  0.318612D+00
     19 -0.274790D-04  0.000000D+00  0.000000D+00  0.252431D+00
     20 -0.105265D-04  0.000000D+00  0.000000D+00  0.463907D-01  0.254803D+00
     21 -0.939861D-05  0.000000D+00  0.000000D+00  0.464660D-01  0.489284D-01
     22  0.511462D-04  0.925110D-03 -0.931433D-03  0.000000D+00  0.000000D+00
     23  0.000000D+00  0.000000D+00  0.000000D+00  0.000000D+00  0.000000D+00
     24 -0.948263D-04 -0.165826D-02  0.170550D-02 -0.515332D-05  0.150859D-05
     25 -0.366521D-03 -0.665224D-02  0.671494D-02  0.139786D-05  0.166913D-04
     26 -0.756746D-03 -0.352255D-01  0.308689D-01  0.000000D+00  0.000000D+00
     27  0.701734D-01 -0.396144D-01 -0.868763D-02  0.000000D+00  0.000000D+00
     28  0.000000D+00  0.000000D+00  0.000000D+00  0.000000D+00  0.000000D+00
     29 -0.336984D-04  0.000000D+00  0.000000D+00 -0.665520D-01  0.939837D-03
     30  0.316997D-04  0.000000D+00  0.000000D+00  0.665566D-01 -0.674422D-01
               21            22            23            24            25 
     21  0.255035D+00
     22  0.000000D+00  0.170962D+00
     23  0.000000D+00  0.226456D-01  0.679367D-01
     24 -0.414178D-05 -0.970859D-01  0.226456D-01  0.227961D+00
     25 -0.145740D-04 -0.287865D-02  0.000000D+00  0.578257D-02  0.207020D-01
     26  0.000000D+00  0.431491D-03  0.000000D+00 -0.745640D-03 -0.310846D-02
     27  0.000000D+00  0.200071D-03  0.000000D+00 -0.115839D-03 -0.140259D-02
     28  0.000000D+00  0.000000D+00  0.000000D+00  0.000000D+00  0.000000D+00
     29  0.675180D-01  0.000000D+00  0.000000D+00 -0.201932D-05  0.291176D-04
     30 -0.930347D-03  0.000000D+00  0.000000D+00  0.123399D-04  0.279236D-04
               26            27            28            29            30 
     26  0.253206D+00
     27  0.112925D+00  0.180195D+00
     28 -0.287326D-01  0.287326D-01  0.861979D-01
     29 -0.957507D-02  0.957755D-02  0.287302D-01  0.226509D+00
     30 -0.957798D-02  0.957755D-02  0.287331D-01 -0.979472D-01  0.226505D+00
 Final forces over variables, Energy=-1.94229111D+02:
  1.20022037D-03 5.01486974D-04 7.04154974D-04 2.97144159D-04
 -4.07436058D-04-5.13917106D-04 3.95182794D-04-1.85358570D-03
 -1.59693522D-03 3.48567225D-04 7.03654908D-04 6.77534263D-06
 -2.80542344D-05 7.72742824D-05 4.75161014D-04 7.07959133D-05
 -6.63903055D-04-1.53472302D-04 2.00940536D-04 2.87145108D-03
 -5.04872897D-04 4.63656510D-04 5.43089505D-06 1.20467627D-05
  3.39238368D-05-6.62997229D-04-9.79305452D-05 2.14543093D-05
 -1.49389518D-05 2.17085435D-06

 GradGradGradGradGradGradGradGradGradGradGradGradGradGradGradGradGradGrad
 Berny optimization.
 Search for a local minimum.
 Step number   1 out of a maximum of   50
 All quantities printed in internal units (Hartrees-Bohrs-Radians)
 Second derivative matrix not updated -- first step.
 ITU=  0
     Eigenvalues ---    0.01906   0.03968   0.04296   0.07030   0.10485
     Eigenvalues ---    0.13587   0.14283   0.14574   0.16000   0.16406
     Eigenvalues ---    0.24788   0.29496   0.30970   0.33860   0.33947
     Eigenvalues ---    0.34686   0.34743   0.34849   0.35730   0.35874
     Eigenvalues ---    0.35958   0.36201   0.38492   0.38763   0.39637
     Eigenvalues ---    0.45867   0.47213   0.53620   0.560801000.00000
 RFO step:  Lambda=-1.46243875D-04 EMin= 1.90564231D-02
 Linear search not attempted -- first point.
 Variable       Old X    -DE/DX   Delta X   Delta X   Delta X     New X
                                 (Linear)    (Quad)   (Total)
    R1        2.56379   0.00120   0.00000   0.00224   0.00224   2.56603
    R2        2.03769   0.00050   0.00000   0.00138   0.00138   2.03908
    R3        2.04506   0.00070   0.00000   0.00197   0.00197   2.04703
    R4        1.80885   0.00030   0.00000   0.00053   0.00053   1.80938
    A2        1.98116  -0.00041   0.00000   0.00112   0.00112   1.98228
    A3        2.07071  -0.00051   0.00000  -0.00051  -0.00051   2.07020
    A4        1.91563   0.00040   0.00000   0.00247   0.00247   1.91810
    D3        3.67561  -0.00185   0.00000  -0.01517  -0.01517   3.66044
   R21        2.80719  -0.00160   0.00000  -0.00470  -0.00470   2.80249
   R22        2.04279   0.00035   0.00000   0.00097   0.00097   2.04377
   R23        2.04147   0.00070   0.00000   0.00196   0.00196   2.04343
   R24        2.07568   0.00001   0.00000   0.00002   0.00002   2.07570
   R25        2.06188  -0.00003   0.00000  -0.00008  -0.00008   2.06180
   R26        2.06094   0.00008   0.00000   0.00022   0.00022   2.06116
   A22        2.09245   0.00048   0.00000   0.00362   0.00362   2.09607
   A23        2.09712   0.00007   0.00000   0.00144   0.00144   2.09856
   A24        1.94907  -0.00066   0.00000  -0.00458  -0.00458   1.94450
   A25        1.94978  -0.00015   0.00000   0.00036   0.00036   1.95014
   A26        1.94860   0.00020   0.00000   0.00242   0.00242   1.95102
   D23        2.78453   0.00287   0.00000   0.03217   0.03217   2.81670
   D25        2.08264  -0.00050   0.00000  -0.00325  -0.00325   2.07939
   D26        4.19827   0.00046   0.00000   0.00220   0.00220   4.20047
   ANG2       1.77043   0.00001   0.00000  -0.00705  -0.00705   1.76337
   DH2        3.34268   0.00001   0.00000  -0.00005  -0.00005   3.34263
   DH3        1.78608   0.00003   0.00000  -0.01582  -0.01582   1.77026
    D4        3.08220  -0.00066   0.00000  -0.00282  -0.00282   3.07937
   D24        4.91797  -0.00010   0.00000  -0.01676  -0.01676   4.90122
   DH1        1.82238   0.00002   0.00000  -0.00561  -0.00561   1.81676
   ANG1       1.98419  -0.00001   0.00000  -0.00293  -0.00293   1.98126
    BB       18.89726   0.00000   0.00000   0.00000   0.00000  18.89726
         Item               Value     Threshold  Converged?
 Maximum Force            0.002871     0.000450     NO 
 RMS     Force            0.000817     0.000300     NO 
 Maximum Displacement     0.032166     0.001800     NO 
 RMS     Displacement     0.008158     0.001200     NO 
 Predicted change in Energy=-7.326824D-05
 GradGradGradGradGradGradGradGradGradGradGradGradGradGradGradGradGradGrad

 ---------------------------------------------------------------------------------------------------
                            Z-MATRIX (ANGSTROMS AND DEGREES)
   CD    Cent   Atom    N1       Length/X        N2       Alpha/Y        N3        Beta/Z          J
 ---------------------------------------------------------------------------------------------------
      1      1  C 
      2      2  O        1   1.357884(     1)
      3      3  H        1   1.079033(     2)      2  113.576(    12)
      4      4  H        1   1.083242(     3)      2  118.614(    13)      3  209.728(    22)      0
      5      5  H        2   0.957480(     4)      1  109.899(    14)      3  176.435(    23)      0
      6      6  C        1  10.000000(     5)      2  113.518(    15)      3  104.093(    24)      0
      7      7  C        6   1.483012(     6)      1  101.034(    16)      2  191.519(    25)      0
      8      8  H        6   1.081514(     7)      7  120.096(    17)      1  101.428(    26)      0
      9      9  H        6   1.081335(     8)      7  120.238(    18)      8  161.385(    27)      0
     10     10  H        7   1.098411(     9)      6  111.412(    19)      8  280.819(    28)      0
     11     11  H        7   1.091057(    10)      6  111.735(    20)     10  119.140(    29)      0
     12     12  H        7   1.090718(    11)      6  111.785(    21)     10  240.669(    30)      0
 ---------------------------------------------------------------------------------------------------
                         Z-Matrix orientation:                         
 ---------------------------------------------------------------------
 Center     Atomic      Atomic             Coordinates (Angstroms)
 Number     Number       Type             X           Y           Z
 ---------------------------------------------------------------------
      1          6           0        0.000000    0.000000    0.000000
      2          8           0        0.000000    0.000000    1.357884
      3          1           0        0.988964    0.000000   -0.431581
      4          1           0       -0.825794    0.471551   -0.518766
      5          1           0       -0.898570    0.055981    1.683777
      6          6           0       -2.232675   -8.893369   -3.990381
      7          6           0       -1.875549   -8.664557   -5.411448
      8          1           0       -3.267998   -8.860907   -3.679376
      9          1           0       -1.533002   -9.379572   -3.324536
     10          1           0       -2.049482   -9.563399   -6.018355
     11          1           0       -2.474352   -7.867780   -5.855281
     12          1           0       -0.822277   -8.406108   -5.527580
 ---------------------------------------------------------------------
                    Distance matrix (angstroms):
                    1          2          3          4          5
     1  C    0.000000
     2  O    1.357884   0.000000
     3  H    1.079033   2.044563   0.000000
     4  H    1.083242   2.103833   1.877047   0.000000
     5  H    1.909363   0.957480   2.835605   2.242585   0.000000
     6  C   10.000000  10.615121  10.106237  10.086286  10.680205
     7  C   10.386337  11.154196  10.396108  10.416756  11.284702
     8  H   10.135743  10.703713  10.353046  10.151285  10.671855
     9  H   10.068714  10.594882  10.134390  10.267284  10.701185
    10  H   11.483883  12.250220  11.484894  11.508394  12.376587
    11  H   10.114776  10.956922  10.164302  10.036961  11.050180
    12  H   10.094203  10.897175   9.995622  10.193188  11.118293
                    6          7          8          9         10
     6  C    0.000000
     7  C    1.483012   0.000000
     8  H    1.081514   2.231040   0.000000
     9  H    1.081335   2.232440   1.845301   0.000000
    10  H    2.143636   1.098411   2.729304   2.749038   0.000000
    11  H    2.141983   1.091057   2.520067   3.094564   1.755629
    12  H    2.142341   1.090718   3.099073   2.511208   1.756762
                   11         12
    11  H    0.000000
    12  H    1.768201   0.000000
 Symmetry turned off by external request.
 Stoichiometry    C3H8O(3)
 Framework group  C1[X(C3H8O)]
 Deg. of freedom    30
 Full point group                 C1      NOp   1
 Rotational constants (GHZ):     13.5473534      0.3002284      0.2957447
 Standard basis: Jun-CC-pVTZ (5D, 7F)
   268 basis functions,   384 primitive gaussians,   300 cartesian basis functions
    18 alpha electrons       16 beta electrons
       nuclear repulsion energy        86.9310894974 Hartrees.
 NAtoms=   12 NActive=   12 NUniq=   12 SFac= 1.00D+00 NAtFMM=   60 NAOKFM=F Big=F
 Integral buffers will be    131072 words long.
 Raffenetti 2 integral format.
 Two-electron integral symmetry is turned off.
 Nuclear repulsion after empirical dispersion term =       86.9293343930 Hartrees.
 One-electron integrals computed using PRISM.
 NBasis=   268 RedAO= T EigKep=  1.16D-04  NBF=   268
 NBsUse=   268 1.00D-06 EigRej= -1.00D+00 NBFU=   268
 Initial guess from the checkpoint file:  "tmp.chk"
 B after Tr=    -0.000323    0.002884    0.006050
         Rot=    0.999995    0.001239   -0.000484   -0.002926 Ang=   0.37 deg.
 Initial guess <Sx>= 0.0000 <Sy>= 0.0000 <Sz>= 1.0000 <S**2>= 2.0085 S= 1.0028
 ExpMin= 3.57D-02 ExpMax= 1.53D+04 ExpMxC= 5.22D+02 IAcc=3 IRadAn=         5 AccDes= 0.00D+00
 Harris functional with IExCor= 4639 and IRadAn=       5 diagonalized for initial guess.
 HarFok:  IExCor= 4639 AccDes= 0.00D+00 IRadAn=         5 IDoV= 1 UseB2=F ITyADJ=14
 ICtDFT=  3500011 ScaDFX=  1.000000  1.000000  1.000000  1.000000
 FoFCou: FMM=F IPFlag=           0 FMFlag=      100000 FMFlg1=           0
         NFxFlg=           0 DoJE=T BraDBF=F KetDBF=T FulRan=T
         wScrn=  0.000000 ICntrl=     500 IOpCl=  0 I1Cent=   200000004 NGrid=           0
         NMat0=    1 NMatS0=      1 NMatT0=    0 NMatD0=    1 NMtDS0=    0 NMtDT0=    0
 Symmetry not used in FoFCou.
 Requested convergence on RMS density matrix=1.00D-08 within 128 cycles.
 Requested convergence on MAX density matrix=1.00D-06.
 Requested convergence on             energy=1.00D-06.
 No special actions if energy rises.
 SCF Done:  E(UwB97XD) =  -194.229234022     A.U. after   10 cycles
            NFock= 10  Conv=0.68D-08     -V/T= 2.0065
 <Sx>= 0.0000 <Sy>= 0.0000 <Sz>= 1.0000 <S**2>= 2.0085 S= 1.0028
 <L.S>=  0.00000000000    
 Annihilation of the first spin contaminant:
 S**2 before annihilation     2.0085,   after     2.0000
 DipInt: DoE/N= T T RetVal/Mat= T F Init=T NMatP=  1 IDeriv=0 Min/MaxMlt=  1  1
 Entering OneElI...
 Multipole integrals L=1 to 1 MinM= 0 MaxM= 0.
 Requested accuracy = 0.1000D-12
 PrsmSu:  NPrtUS=   1 ThrOK=F IAlg=1 NPAlg=1 LenDen=           0.
 Prism:   IPart=     0 DynPar=F LinDyn=F Incr=          34.
 PRISM was handed   419084268 working-precision words and  3438 shell-pairs
 IPart=  0 NShTot=        3438 NBatch=          52 AvBLen=        66.1
 PrSmSu:  NxtVal=             35.
 Entering OneElI...
 Calculate overlap and kinetic energy integrals
    NBasis = 300  MinDer = 1  MaxDer = 1
 Requested accuracy = 0.1000D-12
 PrsmSu:  NPrtUS=  32 ThrOK=T IAlg=1 NPAlg=1 LenDen=           0.
 PRISM was handed    13023183 working-precision words and  3681 shell-pairs
 PRISM was handed    13023183 working-precision words and  3681 shell-pairs
 PRISM was handed    13023183 working-precision words and  3681 shell-pairs
 Prism:   IPart=     0 DynPar=F LinDyn=F Incr=           1.
 PRISM was handed    13023183 working-precision words and  3681 shell-pairs
 PRISM was handed    13023183 working-precision words and  3681 shell-pairs
 PRISM was handed    13023183 working-precision words and  3681 shell-pairs
 PRISM was handed    13023183 working-precision words and  3681 shell-pairs
 PRISM was handed    13023183 working-precision words and  3681 shell-pairs
 PRISM was handed    13023183 working-precision words and  3681 shell-pairs
 PRISM was handed    13023183 working-precision words and  3681 shell-pairs
 PRISM was handed    13023183 working-precision words and  3681 shell-pairs
 PRISM was handed    13023183 working-precision words and  3681 shell-pairs
 PRISM was handed    13023183 working-precision words and  3681 shell-pairs
 PRISM was handed    13023183 working-precision words and  3681 shell-pairs
 IPart= 15 NShTot=         107 NBatch=          21 AvBLen=         5.1
 PRISM was handed    13023183 working-precision words and  3681 shell-pairs
 IPart= 25 NShTot=         103 NBatch=          20 AvBLen=         5.2
 IPart= 18 NShTot=         106 NBatch=          20 AvBLen=         5.3
 IPart= 14 NShTot=         108 NBatch=          21 AvBLen=         5.1
 IPart= 30 NShTot=         102 NBatch=          20 AvBLen=         5.1
 IPart= 10 NShTot=         116 NBatch=          21 AvBLen=         5.5
 IPart=  6 NShTot=         127 NBatch=          29 AvBLen=         4.4
 PRISM was handed    13023183 working-precision words and  3681 shell-pairs
 PRISM was handed    13023183 working-precision words and  3681 shell-pairs
 IPart= 11 NShTot=         116 NBatch=          21 AvBLen=         5.5
 IPart=  0 NShTot=         152 NBatch=          50 AvBLen=         3.0
 PRISM was handed    13023183 working-precision words and  3681 shell-pairs
 PRISM was handed    13023183 working-precision words and  3681 shell-pairs
 IPart=  8 NShTot=         118 NBatch=          22 AvBLen=         5.4
 IPart= 31 NShTot=         102 NBatch=          20 AvBLen=         5.1
 PRISM was handed    13023183 working-precision words and  3681 shell-pairs
 PRISM was handed    13023183 working-precision words and  3681 shell-pairs
 IPart=  7 NShTot=         126 NBatch=          29 AvBLen=         4.3
 IPart=  3 NShTot=         144 NBatch=          42 AvBLen=         3.4
 PRISM was handed    13023183 working-precision words and  3681 shell-pairs
 PRISM was handed    13023183 working-precision words and  3681 shell-pairs
 PRISM was handed    13023183 working-precision words and  3681 shell-pairs
 PRISM was handed    13023183 working-precision words and  3681 shell-pairs
 PRISM was handed    13023183 working-precision words and  3681 shell-pairs
 IPart= 19 NShTot=         106 NBatch=          20 AvBLen=         5.3
 PRISM was handed    13023183 working-precision words and  3681 shell-pairs
 PRISM was handed    13023183 working-precision words and  3681 shell-pairs
 PRISM was handed    13023183 working-precision words and  3681 shell-pairs
 PRISM was handed    13023183 working-precision words and  3681 shell-pairs
 PRISM was handed    13023183 working-precision words and  3681 shell-pairs
 PRISM was handed    13023183 working-precision words and  3681 shell-pairs
 IPart= 22 NShTot=         104 NBatch=          20 AvBLen=         5.2
 IPart= 16 NShTot=         106 NBatch=          20 AvBLen=         5.3
 IPart= 17 NShTot=         106 NBatch=          20 AvBLen=         5.3
 IPart= 24 NShTot=         104 NBatch=          20 AvBLen=         5.2
 IPart=  1 NShTot=         147 NBatch=          45 AvBLen=         3.3
 IPart= 26 NShTot=         103 NBatch=          20 AvBLen=         5.2
 IPart= 12 NShTot=         116 NBatch=          21 AvBLen=         5.5
 IPart= 20 NShTot=         106 NBatch=          20 AvBLen=         5.3
 IPart= 29 NShTot=         102 NBatch=          20 AvBLen=         5.1
 IPart=  4 NShTot=         134 NBatch=          33 AvBLen=         4.1
 IPart= 28 NShTot=         103 NBatch=          20 AvBLen=         5.2
 IPart= 21 NShTot=         106 NBatch=          20 AvBLen=         5.3
 IPart= 23 NShTot=         104 NBatch=          20 AvBLen=         5.2
 IPart=  9 NShTot=         116 NBatch=          21 AvBLen=         5.5
 IPart=  2 NShTot=         145 NBatch=          43 AvBLen=         3.4
 IPart= 13 NShTot=         113 NBatch=          21 AvBLen=         5.4
 IPart= 27 NShTot=         103 NBatch=          20 AvBLen=         5.2
 IPart=  5 NShTot=         130 NBatch=          30 AvBLen=         4.3
 PrSmSu:  NxtVal=             33.
 Entering OneElI...
 Calculate potential energy integrals
    NBasis = 300  MinDer = 1  MaxDer = 1
 Requested accuracy = 0.1000D-12
 PrsmSu:  NPrtUS=  32 ThrOK=T IAlg=1 NPAlg=1 LenDen=           0.
 PRISM was handed    13039507 working-precision words and  2974 shell-pairs
 PRISM was handed    13039507 working-precision words and  2974 shell-pairs
 PRISM was handed    13039507 working-precision words and  2974 shell-pairs
 PRISM was handed    13039507 working-precision words and  2974 shell-pairs
 PRISM was handed    13039507 working-precision words and  2974 shell-pairs
 PRISM was handed    13039507 working-precision words and  2974 shell-pairs
 PRISM was handed    13039507 working-precision words and  2974 shell-pairs
 PRISM was handed    13039507 working-precision words and  2974 shell-pairs
 PRISM was handed    13039507 working-precision words and  2974 shell-pairs
 PRISM was handed    13039507 working-precision words and  2974 shell-pairs
 PRISM was handed    13039507 working-precision words and  2974 shell-pairs
 PRISM was handed    13039507 working-precision words and  2974 shell-pairs
 PRISM was handed    13039507 working-precision words and  2974 shell-pairs
 PRISM was handed    13039507 working-precision words and  2974 shell-pairs
 PRISM was handed    13039507 working-precision words and  2974 shell-pairs
 PRISM was handed    13039507 working-precision words and  2974 shell-pairs
 PRISM was handed    13039507 working-precision words and  2974 shell-pairs
 PRISM was handed    13039507 working-precision words and  2974 shell-pairs
 PRISM was handed    13039507 working-precision words and  2974 shell-pairs
 PRISM was handed    13039507 working-precision words and  2974 shell-pairs
 PRISM was handed    13039507 working-precision words and  2974 shell-pairs
 PRISM was handed    13039507 working-precision words and  2974 shell-pairs
 PRISM was handed    13039507 working-precision words and  2974 shell-pairs
 PRISM was handed    13039507 working-precision words and  2974 shell-pairs
 Prism:   IPart=     0 DynPar=F LinDyn=F Incr=          11.
 PRISM was handed    13039507 working-precision words and  2974 shell-pairs
 PRISM was handed    13039507 working-precision words and  2974 shell-pairs
 PRISM was handed    13039507 working-precision words and  2974 shell-pairs
 PRISM was handed    13039507 working-precision words and  2974 shell-pairs
 PRISM was handed    13039507 working-precision words and  2974 shell-pairs
 PRISM was handed    13039507 working-precision words and  2974 shell-pairs
 PRISM was handed    13039507 working-precision words and  2974 shell-pairs
 PRISM was handed    13039507 working-precision words and  2974 shell-pairs
 IPart=  6 NShTot=        1260 NBatch=         105 AvBLen=        12.0
 IPart= 18 NShTot=        1032 NBatch=          86 AvBLen=        12.0
 IPart= 19 NShTot=        1032 NBatch=          86 AvBLen=        12.0
 IPart= 25 NShTot=        1008 NBatch=          84 AvBLen=        12.0
 IPart= 10 NShTot=        1080 NBatch=          90 AvBLen=        12.0
 IPart= 17 NShTot=        1032 NBatch=          86 AvBLen=        12.0
 IPart= 31 NShTot=         948 NBatch=          79 AvBLen=        12.0
 IPart= 20 NShTot=        1032 NBatch=          86 AvBLen=        12.0
 IPart= 12 NShTot=        1068 NBatch=          89 AvBLen=        12.0
 IPart=  2 NShTot=        1428 NBatch=         119 AvBLen=        12.0
 IPart= 29 NShTot=         984 NBatch=          82 AvBLen=        12.0
 IPart= 14 NShTot=        1068 NBatch=          89 AvBLen=        12.0
 IPart=  3 NShTot=        1416 NBatch=         118 AvBLen=        12.0
 IPart= 21 NShTot=        1020 NBatch=          85 AvBLen=        12.0
 IPart= 16 NShTot=        1032 NBatch=          86 AvBLen=        12.0
 IPart= 27 NShTot=         996 NBatch=          83 AvBLen=        12.0
 IPart=  9 NShTot=        1092 NBatch=          91 AvBLen=        12.0
 IPart=  7 NShTot=        1248 NBatch=         104 AvBLen=        12.0
 IPart= 26 NShTot=         996 NBatch=          83 AvBLen=        12.0
 IPart=  5 NShTot=        1272 NBatch=         106 AvBLen=        12.0
 IPart= 11 NShTot=        1080 NBatch=          90 AvBLen=        12.0
 IPart= 22 NShTot=        1008 NBatch=          84 AvBLen=        12.0
 IPart= 30 NShTot=         972 NBatch=          81 AvBLen=        12.0
 IPart= 28 NShTot=         996 NBatch=          83 AvBLen=        12.0
 IPart= 13 NShTot=        1068 NBatch=          89 AvBLen=        12.0
 IPart=  1 NShTot=        1476 NBatch=         123 AvBLen=        12.0
 IPart=  4 NShTot=        1284 NBatch=         107 AvBLen=        12.0
 IPart=  0 NShTot=        1560 NBatch=         130 AvBLen=        12.0
 IPart= 24 NShTot=        1008 NBatch=          84 AvBLen=        12.0
 IPart= 15 NShTot=        1044 NBatch=          87 AvBLen=        12.0
 IPart= 23 NShTot=        1008 NBatch=          84 AvBLen=        12.0
 IPart=  8 NShTot=        1140 NBatch=          95 AvBLen=        12.0
 PrSmSu:  NxtVal=            353.
 l701 out
 I=    0 X=  -5.295513372123D-01 Y=   1.389193405750D-01 Z=  -1.622377511720D-01
 I=    1 X=   3.727337136743D-02 Y=  -9.986455470574D-01 Z=  -5.634900925435D+00
 I=    2 X=   2.516270757532D+00 Y=   3.745331148768D-02 Z=   7.040906813225D+00
 I=    3 X=   2.681448196096D+00 Y=  -1.319512415067D-02 Z=  -1.518716755464D+00
 I=    4 X=  -2.185511113916D+00 Y=   1.361923681648D+00 Z=  -1.706995863328D+00
 I=    5 X=  -2.910140102529D+00 Y=   2.161268582910D-01 Z=   2.182862074874D+00
 I=    6 X=  -5.584425341165D-01 Y=   1.490777932040D-03 Z=   2.673090988739D+00
 I=    7 X=   5.532818846038D-01 Y=   1.774518770917D-01 Z=  -2.534788044244D+00
 I=    8 X=  -2.730230908533D+00 Y=  -1.854140498936D-02 Z=   1.105306787471D+00
 I=    9 X=   1.688715323054D+00 Y=  -1.340474826228D+00 Z=   2.012606501803D+00
 I=   10 X=  -3.759692770054D-01 Y=  -2.188190051813D+00 Z=  -1.720839082926D+00
 I=   11 X=  -1.469033363908D+00 Y=   2.067987928141D+00 Z=  -1.367375581585D+00
 I=   12 X=   2.752337767355D+00 Y=   6.966125196475D-01 Z=  -5.311569131290D-01
 ICntrl=      2127.
 Calling FoFJK, ICntrl=      2127 FMM=F ISym2X=0 I1Cent= 0 IOpClX= 1 NMat=1 NMatS=1 NMatT=0.
 FoFJK:  IHMeth= 1 ICntrl=    2127 DoSepK=T KAlg= 0 I1Cent=   0 FoldK=F
 IRaf=         1 NMat=   1 IRICut=       1 DoRegI=T DoRafI=F ISym2E= 0.
 FoFCou: FMM=F IPFlag=           0 FMFlag=      100000 FMFlg1=         800
         NFxFlg=           0 DoJE=F BraDBF=F KetDBF=F FulRan=T
         wScrn=  0.000000 ICntrl=    2527 IOpCl=  0 I1Cent=           0 NGrid=           0
         NMat0=    1 NMatS0=      1 NMatT0=    0 NMatD0=    1 NMtDS0=    0 NMtDT0=    0
 Symmetry not used in FoFCou.
 FoFCou:  KetSym=F NOpSet=  1 NOpAb=1 NOp=  1.
 FoFCou:  CnvScl= 1.00D+00 Thresh= 1.00D-10 IAcrcy=      10.
 PrismS was handed   418996944 working-precision words and  3240 shell-pairs
 FoFCou: LinMIO=F DoNuc=F BraDBF=F KetDBF=F HaveP=T PDBF=F HaveZ=T HaveW=F
         NIJTC =      10 NIJTAt=       0 NIJTCD=       0 NIJTT =      10
         IJTBeg=       1 IJTEnd=      10 KLTBeg=       1 KLTEnd=      10
         IPTBeg=       1 IPTEnd=      10 IPTBCv=       1 IPTECv=      10
         IZTBeg=       1 IZTEnd=      10 IZTBCv=       1 IZTECv=      10
         IWTBeg=      11 IWTEnd=      10 IWTBCv=      11 IWTECv=      10
         INTBeg=       1 INTEnd=       0 IFTBCv=       1 IFTECv=      10
 NCel replicated for PrismC:     1
 CoulSu:  IncDef=  1024 NBBP=        5250420 NTPThr=   100 NPartT=   32 Incr=        1024 LDynOK=F.
 CoulSu:  NPrtUS=  32 ThrOK=T IAlg=1 NPAlg=1 LenDen=           0 LWGrdD=           0 DoCopy=F.
 Enter PrismC: JobTyp=21 DoJE=F Cont=F.
 Enter PrismC: JobTyp=21 DoJE=F Cont=F.
 Enter PrismC: JobTyp=21 DoJE=F Cont=F.
 Enter PrismC: JobTyp=21 DoJE=F Cont=F.
 Enter PrismC: JobTyp=21 DoJE=F Cont=F.
 Enter PrismC: JobTyp=21 DoJE=F Cont=F.
 PrismC was handed    13033110 working-precision words and  3240 shell-pairs
 Enter PrismC: JobTyp=21 DoJE=F Cont=F.
 Enter PrismC: JobTyp=21 DoJE=F Cont=F.
 Enter PrismC: JobTyp=21 DoJE=F Cont=F.
 PrismC was handed    13033110 working-precision words and  3240 shell-pairs
 Enter PrismC: JobTyp=21 DoJE=F Cont=F.
 Enter PrismC: JobTyp=21 DoJE=F Cont=F.
 Enter PrismC: JobTyp=21 DoJE=F Cont=F.
 PrismC was handed    13033110 working-precision words and  3240 shell-pairs
 Enter PrismC: JobTyp=21 DoJE=F Cont=F.
 PrismC was handed    13033110 working-precision words and  3240 shell-pairs
 Enter PrismC: JobTyp=21 DoJE=F Cont=F.
 PrismC was handed    13033110 working-precision words and  3240 shell-pairs
 Enter PrismC: JobTyp=21 DoJE=F Cont=F.
 Enter PrismC: JobTyp=21 DoJE=F Cont=F.
 Enter PrismC: JobTyp=21 DoJE=F Cont=F.
 PrismC was handed    13033110 working-precision words and  3240 shell-pairs
 Enter PrismC: JobTyp=21 DoJE=F Cont=F.
 PrismC was handed    13033110 working-precision words and  3240 shell-pairs
 Enter PrismC: JobTyp=21 DoJE=F Cont=F.
 PrismC was handed    13033110 working-precision words and  3240 shell-pairs
 Enter PrismC: JobTyp=21 DoJE=F Cont=F.
 Enter PrismC: JobTyp=21 DoJE=F Cont=F.
 PrismC was handed    13033110 working-precision words and  3240 shell-pairs
 Enter PrismC: JobTyp=21 DoJE=F Cont=F.
 Enter PrismC: JobTyp=21 DoJE=F Cont=F.
 PrismC was handed    13033110 working-precision words and  3240 shell-pairs
 Enter PrismC: JobTyp=21 DoJE=F Cont=F.
 PrismC was handed    13033110 working-precision words and  3240 shell-pairs
 Enter PrismC: JobTyp=21 DoJE=F Cont=F.
 Enter PrismC: JobTyp=21 DoJE=F Cont=F.
 PrismC was handed    13033110 working-precision words and  3240 shell-pairs
 Enter PrismC: JobTyp=21 DoJE=F Cont=F.
 Enter PrismC: JobTyp=21 DoJE=F Cont=F.
 Enter PrismC: JobTyp=21 DoJE=F Cont=F.
 PrismC was handed    13033110 working-precision words and  3240 shell-pairs
 Enter PrismC: JobTyp=21 DoJE=F Cont=F.
 PrismC was handed    13033110 working-precision words and  3240 shell-pairs
 PrismC was handed    13033110 working-precision words and  3240 shell-pairs
 PrismC was handed    13033110 working-precision words and  3240 shell-pairs
 PrismC was handed    13033110 working-precision words and  3240 shell-pairs
 PrismC was handed    13033110 working-precision words and  3240 shell-pairs
 Enter PrismC: JobTyp=21 DoJE=F Cont=F.
 PrismC was handed    13033110 working-precision words and  3240 shell-pairs
 PrismC:  IPart=     0 DynPar=T LinDyn=F Incr=        1024 UseFst=F UseS4=T IGathr=2.
 PrismC was handed    13033110 working-precision words and  3240 shell-pairs
 PrismC was handed    13033110 working-precision words and  3240 shell-pairs
 PrismC was handed    13033110 working-precision words and  3240 shell-pairs
 PrismC was handed    13033110 working-precision words and  3240 shell-pairs
 PrismC was handed    13033110 working-precision words and  3240 shell-pairs
 Enter PrismC: JobTyp=21 DoJE=F Cont=F.
 PrismC was handed    13033110 working-precision words and  3240 shell-pairs
 PrismC was handed    13033110 working-precision words and  3240 shell-pairs
 PrismC was handed    13033110 working-precision words and  3240 shell-pairs
 PrismC was handed    13033110 working-precision words and  3240 shell-pairs
 PrismC was handed    13033110 working-precision words and  3240 shell-pairs
 PrismC was handed    13033110 working-precision words and  3240 shell-pairs
 PrismC was handed    13033110 working-precision words and  3240 shell-pairs
 PrismC was handed    13033110 working-precision words and  3240 shell-pairs
 IPart=  8 NShTot=      113669 NShNF=      113669 NShFF=           0 NBatch=         846 AvBLen=       134.4
 IPart=  4 NShTot=       85728 NShNF=       85728 NShFF=           0 NBatch=         789 AvBLen=       108.7
 IPart=  2 NShTot=      133268 NShNF=      133268 NShFF=           0 NBatch=        1151 AvBLen=       115.8
 IPart= 27 NShTot=       97272 NShNF=       97272 NShFF=           0 NBatch=         777 AvBLen=       125.2
 IPart= 16 NShTot=      119336 NShNF=      119336 NShFF=           0 NBatch=         819 AvBLen=       145.7
 IPart= 11 NShTot=      103502 NShNF=      103502 NShFF=           0 NBatch=         813 AvBLen=       127.3
 IPart= 25 NShTot=      105098 NShNF=      105098 NShFF=           0 NBatch=         848 AvBLen=       123.9
 IPart= 15 NShTot=      110962 NShNF=      110962 NShFF=           0 NBatch=         805 AvBLen=       137.8
 IPart= 19 NShTot=      128834 NShNF=      128834 NShFF=           0 NBatch=        1217 AvBLen=       105.9
 IPart= 23 NShTot=       88722 NShNF=       88722 NShFF=           0 NBatch=         769 AvBLen=       115.4
 IPart= 14 NShTot=      110949 NShNF=      110949 NShFF=           0 NBatch=         817 AvBLen=       135.8
 IPart= 26 NShTot=      123575 NShNF=      123575 NShFF=           0 NBatch=         977 AvBLen=       126.5
 IPart=  7 NShTot=      154334 NShNF=      154334 NShFF=           0 NBatch=        1198 AvBLen=       128.8
 IPart= 12 NShTot=       95962 NShNF=       95962 NShFF=           0 NBatch=         871 AvBLen=       110.2
 IPart= 29 NShTot=      163061 NShNF=      163061 NShFF=           0 NBatch=        1038 AvBLen=       157.1
 IPart=  3 NShTot=      128506 NShNF=      128506 NShFF=           0 NBatch=         963 AvBLen=       133.4
 IPart= 28 NShTot=      127615 NShNF=      127615 NShFF=           0 NBatch=         905 AvBLen=       141.0
 IPart= 20 NShTot=      122792 NShNF=      122792 NShFF=           0 NBatch=        1201 AvBLen=       102.2
 IPart= 30 NShTot=      109922 NShNF=      109922 NShFF=           0 NBatch=         898 AvBLen=       122.4
 IPart= 31 NShTot=      105487 NShNF=      105487 NShFF=           0 NBatch=         766 AvBLen=       137.7
 IPart= 24 NShTot=      109228 NShNF=      109228 NShFF=           0 NBatch=         800 AvBLen=       136.5
 IPart= 17 NShTot=       86700 NShNF=       86700 NShFF=           0 NBatch=         794 AvBLen=       109.2
 IPart=  9 NShTot=      116973 NShNF=      116973 NShFF=           0 NBatch=         852 AvBLen=       137.3
 IPart= 13 NShTot=      105221 NShNF=      105221 NShFF=           0 NBatch=         846 AvBLen=       124.4
 IPart=  1 NShTot=      100416 NShNF=      100416 NShFF=           0 NBatch=         762 AvBLen=       131.8
 IPart= 10 NShTot=       90582 NShNF=       90582 NShFF=           0 NBatch=         680 AvBLen=       133.2
 IPart=  5 NShTot=       96178 NShNF=       96178 NShFF=           0 NBatch=         840 AvBLen=       114.5
 IPart=  6 NShTot=      114967 NShNF=      114967 NShFF=           0 NBatch=        1106 AvBLen=       103.9
 IPart= 18 NShTot=      162569 NShNF=      162569 NShFF=           0 NBatch=        1008 AvBLen=       161.3
 IPart= 21 NShTot=      133065 NShNF=      133065 NShFF=           0 NBatch=        1373 AvBLen=        96.9
 IPart=  0 NShTot=      123880 NShNF=      123880 NShFF=           0 NBatch=        1235 AvBLen=       100.3
 IPart= 22 NShTot=       96492 NShNF=       96492 NShFF=           0 NBatch=         874 AvBLen=       110.4
 CoulSu:  NxtVal=        5737473.
 FoFCou: FMM=F IPFlag=           0 FMFlag=      100000 FMFlg1=         800
         NFxFlg=           0 DoJE=F BraDBF=F KetDBF=F FulRan=T
         wScrn=  0.000000 ICntrl=    2127 IOpCl=  1 I1Cent=           0 NGrid=           0
         NMat0=    1 NMatS0=      0 NMatT0=    1 NMatD0=    1 NMtDS0=    0 NMtDT0=    0
         CW=    0.222036    0.777964
         WU=    0.000000   12.500000
 Symmetry not used in FoFCou.
 FoFCou:  KetSym=F NOpSet=  1 NOpAb=1 NOp=  1.
 FoFCou:  CnvScl= 1.00D+00 Thresh= 1.00D-10 IAcrcy=      10.
 PrismS was handed   418991978 working-precision words and  3240 shell-pairs
 FoFCou: LinMIO=F DoNuc=F BraDBF=F KetDBF=F HaveP=T PDBF=F HaveZ=T HaveW=F
         NIJTC =      10 NIJTAt=       0 NIJTCD=       0 NIJTT =      10
         IJTBeg=       1 IJTEnd=      10 KLTBeg=       1 KLTEnd=      10
         IPTBeg=       1 IPTEnd=      10 IPTBCv=       1 IPTECv=      10
         IZTBeg=       1 IZTEnd=      10 IZTBCv=       1 IZTECv=      10
         IWTBeg=      11 IWTEnd=      10 IWTBCv=      11 IWTECv=      10
         INTBeg=       1 INTEnd=       0 IFTBCv=       1 IFTECv=      10
 NCel replicated for PrismC:     1
 CoulSu:  IncDef=  1024 NBBP=        5250420 NTPThr=   100 NPartT=   32 Incr=        1024 LDynOK=F.
 CoulSu:  NPrtUS=  32 ThrOK=T IAlg=1 NPAlg=1 LenDen=           0 LWGrdD=           0 DoCopy=F.
 Enter PrismC: JobTyp=21 DoJE=F Cont=F.
 Linear combination for Coulomb/exchange, wScrn=  0.000000
 CW=    0.222036    0.777964
 Enter PrismC: JobTyp=21 DoJE=F Cont=F.
 Enter PrismC: JobTyp=21 DoJE=F Cont=F.
 Enter PrismC: JobTyp=21 DoJE=F Cont=F.
 Linear combination for Coulomb/exchange, wScrn=  0.000000
 CW=    0.222036    0.777964
 Enter PrismC: JobTyp=21 DoJE=F Cont=F.
 Linear combination for Coulomb/exchange, wScrn=  0.000000
 CW=    0.222036    0.777964
 WU=    0.000000   12.500000
 WU=    0.000000   12.500000
 Enter PrismC: JobTyp=21 DoJE=F Cont=F.
 Linear combination for Coulomb/exchange, wScrn=  0.000000
 CW=    0.222036    0.777964
 Enter PrismC: JobTyp=21 DoJE=F Cont=F.
 Linear combination for Coulomb/exchange, wScrn=  0.000000
 CW=    0.222036    0.777964
 WU=    0.000000   12.500000
 Enter PrismC: JobTyp=21 DoJE=F Cont=F.
 Linear combination for Coulomb/exchange, wScrn=  0.000000
 CW=    0.222036    0.777964
 WU=    0.000000   12.500000
 PrismC was handed    13032955 working-precision words and  3240 shell-pairs
 PrismC was handed    13032955 working-precision words and  3240 shell-pairs
 Enter PrismC: JobTyp=21 DoJE=F Cont=F.
 Linear combination for Coulomb/exchange, wScrn=  0.000000
 CW=    0.222036    0.777964
 WU=    0.000000   12.500000
 PrismC was handed    13032955 working-precision words and  3240 shell-pairs
 WU=    0.000000   12.500000
 PrismC was handed    13032955 working-precision words and  3240 shell-pairs
 Enter PrismC: JobTyp=21 DoJE=F Cont=F.
 Linear combination for Coulomb/exchange, wScrn=  0.000000
 CW=    0.222036    0.777964
 WU=    0.000000   12.500000
 PrismC was handed    13032955 working-precision words and  3240 shell-pairs
 Enter PrismC: JobTyp=21 DoJE=F Cont=F.
 Linear combination for Coulomb/exchange, wScrn=  0.000000
 CW=    0.222036    0.777964
 WU=    0.000000   12.500000
 PrismC was handed    13032955 working-precision words and  3240 shell-pairs
 WU=    0.000000   12.500000
 Enter PrismC: JobTyp=21 DoJE=F Cont=F.
 Linear combination for Coulomb/exchange, wScrn=  0.000000
 CW=    0.222036    0.777964
 WU=    0.000000   12.500000
 PrismC was handed    13032955 working-precision words and  3240 shell-pairs
 Enter PrismC: JobTyp=21 DoJE=F Cont=F.
 Linear combination for Coulomb/exchange, wScrn=  0.000000
 CW=    0.222036    0.777964
 WU=    0.000000   12.500000
 PrismC was handed    13032955 working-precision words and  3240 shell-pairs
 Enter PrismC: JobTyp=21 DoJE=F Cont=F.
 Linear combination for Coulomb/exchange, wScrn=  0.000000
 CW=    0.222036    0.777964
 WU=    0.000000   12.500000
 PrismC was handed    13032955 working-precision words and  3240 shell-pairs
 Enter PrismC: JobTyp=21 DoJE=F Cont=F.
 Linear combination for Coulomb/exchange, wScrn=  0.000000
 CW=    0.222036    0.777964
 WU=    0.000000   12.500000
 PrismC was handed    13032955 working-precision words and  3240 shell-pairs
 PrismC was handed    13032955 working-precision words and  3240 shell-pairs
 Enter PrismC: JobTyp=21 DoJE=F Cont=F.
 Linear combination for Coulomb/exchange, wScrn=  0.000000
 CW=    0.222036    0.777964
 WU=    0.000000   12.500000
 PrismC was handed    13032955 working-precision words and  3240 shell-pairs
 Linear combination for Coulomb/exchange, wScrn=  0.000000
 Linear combination for Coulomb/exchange, wScrn=  0.000000
 CW=    0.222036    0.777964
 WU=    0.000000   12.500000
 PrismC was handed    13032955 working-precision words and  3240 shell-pairs
 Enter PrismC: JobTyp=21 DoJE=F Cont=F.
 Linear combination for Coulomb/exchange, wScrn=  0.000000
 CW=    0.222036    0.777964
 WU=    0.000000   12.500000
 PrismC was handed    13032955 working-precision words and  3240 shell-pairs
 Enter PrismC: JobTyp=21 DoJE=F Cont=F.
 Linear combination for Coulomb/exchange, wScrn=  0.000000
 CW=    0.222036    0.777964
 WU=    0.000000   12.500000
 PrismC was handed    13032955 working-precision words and  3240 shell-pairs
 PrismC was handed    13032955 working-precision words and  3240 shell-pairs
 PrismC was handed    13032955 working-precision words and  3240 shell-pairs
 Enter PrismC: JobTyp=21 DoJE=F Cont=F.
 Linear combination for Coulomb/exchange, wScrn=  0.000000
 CW=    0.222036    0.777964
 WU=    0.000000   12.500000
 PrismC was handed    13032955 working-precision words and  3240 shell-pairs
 Enter PrismC: JobTyp=21 DoJE=F Cont=F.
 Linear combination for Coulomb/exchange, wScrn=  0.000000
 CW=    0.222036    0.777964
 Enter PrismC: JobTyp=21 DoJE=F Cont=F.
 Linear combination for Coulomb/exchange, wScrn=  0.000000
 CW=    0.222036    0.777964
 WU=    0.000000   12.500000
 PrismC was handed    13032955 working-precision words and  3240 shell-pairs
 Enter PrismC: JobTyp=21 DoJE=F Cont=F.
 Linear combination for Coulomb/exchange, wScrn=  0.000000
 CW=    0.222036    0.777964
 WU=    0.000000   12.500000
 PrismC was handed    13032955 working-precision words and  3240 shell-pairs
 Enter PrismC: JobTyp=21 DoJE=F Cont=F.
 Linear combination for Coulomb/exchange, wScrn=  0.000000
 CW=    0.222036    0.777964
 WU=    0.000000   12.500000
 Enter PrismC: JobTyp=21 DoJE=F Cont=F.
 Linear combination for Coulomb/exchange, wScrn=  0.000000
 CW=    0.222036    0.777964
 Enter PrismC: JobTyp=21 DoJE=F Cont=F.
 Enter PrismC: JobTyp=21 DoJE=F Cont=F.
 Linear combination for Coulomb/exchange, wScrn=  0.000000
 CW=    0.222036    0.777964
 WU=    0.000000   12.500000
 PrismC was handed    13032955 working-precision words and  3240 shell-pairs
 Enter PrismC: JobTyp=21 DoJE=F Cont=F.
 Linear combination for Coulomb/exchange, wScrn=  0.000000
 CW=    0.222036    0.777964
 WU=    0.000000   12.500000
 Enter PrismC: JobTyp=21 DoJE=F Cont=F.
 Enter PrismC: JobTyp=21 DoJE=F Cont=F.
 WU=    0.000000   12.500000
 PrismC was handed    13032955 working-precision words and  3240 shell-pairs
 Linear combination for Coulomb/exchange, wScrn=  0.000000
 CW=    0.222036    0.777964
 WU=    0.000000   12.500000
 PrismC was handed    13032955 working-precision words and  3240 shell-pairs
 PrismC was handed    13032955 working-precision words and  3240 shell-pairs
 CW=    0.222036    0.777964
 WU=    0.000000   12.500000
 PrismC:  IPart=     0 DynPar=T LinDyn=F Incr=        1024 UseFst=F UseS4=T IGathr=2.
 PrismC was handed    13032955 working-precision words and  3240 shell-pairs
 Enter PrismC: JobTyp=21 DoJE=F Cont=F.
 Linear combination for Coulomb/exchange, wScrn=  0.000000
 CW=    0.222036    0.777964
 WU=    0.000000   12.500000
 WU=    0.000000   12.500000
 Enter PrismC: JobTyp=21 DoJE=F Cont=F.
 Linear combination for Coulomb/exchange, wScrn=  0.000000
 CW=    0.222036    0.777964
 WU=    0.000000   12.500000
 PrismC was handed    13032955 working-precision words and  3240 shell-pairs
 PrismC was handed    13032955 working-precision words and  3240 shell-pairs
 Linear combination for Coulomb/exchange, wScrn=  0.000000
 CW=    0.222036    0.777964
 WU=    0.000000   12.500000
 PrismC was handed    13032955 working-precision words and  3240 shell-pairs
 PrismC was handed    13032955 working-precision words and  3240 shell-pairs
 PrismC was handed    13032955 working-precision words and  3240 shell-pairs
 Linear combination for Coulomb/exchange, wScrn=  0.000000
 CW=    0.222036    0.777964
 WU=    0.000000   12.500000
 PrismC was handed    13032955 working-precision words and  3240 shell-pairs
 Enter PrismC: JobTyp=21 DoJE=F Cont=F.
 Linear combination for Coulomb/exchange, wScrn=  0.000000
 CW=    0.222036    0.777964
 WU=    0.000000   12.500000
 PrismC was handed    13032955 working-precision words and  3240 shell-pairs
 IPart= 20 NShTot=      150781 NShNF=      150781 NShFF=           0 NBatch=        1124 AvBLen=       134.1
 IPart= 31 NShTot=      133462 NShNF=      133462 NShFF=           0 NBatch=        1225 AvBLen=       108.9
 IPart=  3 NShTot=      108261 NShNF=      108261 NShFF=           0 NBatch=        1021 AvBLen=       106.0
 IPart=  9 NShTot=       95588 NShNF=       95588 NShFF=           0 NBatch=        1022 AvBLen=        93.5
 IPart= 19 NShTot=      112642 NShNF=      112642 NShFF=           0 NBatch=        1152 AvBLen=        97.8
 IPart= 23 NShTot=      114285 NShNF=      114285 NShFF=           0 NBatch=        1066 AvBLen=       107.2
 IPart= 30 NShTot=      119476 NShNF=      119476 NShFF=           0 NBatch=        1233 AvBLen=        96.9
 IPart= 26 NShTot=      109674 NShNF=      109674 NShFF=           0 NBatch=        1196 AvBLen=        91.7
 IPart= 14 NShTot=      102464 NShNF=      102464 NShFF=           0 NBatch=        1142 AvBLen=        89.7
 IPart= 28 NShTot=       88648 NShNF=       88648 NShFF=           0 NBatch=        1034 AvBLen=        85.7
 IPart= 22 NShTot=      114826 NShNF=      114826 NShFF=           0 NBatch=        1158 AvBLen=        99.2
 IPart= 27 NShTot=       88252 NShNF=       88252 NShFF=           0 NBatch=        1032 AvBLen=        85.5
 IPart= 25 NShTot=      124491 NShNF=      124491 NShFF=           0 NBatch=        1106 AvBLen=       112.6
 IPart= 11 NShTot=      181059 NShNF=      181059 NShFF=           0 NBatch=        1580 AvBLen=       114.6
 IPart=  1 NShTot=      126999 NShNF=      126999 NShFF=           0 NBatch=        1224 AvBLen=       103.8
 IPart= 13 NShTot=      128994 NShNF=      128994 NShFF=           0 NBatch=        1007 AvBLen=       128.1
 IPart=  7 NShTot=      104558 NShNF=      104558 NShFF=           0 NBatch=        1135 AvBLen=        92.1
 IPart= 24 NShTot=      121753 NShNF=      121753 NShFF=           0 NBatch=        1276 AvBLen=        95.4
 IPart= 17 NShTot=       93735 NShNF=       93735 NShFF=           0 NBatch=         960 AvBLen=        97.6
 IPart=  8 NShTot=       95551 NShNF=       95551 NShFF=           0 NBatch=        1002 AvBLen=        95.4
 IPart=  0 NShTot=      111460 NShNF=      111460 NShFF=           0 NBatch=        1190 AvBLen=        93.7
 IPart= 18 NShTot=      109057 NShNF=      109057 NShFF=           0 NBatch=        1180 AvBLen=        92.4
 IPart=  6 NShTot=      103140 NShNF=      103140 NShFF=           0 NBatch=        1018 AvBLen=       101.3
 IPart=  2 NShTot=      137284 NShNF=      137284 NShFF=           0 NBatch=        1354 AvBLen=       101.4
 IPart= 21 NShTot=       97592 NShNF=       97592 NShFF=           0 NBatch=         915 AvBLen=       106.7
 IPart= 15 NShTot=      116447 NShNF=      116447 NShFF=           0 NBatch=        1251 AvBLen=        93.1
 IPart=  4 NShTot=      131940 NShNF=      131940 NShFF=           0 NBatch=        1300 AvBLen=       101.5
 IPart=  5 NShTot=       88055 NShNF=       88055 NShFF=           0 NBatch=         962 AvBLen=        91.5
 IPart= 16 NShTot=      118742 NShNF=      118742 NShFF=           0 NBatch=         947 AvBLen=       125.4
 IPart= 12 NShTot=      112962 NShNF=      112962 NShFF=           0 NBatch=        1238 AvBLen=        91.2
 IPart= 29 NShTot=      116124 NShNF=      116124 NShFF=           0 NBatch=        1094 AvBLen=       106.1
 IPart= 10 NShTot=       81310 NShNF=       81310 NShFF=           0 NBatch=         946 AvBLen=        86.0
 CoulSu:  NxtVal=        5737473.
 ReadGW:  IGet=0 IStart=           1 Next=           1 LGW=           0.
 Remaining memory in FofDFT      399.83 Mw
 CkSvGd:  ISavGI=        -1 IRadAn=       5 IRASav=       5 ISavGd=        -1.
 CalDSu:  NPrtUS=  32 ThrOK=T IAlg=1 NPAlg=2 DoDPD=T LenP=       45150 LenD1P=             0.
 IPart=  0 IRanGd=          0 ScrnBf=T ScrnGd=T RCrit=4.00D+00 DoMicB=T.
 IPart= 25         6579 of         8308 points in      14 batches and       38 microbatches, Max-NSigAt=      12 Max-NSgAt2=      12
 IPart=  0         6920 of         7294 points in      12 batches and       40 microbatches, Max-NSigAt=      12 Max-NSgAt2=      12
 IPart=  6         7756 of         8506 points in      13 batches and       62 microbatches, Max-NSigAt=      12 Max-NSgAt2=      12
 IPart= 17         6074 of         6984 points in      11 batches and       59 microbatches, Max-NSigAt=      12 Max-NSgAt2=      12
 IPart=  8         6949 of         7216 points in      11 batches and       42 microbatches, Max-NSigAt=      12 Max-NSgAt2=      12
 IPart= 24         6824 of         7492 points in      12 batches and       50 microbatches, Max-NSigAt=      12 Max-NSgAt2=      12
 IPart= 26         8048 of         8938 points in      14 batches and       89 microbatches, Max-NSigAt=      12 Max-NSgAt2=      12
 IPart= 16         9458 of        11154 points in      17 batches and       75 microbatches, Max-NSigAt=      12 Max-NSgAt2=      12
 IPart= 15        13815 of        16668 points in      26 batches and       71 microbatches, Max-NSigAt=      12 Max-NSgAt2=      12
 IPart=  1         9263 of        11656 points in      18 batches and       30 microbatches, Max-NSigAt=      12 Max-NSgAt2=      12
 IPart= 12         7310 of         7646 points in      11 batches and       35 microbatches, Max-NSigAt=      12 Max-NSgAt2=      12
 IPart= 27         6536 of         7136 points in      12 batches and       43 microbatches, Max-NSigAt=      12 Max-NSgAt2=      12
 IPart= 30         7434 of         9256 points in      13 batches and       20 microbatches, Max-NSigAt=      12 Max-NSgAt2=      12
 IPart= 11        13026 of        16320 points in      23 batches and      107 microbatches, Max-NSigAt=      12 Max-NSgAt2=      12
 IPart= 20         8485 of         9274 points in      13 batches and       53 microbatches, Max-NSigAt=      12 Max-NSgAt2=      12
 IPart= 14         6967 of         7488 points in      12 batches and       49 microbatches, Max-NSigAt=      12 Max-NSgAt2=      12
 IPart= 19         7612 of         8228 points in      13 batches and       45 microbatches, Max-NSigAt=      12 Max-NSgAt2=      12
 IPart= 10         6333 of         6874 points in      11 batches and       38 microbatches, Max-NSigAt=      12 Max-NSgAt2=      12
 IPart=  5         8862 of         9812 points in      16 batches and       62 microbatches, Max-NSigAt=      12 Max-NSgAt2=      12
 IPart= 21         5864 of         6732 points in      11 batches and       64 microbatches, Max-NSigAt=      12 Max-NSgAt2=      12
 IPart= 28         5873 of         6518 points in      11 batches and       65 microbatches, Max-NSigAt=      12 Max-NSgAt2=      12
 IPart=  4         7751 of         8628 points in      13 batches and       63 microbatches, Max-NSigAt=      12 Max-NSgAt2=      12
 IPart=  2         7908 of         8586 points in      14 batches and       44 microbatches, Max-NSigAt=      12 Max-NSgAt2=      12
 IPart=  7         7389 of         7832 points in      12 batches and       68 microbatches, Max-NSigAt=      12 Max-NSgAt2=      12
 IPart= 18         6780 of         7164 points in      11 batches and       44 microbatches, Max-NSigAt=      12 Max-NSgAt2=      12
 IPart= 23         5925 of         8696 points in      13 batches and       41 microbatches, Max-NSigAt=      12 Max-NSgAt2=      12
 IPart= 13        11367 of        12258 points in      18 batches and       76 microbatches, Max-NSigAt=      12 Max-NSgAt2=      12
 IPart= 31         8114 of         8846 points in      14 batches and       51 microbatches, Max-NSigAt=      12 Max-NSgAt2=      12
 IPart= 22         8686 of         9592 points in      14 batches and       50 microbatches, Max-NSigAt=      12 Max-NSgAt2=      12
 IPart=  3         6760 of         7176 points in      12 batches and       44 microbatches, Max-NSigAt=      12 Max-NSgAt2=      12
 IPart= 29         7235 of         7748 points in      12 batches and       55 microbatches, Max-NSigAt=      12 Max-NSgAt2=      12
 IPart=  9         5472 of         5970 points in      10 batches and       54 microbatches, Max-NSigAt=      12 Max-NSgAt2=      12
 Forces at end of L703
 I=    0 X=  -5.295513372123D-01 Y=   1.389193405750D-01 Z=  -1.622377511720D-01
 I=    1 X=  -3.502867721001D-04 Y=  -1.643127496469D-03 Z=   3.873156540282D-04
 I=    2 X=   6.264492711283D-05 Y=   7.877847067424D-04 Z=  -1.782839841775D-04
 I=    3 X=   1.315699742706D-04 Y=   4.250927217283D-04 Z=  -1.954452232142D-04
 I=    4 X=   2.137563866547D-04 Y=   7.510816125458D-04 Z=  -1.203659036080D-04
 I=    5 X=  -6.084591096966D-05 Y=  -3.220612318515D-04 Z=   1.060441730076D-04
 I=    6 X=   8.754394647698D-04 Y=   3.435710822182D-03 Z=   1.166622975661D-03
 I=    7 X=  -2.717666152011D-04 Y=  -1.215180896083D-03 Z=  -6.861363617716D-04
 I=    8 X=  -3.474532091343D-04 Y=  -1.258145945200D-03 Z=  -4.090768945477D-04
 I=    9 X=  -2.958368011605D-04 Y=  -1.240253458935D-03 Z=  -3.731211370113D-04
 I=   10 X=  -2.465580614347D-05 Y=   9.268623609326D-05 Z=   1.633518496471D-04
 I=   11 X=   3.755419261453D-05 Y=   9.600487518835D-05 Z=   8.516674516379D-05
 I=   12 X=   2.988016929928D-05 Y=   9.040805404903D-05 Z=   5.392810680260D-05
 FrcOut:
 IF    =    64 IFX   =   100 IFXYZ =   136
 IFFX  =   172 IFFFX =   172 IFLen =    36
 IFFLen=     0 IFFFLn=     0 IEDerv=   172
 LEDerv=  1781 IFroze=  2359 ICStrt=146684
 -------------------------------------------------------------------
 Center     Atomic                   Forces (Hartrees/Bohr)
 Number     Number              X              Y              Z
 -------------------------------------------------------------------
      1        6           0.000350287    0.001643127   -0.000387316
      2        8          -0.000062645   -0.000787785    0.000178284
      3        1          -0.000131570   -0.000425093    0.000195445
      4        1          -0.000213756   -0.000751082    0.000120366
      5        1           0.000060846    0.000322061   -0.000106044
      6        6          -0.000875439   -0.003435711   -0.001166623
      7        6           0.000271767    0.001215181    0.000686136
      8        1           0.000347453    0.001258146    0.000409077
      9        1           0.000295837    0.001240253    0.000373121
     10        1           0.000024656   -0.000092686   -0.000163352
     11        1          -0.000037554   -0.000096005   -0.000085167
     12        1          -0.000029880   -0.000090408   -0.000053928
 -------------------------------------------------------------------
 Cartesian Forces:  Max     0.003435711 RMS     0.000820951
 From PutF, contents of force:
   1    0.7223981117D-04
   2   -0.1987599036D-03
   3   -0.2216461817D-03
   4   -0.7436597887D-04
   5   -0.2579572254D-03
   6   -0.3315687829D-04
   7   -0.1553511122D-03
   8   -0.1362559973D-02
   9   -0.1680931960D-03
  10   -0.1772132136D-03
  11   -0.1364835162D-03
  12    0.1621991417D-03
  13   -0.1485449719D-04
  14   -0.4453491723D-04
  15    0.4796839605D-03
  16    0.3871228915D-03
  17    0.1983262339D-03
  18    0.1403986186D-03
  19    0.1044567992D-03
  20    0.2308853164D-02
  21   -0.2185621510D-03
  22    0.1649000057D-03
  23    0.6758613391D-05
  24    0.1219675220D-04
  25    0.4115490977D-04
  26   -0.5533135670D-03
  27   -0.9441330250D-04
  28    0.1423716184D-04
  29   -0.1752793284D-04
  30    0.2092849359D-05
 -----------------------------------------------------------------------------------------------
                       Internal Coordinate Forces (Hartree/Bohr or radian)
  Cent   Atom   N1       Length/X         N2         Alpha/Y        N3         Beta/Z          J
 -----------------------------------------------------------------------------------------------
      1  C 
      2  O        1   0.000072(     1)
      3  H        1  -0.000199(     2)      2  -0.000258(    12)
      4  H        1  -0.000222(     3)      2  -0.000033(    13)      3  -0.001363(    22)     0
      5  H        2  -0.000074(     4)      1  -0.000155(    14)      3  -0.000553(    23)     0
      6  C        1   0.000002(     5)      2  -0.000018(    15)      3   0.000014(    24)     0
      7  C        6  -0.000168(     6)      1   0.000007(    16)      2   0.000012(    25)     0
      8  H        6  -0.000177(     7)      7   0.000480(    17)      1   0.000041(    26)     0
      9  H        6  -0.000136(     8)      7   0.000387(    18)      8   0.002309(    27)     0
     10  H        7   0.000162(     9)      6   0.000198(    19)      8  -0.000094(    28)     0
     11  H        7  -0.000015(    10)      6   0.000140(    20)     10  -0.000219(    29)     0
     12  H        7  -0.000045(    11)      6   0.000104(    21)     10   0.000165(    30)     0
 -----------------------------------------------------------------------------------------------
 Internal  Forces:  Max     0.002308853 RMS     0.000526867
 Final forces over variables, Energy=-1.94229234D+02:
  7.22398112D-05-1.98759904D-04-2.21646182D-04-7.43659789D-05
 -2.57957225D-04-3.31568783D-05-1.55351112D-04-1.36255997D-03
 -1.68093196D-04-1.77213214D-04-1.36483516D-04 1.62199142D-04
 -1.48544972D-05-4.45349172D-05 4.79683960D-04 3.87122891D-04
  1.98326234D-04 1.40398619D-04 1.04456799D-04 2.30885316D-03
 -2.18562151D-04 1.64900006D-04 6.75861339D-06 1.21967522D-05
  4.11549098D-05-5.53313567D-04-9.44133025D-05 1.42371618D-05
 -1.75279328D-05 2.09284936D-06

 GradGradGradGradGradGradGradGradGradGradGradGradGradGradGradGradGradGrad
 Berny optimization.
 Search for a local minimum.
 Step number   2 out of a maximum of   50
 All quantities printed in internal units (Hartrees-Bohrs-Radians)
 Update second derivatives using D2CorN and points    1    2
 DE= -1.23D-04 DEPred=-7.33D-05 R= 1.67D+00
 TightC=F SS=  1.41D+00  RLast= 4.47D-02 DXNew= 5.0454D-01 1.3406D-01
 Trust test= 1.67D+00 RLast= 4.47D-02 DXMaxT set to 3.00D-01
 ITU=  1  0
     Eigenvalues ---    0.00893   0.01908   0.04285   0.06213   0.10029
     Eigenvalues ---    0.13546   0.14100   0.14493   0.16020   0.16361
     Eigenvalues ---    0.24777   0.29497   0.30935   0.33855   0.33914
     Eigenvalues ---    0.34686   0.34744   0.34863   0.35749   0.35882
     Eigenvalues ---    0.35973   0.36217   0.38357   0.38672   0.39632
     Eigenvalues ---    0.45845   0.47214   0.53614   0.560821000.00000
 RFO step:  Lambda=-1.88953812D-04 EMin= 8.93493968D-03
 Quartic linear search produced a step of  2.00000.
 Variable       Old X    -DE/DX   Delta X   Delta X   Delta X     New X
                                 (Linear)    (Quad)   (Total)
    R1        2.56603   0.00007   0.00448  -0.00375   0.00073   2.56676
    R2        2.03908  -0.00020   0.00277  -0.00477  -0.00200   2.03707
    R3        2.04703  -0.00022   0.00394  -0.00615  -0.00221   2.04482
    R4        1.80938  -0.00007   0.00106  -0.00154  -0.00048   1.80889
    A2        1.98228  -0.00026   0.00225   0.00011   0.00236   1.98464
    A3        2.07020  -0.00003  -0.00102   0.00571   0.00468   2.07488
    A4        1.91810  -0.00016   0.00494  -0.00808  -0.00314   1.91496
    D3        3.66044  -0.00136  -0.03034  -0.02226  -0.05260   3.60784
   R21        2.80249  -0.00017  -0.00940   0.00680  -0.00260   2.79988
   R22        2.04377  -0.00018   0.00194  -0.00378  -0.00184   2.04193
   R23        2.04343  -0.00014   0.00391  -0.00517  -0.00126   2.04217
   R24        2.07570   0.00016   0.00004   0.00186   0.00190   2.07760
   R25        2.06180  -0.00001  -0.00016  -0.00002  -0.00018   2.06162
   R26        2.06116  -0.00004   0.00044  -0.00092  -0.00048   2.06068
   A22        2.09607   0.00048   0.00724   0.00460   0.01184   2.10791
   A23        2.09856   0.00039   0.00287   0.00888   0.01176   2.11031
   A24        1.94450   0.00020  -0.00915   0.00867  -0.00048   1.94402
   A25        1.95014   0.00014   0.00072   0.00297   0.00369   1.95383
   A26        1.95102   0.00010   0.00484  -0.00324   0.00160   1.95262
   D23        2.81670   0.00231   0.06433   0.06487   0.12920   2.94590
   D25        2.07939  -0.00022  -0.00649   0.00599  -0.00050   2.07889
   D26        4.20047   0.00016   0.00440   0.00187   0.00627   4.20675
   ANG2       1.76337   0.00001  -0.01411  -0.01535  -0.02946   1.73392
   DH2        3.34263   0.00001  -0.00009   0.00002  -0.00008   3.34255
   DH3        1.77026   0.00004  -0.03164  -0.03699  -0.06863   1.70163
    D4        3.07937  -0.00055  -0.00565  -0.00346  -0.00910   3.07027
   D24        4.90122  -0.00009  -0.03351  -0.04748  -0.08099   4.82023
   DH1        1.81676   0.00001  -0.01123  -0.01153  -0.02276   1.79400
   ANG1       1.98126  -0.00002  -0.00586  -0.00530  -0.01116   1.97010
    BB       18.89726   0.00000   0.00000   0.00000   0.00000  18.89726
         Item               Value     Threshold  Converged?
 Maximum Force            0.002309     0.000450     NO 
 RMS     Force            0.000536     0.000300     NO 
 Maximum Displacement     0.129199     0.001800     NO 
 RMS     Displacement     0.033025     0.001200     NO 
 Predicted change in Energy=-2.072410D-04
 GradGradGradGradGradGradGradGradGradGradGradGradGradGradGradGradGradGrad

 ---------------------------------------------------------------------------------------------------
                            Z-MATRIX (ANGSTROMS AND DEGREES)
   CD    Cent   Atom    N1       Length/X        N2       Alpha/Y        N3        Beta/Z          J
 ---------------------------------------------------------------------------------------------------
      1      1  C 
      2      2  O        1   1.358269(     1)
      3      3  H        1   1.077973(     2)      2  113.712(    12)
      4      4  H        1   1.082074(     3)      2  118.882(    13)      3  206.714(    22)      0
      5      5  H        2   0.957225(     4)      1  109.719(    14)      3  175.913(    23)      0
      6      6  C        1  10.000000(     5)      2  112.879(    15)      3  102.789(    24)      0
      7      7  C        6   1.481635(     6)      1   99.346(    16)      2  191.514(    25)      0
      8      8  H        6   1.080543(     7)      7  120.774(    17)      1   97.496(    26)      0
      9      9  H        6   1.080671(     8)      7  120.912(    18)      8  168.788(    27)      0
     10     10  H        7   1.099418(     9)      6  111.384(    19)      8  276.179(    28)      0
     11     11  H        7   1.090962(    10)      6  111.946(    20)     10  119.111(    29)      0
     12     12  H        7   1.090464(    11)      6  111.877(    21)     10  241.029(    30)      0
 ---------------------------------------------------------------------------------------------------
                         Z-Matrix orientation:                         
 ---------------------------------------------------------------------
 Center     Atomic      Atomic             Coordinates (Angstroms)
 Number     Number       Type             X           Y           Z
 ---------------------------------------------------------------------
      1          6           0        0.000000    0.000000    0.000000
      2          8           0        0.000000    0.000000    1.358269
      3          1           0        0.986972    0.000000   -0.433489
      4          1           0       -0.846351    0.425925   -0.522649
      5          1           0       -0.898800    0.064215    1.681246
      6          6           0       -2.039449   -8.984751   -3.887788
      7          6           0       -1.680653   -8.722410   -5.301183
      8          1           0       -3.066938   -8.927145   -3.558366
      9          1           0       -1.320490   -9.410226   -3.202282
     10          1           0       -1.813825   -9.620065   -5.921829
     11          1           0       -2.305590   -7.944908   -5.742932
     12          1           0       -0.636458   -8.426530   -5.407126
 ---------------------------------------------------------------------
                    Distance matrix (angstroms):
                    1          2          3          4          5
     1  C    0.000000
     2  O    1.358269   0.000000
     3  H    1.077973   2.045607   0.000000
     4  H    1.082074   2.106080   1.884260   0.000000
     5  H    1.907499   0.957225   2.834142   2.233995   0.000000
     6  C   10.000000  10.602180  10.090449  10.065211  10.686393
     7  C   10.344446  11.101951  10.338815  10.354829  11.250350
     8  H   10.087715  10.642994  10.290431  10.080997  10.630094
     9  H   10.027496  10.540146  10.076853  10.205642  10.667319
    10  H   11.441314  12.199812  11.424184  11.445919  12.346225
    11  H   10.070679  10.902493  10.107063   9.972541  11.011063
    12  H   10.032372  10.825066   9.918619  10.112771  11.063751
                    6          7          8          9         10
     6  C    0.000000
     7  C    1.481635   0.000000
     8  H    1.080543   2.236317   0.000000
     9  H    1.080671   2.237899   1.846685   0.000000
    10  H    2.142860   1.099418   2.763401   2.771885   0.000000
    11  H    2.143283   1.090962   2.513318   3.093942   1.754989
    12  H    2.142051   1.090464   3.094473   2.509362   1.753749
                   11         12
    11  H    0.000000
    12  H    1.769386   0.000000
 Symmetry turned off by external request.
 Stoichiometry    C3H8O(3)
 Framework group  C1[X(C3H8O)]
 Deg. of freedom    30
 Full point group                 C1      NOp   1
 Rotational constants (GHZ):     13.4287429      0.3021608      0.2975731
 Standard basis: Jun-CC-pVTZ (5D, 7F)
   268 basis functions,   384 primitive gaussians,   300 cartesian basis functions
    18 alpha electrons       16 beta electrons
       nuclear repulsion energy        86.9842179772 Hartrees.
 NAtoms=   12 NActive=   12 NUniq=   12 SFac= 1.00D+00 NAtFMM=   60 NAOKFM=F Big=F
 Integral buffers will be    131072 words long.
 Raffenetti 2 integral format.
 Two-electron integral symmetry is turned off.
 Nuclear repulsion after empirical dispersion term =       86.9824678654 Hartrees.
 One-electron integrals computed using PRISM.
 NBasis=   268 RedAO= T EigKep=  1.13D-04  NBF=   268
 NBsUse=   268 1.00D-06 EigRej= -1.00D+00 NBFU=   268
 Initial guess from the checkpoint file:  "tmp.chk"
 B after Tr=     0.001843    0.013343    0.019738
         Rot=    0.999924    0.004798   -0.000790   -0.011311 Ang=   1.41 deg.
 Initial guess <Sx>= 0.0000 <Sy>= 0.0000 <Sz>= 1.0000 <S**2>= 2.0085 S= 1.0028
 ExpMin= 3.57D-02 ExpMax= 1.53D+04 ExpMxC= 5.22D+02 IAcc=3 IRadAn=         5 AccDes= 0.00D+00
 Harris functional with IExCor= 4639 and IRadAn=       5 diagonalized for initial guess.
 HarFok:  IExCor= 4639 AccDes= 0.00D+00 IRadAn=         5 IDoV= 1 UseB2=F ITyADJ=14
 ICtDFT=  3500011 ScaDFX=  1.000000  1.000000  1.000000  1.000000
 FoFCou: FMM=F IPFlag=           0 FMFlag=      100000 FMFlg1=           0
         NFxFlg=           0 DoJE=T BraDBF=F KetDBF=T FulRan=T
         wScrn=  0.000000 ICntrl=     500 IOpCl=  0 I1Cent=   200000004 NGrid=           0
         NMat0=    1 NMatS0=      1 NMatT0=    0 NMatD0=    1 NMtDS0=    0 NMtDT0=    0
 Symmetry not used in FoFCou.
 Requested convergence on RMS density matrix=1.00D-08 within 128 cycles.
 Requested convergence on MAX density matrix=1.00D-06.
 Requested convergence on             energy=1.00D-06.
 No special actions if energy rises.
 SCF Done:  E(UwB97XD) =  -194.229469251     A.U. after   11 cycles
            NFock= 11  Conv=0.47D-08     -V/T= 2.0065
 <Sx>= 0.0000 <Sy>= 0.0000 <Sz>= 1.0000 <S**2>= 2.0087 S= 1.0029
 <L.S>=  0.00000000000    
 Annihilation of the first spin contaminant:
 S**2 before annihilation     2.0087,   after     2.0000
 DipInt: DoE/N= T T RetVal/Mat= T F Init=T NMatP=  1 IDeriv=0 Min/MaxMlt=  1  1
 Entering OneElI...
 Multipole integrals L=1 to 1 MinM= 0 MaxM= 0.
 Requested accuracy = 0.1000D-12
 PrsmSu:  NPrtUS=   1 ThrOK=F IAlg=1 NPAlg=1 LenDen=           0.
 Prism:   IPart=     0 DynPar=F LinDyn=F Incr=          34.
 PRISM was handed   419084024 working-precision words and  3442 shell-pairs
 IPart=  0 NShTot=        3442 NBatch=          53 AvBLen=        64.9
 PrSmSu:  NxtVal=             35.
 Entering OneElI...
 Calculate overlap and kinetic energy integrals
    NBasis = 300  MinDer = 1  MaxDer = 1
 Requested accuracy = 0.1000D-12
 PrsmSu:  NPrtUS=  32 ThrOK=T IAlg=1 NPAlg=1 LenDen=           0.
 PRISM was handed    13023149 working-precision words and  3685 shell-pairs
 PRISM was handed    13023149 working-precision words and  3685 shell-pairs
 PRISM was handed    13023149 working-precision words and  3685 shell-pairs
 PRISM was handed    13023149 working-precision words and  3685 shell-pairs
 Prism:   IPart=     0 DynPar=F LinDyn=F Incr=           1.
 PRISM was handed    13023149 working-precision words and  3685 shell-pairs
 PRISM was handed    13023149 working-precision words and  3685 shell-pairs
 IPart= 22 NShTot=         104 NBatch=          20 AvBLen=         5.2
 PRISM was handed    13023149 working-precision words and  3685 shell-pairs
 PRISM was handed    13023149 working-precision words and  3685 shell-pairs
 PRISM was handed    13023149 working-precision words and  3685 shell-pairs
 IPart=  3 NShTot=         144 NBatch=          42 AvBLen=         3.4
 PRISM was handed    13023149 working-precision words and  3685 shell-pairs
 PRISM was handed    13023149 working-precision words and  3685 shell-pairs
 PRISM was handed    13023149 working-precision words and  3685 shell-pairs
 PRISM was handed    13023149 working-precision words and  3685 shell-pairs
 IPart= 13 NShTot=         114 NBatch=          21 AvBLen=         5.4
 PRISM was handed    13023149 working-precision words and  3685 shell-pairs
 IPart= 10 NShTot=         116 NBatch=          21 AvBLen=         5.5
 PRISM was handed    13023149 working-precision words and  3685 shell-pairs
 PRISM was handed    13023149 working-precision words and  3685 shell-pairs
 PRISM was handed    13023149 working-precision words and  3685 shell-pairs
 IPart= 23 NShTot=         104 NBatch=          20 AvBLen=         5.2
 IPart= 11 NShTot=         116 NBatch=          21 AvBLen=         5.5
 PRISM was handed    13023149 working-precision words and  3685 shell-pairs
 PRISM was handed    13023149 working-precision words and  3685 shell-pairs
 PRISM was handed    13023149 working-precision words and  3685 shell-pairs
 PRISM was handed    13023149 working-precision words and  3685 shell-pairs
 PRISM was handed    13023149 working-precision words and  3685 shell-pairs
 PRISM was handed    13023149 working-precision words and  3685 shell-pairs
 PRISM was handed    13023149 working-precision words and  3685 shell-pairs
 PRISM was handed    13023149 working-precision words and  3685 shell-pairs
 PRISM was handed    13023149 working-precision words and  3685 shell-pairs
 PRISM was handed    13023149 working-precision words and  3685 shell-pairs
 PRISM was handed    13023149 working-precision words and  3685 shell-pairs
 PRISM was handed    13023149 working-precision words and  3685 shell-pairs
 PRISM was handed    13023149 working-precision words and  3685 shell-pairs
 PRISM was handed    13023149 working-precision words and  3685 shell-pairs
 PRISM was handed    13023149 working-precision words and  3685 shell-pairs
 IPart= 16 NShTot=         107 NBatch=          20 AvBLen=         5.3
 IPart= 20 NShTot=         106 NBatch=          20 AvBLen=         5.3
 IPart= 26 NShTot=         103 NBatch=          20 AvBLen=         5.2
 IPart=  4 NShTot=         134 NBatch=          33 AvBLen=         4.1
 IPart=  6 NShTot=         127 NBatch=          29 AvBLen=         4.4
 IPart=  1 NShTot=         147 NBatch=          45 AvBLen=         3.3
 IPart= 31 NShTot=         102 NBatch=          20 AvBLen=         5.1
 IPart=  8 NShTot=         118 NBatch=          22 AvBLen=         5.4
 IPart= 24 NShTot=         104 NBatch=          20 AvBLen=         5.2
 IPart=  9 NShTot=         116 NBatch=          21 AvBLen=         5.5
 IPart= 29 NShTot=         102 NBatch=          20 AvBLen=         5.1
 IPart=  2 NShTot=         145 NBatch=          43 AvBLen=         3.4
 IPart= 21 NShTot=         106 NBatch=          20 AvBLen=         5.3
 IPart=  7 NShTot=         126 NBatch=          29 AvBLen=         4.3
 IPart=  5 NShTot=         130 NBatch=          30 AvBLen=         4.3
 IPart= 17 NShTot=         107 NBatch=          20 AvBLen=         5.3
 IPart= 15 NShTot=         108 NBatch=          21 AvBLen=         5.1
 IPart= 30 NShTot=         102 NBatch=          20 AvBLen=         5.1
 IPart= 19 NShTot=         106 NBatch=          20 AvBLen=         5.3
 IPart= 14 NShTot=         108 NBatch=          21 AvBLen=         5.1
 IPart= 18 NShTot=         106 NBatch=          20 AvBLen=         5.3
 IPart= 12 NShTot=         116 NBatch=          21 AvBLen=         5.5
 IPart= 27 NShTot=         103 NBatch=          20 AvBLen=         5.2
 IPart= 28 NShTot=         103 NBatch=          20 AvBLen=         5.2
 IPart=  0 NShTot=         152 NBatch=          50 AvBLen=         3.0
 IPart= 25 NShTot=         103 NBatch=          20 AvBLen=         5.2
 PrSmSu:  NxtVal=             33.
 Entering OneElI...
 Calculate potential energy integrals
    NBasis = 300  MinDer = 1  MaxDer = 1
 Requested accuracy = 0.1000D-12
 PrsmSu:  NPrtUS=  32 ThrOK=T IAlg=1 NPAlg=1 LenDen=           0.
 PRISM was handed    13039498 working-precision words and  2976 shell-pairs
 PRISM was handed    13039498 working-precision words and  2976 shell-pairs
 PRISM was handed    13039498 working-precision words and  2976 shell-pairs
 PRISM was handed    13039498 working-precision words and  2976 shell-pairs
 PRISM was handed    13039498 working-precision words and  2976 shell-pairs
 PRISM was handed    13039498 working-precision words and  2976 shell-pairs
 PRISM was handed    13039498 working-precision words and  2976 shell-pairs
 PRISM was handed    13039498 working-precision words and  2976 shell-pairs
 PRISM was handed    13039498 working-precision words and  2976 shell-pairs
 PRISM was handed    13039498 working-precision words and  2976 shell-pairs
 PRISM was handed    13039498 working-precision words and  2976 shell-pairs
 PRISM was handed    13039498 working-precision words and  2976 shell-pairs
 PRISM was handed    13039498 working-precision words and  2976 shell-pairs
 PRISM was handed    13039498 working-precision words and  2976 shell-pairs
 PRISM was handed    13039498 working-precision words and  2976 shell-pairs
 PRISM was handed    13039498 working-precision words and  2976 shell-pairs
 PRISM was handed    13039498 working-precision words and  2976 shell-pairs
 PRISM was handed    13039498 working-precision words and  2976 shell-pairs
 PRISM was handed    13039498 working-precision words and  2976 shell-pairs
 PRISM was handed    13039498 working-precision words and  2976 shell-pairs
 PRISM was handed    13039498 working-precision words and  2976 shell-pairs
 PRISM was handed    13039498 working-precision words and  2976 shell-pairs
 PRISM was handed    13039498 working-precision words and  2976 shell-pairs
 PRISM was handed    13039498 working-precision words and  2976 shell-pairs
 PRISM was handed    13039498 working-precision words and  2976 shell-pairs
 PRISM was handed    13039498 working-precision words and  2976 shell-pairs
 PRISM was handed    13039498 working-precision words and  2976 shell-pairs
 PRISM was handed    13039498 working-precision words and  2976 shell-pairs
 PRISM was handed    13039498 working-precision words and  2976 shell-pairs
 PRISM was handed    13039498 working-precision words and  2976 shell-pairs
 Prism:   IPart=     0 DynPar=F LinDyn=F Incr=          11.
 PRISM was handed    13039498 working-precision words and  2976 shell-pairs
 PRISM was handed    13039498 working-precision words and  2976 shell-pairs
 IPart=  3 NShTot=        1404 NBatch=         117 AvBLen=        12.0
 IPart= 22 NShTot=        1008 NBatch=          84 AvBLen=        12.0
 IPart= 21 NShTot=        1020 NBatch=          85 AvBLen=        12.0
 IPart=  5 NShTot=        1272 NBatch=         106 AvBLen=        12.0
 IPart= 31 NShTot=         948 NBatch=          79 AvBLen=        12.0
 IPart= 18 NShTot=        1032 NBatch=          86 AvBLen=        12.0
 IPart= 12 NShTot=        1068 NBatch=          89 AvBLen=        12.0
 IPart= 11 NShTot=        1080 NBatch=          90 AvBLen=        12.0
 IPart= 19 NShTot=        1032 NBatch=          86 AvBLen=        12.0
 IPart= 30 NShTot=         972 NBatch=          81 AvBLen=        12.0
 IPart= 20 NShTot=        1032 NBatch=          86 AvBLen=        12.0
 IPart= 14 NShTot=        1068 NBatch=          89 AvBLen=        12.0
 IPart= 13 NShTot=        1068 NBatch=          89 AvBLen=        12.0
 IPart= 16 NShTot=        1032 NBatch=          86 AvBLen=        12.0
 IPart=  9 NShTot=        1092 NBatch=          91 AvBLen=        12.0
 IPart= 27 NShTot=         996 NBatch=          83 AvBLen=        12.0
 IPart= 15 NShTot=        1056 NBatch=          88 AvBLen=        12.0
 IPart= 23 NShTot=        1008 NBatch=          84 AvBLen=        12.0
 IPart= 29 NShTot=         984 NBatch=          82 AvBLen=        12.0
 IPart=  8 NShTot=        1140 NBatch=          95 AvBLen=        12.0
 IPart= 24 NShTot=        1008 NBatch=          84 AvBLen=        12.0
 IPart=  1 NShTot=        1488 NBatch=         124 AvBLen=        12.0
 IPart= 10 NShTot=        1080 NBatch=          90 AvBLen=        12.0
 IPart= 17 NShTot=        1032 NBatch=          86 AvBLen=        12.0
 IPart= 26 NShTot=         996 NBatch=          83 AvBLen=        12.0
 IPart=  0 NShTot=        1560 NBatch=         130 AvBLen=        12.0
 IPart=  6 NShTot=        1260 NBatch=         105 AvBLen=        12.0
 IPart=  2 NShTot=        1416 NBatch=         118 AvBLen=        12.0
 IPart=  4 NShTot=        1308 NBatch=         109 AvBLen=        12.0
 IPart=  7 NShTot=        1248 NBatch=         104 AvBLen=        12.0
 IPart= 28 NShTot=         996 NBatch=          83 AvBLen=        12.0
 IPart= 25 NShTot=        1008 NBatch=          84 AvBLen=        12.0
 PrSmSu:  NxtVal=            353.
 l701 out
 I=    0 X=  -5.286378322427D-01 Y=   1.625122731365D-01 Z=  -1.566019697436D-01
 I=    1 X=   8.724498070157D-02 Y=  -8.600699216821D-01 Z=  -5.615121477137D+00
 I=    2 X=   2.530226237610D+00 Y=   2.217054452790D-02 Z=   7.053300113147D+00
 I=    3 X=   2.684768824786D+00 Y=  -2.108993222560D-02 Z=  -1.526534576271D+00
 I=    4 X=  -2.259747482084D+00 Y=   1.228024378621D+00 Z=  -1.724070155962D+00
 I=    5 X=  -2.915483885789D+00 Y=   2.449326546393D-01 Z=   2.171744008836D+00
 I=    6 X=  -6.239108909607D-01 Y=  -3.713335451948D-01 Z=   2.521448323692D+00
 I=    7 X=   5.543287865312D-01 Y=   2.437275346150D-01 Z=  -2.519747451410D+00
 I=    8 X=  -2.706244766067D+00 Y=   5.652056701989D-02 Z=   1.173075389264D+00
 I=    9 X=   1.734357364123D+00 Y=  -1.174293913910D+00 Z=   2.081194161676D+00
 I=   10 X=  -2.731531321199D-01 Y=  -2.179294088858D+00 Z=  -1.748136067535D+00
 I=   11 X=  -1.544737663730D+00 Y=   2.022622411591D+00 Z=  -1.363560576262D+00
 I=   12 X=   2.732351626999D+00 Y=   7.880833108559D-01 Z=  -5.035916920375D-01
 ICntrl=      2127.
 Calling FoFJK, ICntrl=      2127 FMM=F ISym2X=0 I1Cent= 0 IOpClX= 1 NMat=1 NMatS=1 NMatT=0.
 FoFJK:  IHMeth= 1 ICntrl=    2127 DoSepK=T KAlg= 0 I1Cent=   0 FoldK=F
 IRaf=         1 NMat=   1 IRICut=       1 DoRegI=T DoRafI=F ISym2E= 0.
 FoFCou: FMM=F IPFlag=           0 FMFlag=      100000 FMFlg1=         800
         NFxFlg=           0 DoJE=F BraDBF=F KetDBF=F FulRan=T
         wScrn=  0.000000 ICntrl=    2527 IOpCl=  0 I1Cent=           0 NGrid=           0
         NMat0=    1 NMatS0=      1 NMatT0=    0 NMatD0=    1 NMtDS0=    0 NMtDT0=    0
 Symmetry not used in FoFCou.
 FoFCou:  KetSym=F NOpSet=  1 NOpAb=1 NOp=  1.
 FoFCou:  CnvScl= 1.00D+00 Thresh= 1.00D-10 IAcrcy=      10.
 PrismS was handed   418996336 working-precision words and  3262 shell-pairs
 FoFCou: LinMIO=F DoNuc=F BraDBF=F KetDBF=F HaveP=T PDBF=F HaveZ=T HaveW=F
         NIJTC =      10 NIJTAt=       0 NIJTCD=       0 NIJTT =      10
         IJTBeg=       1 IJTEnd=      10 KLTBeg=       1 KLTEnd=      10
         IPTBeg=       1 IPTEnd=      10 IPTBCv=       1 IPTECv=      10
         IZTBeg=       1 IZTEnd=      10 IZTBCv=       1 IZTECv=      10
         IWTBeg=      11 IWTEnd=      10 IWTBCv=      11 IWTECv=      10
         INTBeg=       1 INTEnd=       0 IFTBCv=       1 IFTECv=      10
 NCel replicated for PrismC:     1
 CoulSu:  IncDef=  1024 NBBP=        5321953 NTPThr=   100 NPartT=   32 Incr=        1024 LDynOK=F.
 CoulSu:  NPrtUS=  32 ThrOK=T IAlg=1 NPAlg=1 LenDen=           0 LWGrdD=           0 DoCopy=F.
 Enter PrismC: JobTyp=21 DoJE=F Cont=F.
 Enter PrismC: JobTyp=21 DoJE=F Cont=F.
 Enter PrismC: JobTyp=21 DoJE=F Cont=F.
 Enter PrismC: JobTyp=21 DoJE=F Cont=F.
 Enter PrismC: JobTyp=21 DoJE=F Cont=F.
 Enter PrismC: JobTyp=21 DoJE=F Cont=F.
 Enter PrismC: JobTyp=21 DoJE=F Cont=F.
 Enter PrismC: JobTyp=21 DoJE=F Cont=F.
 Enter PrismC: JobTyp=21 DoJE=F Cont=F.
 Enter PrismC: JobTyp=21 DoJE=F Cont=F.
 Enter PrismC: JobTyp=21 DoJE=F Cont=F.
 Enter PrismC: JobTyp=21 DoJE=F Cont=F.
 Enter PrismC: JobTyp=21 DoJE=F Cont=F.
 Enter PrismC: JobTyp=21 DoJE=F Cont=F.
 Enter PrismC: JobTyp=21 DoJE=F Cont=F.
 Enter PrismC: JobTyp=21 DoJE=F Cont=F.
 Enter PrismC: JobTyp=21 DoJE=F Cont=F.
 Enter PrismC: JobTyp=21 DoJE=F Cont=F.
 Enter PrismC: JobTyp=21 DoJE=F Cont=F.
 Enter PrismC: JobTyp=21 DoJE=F Cont=F.
 Enter PrismC: JobTyp=21 DoJE=F Cont=F.
 Enter PrismC: JobTyp=21 DoJE=F Cont=F.
 Enter PrismC: JobTyp=21 DoJE=F Cont=F.
 Enter PrismC: JobTyp=21 DoJE=F Cont=F.
 Enter PrismC: JobTyp=21 DoJE=F Cont=F.
 Enter PrismC: JobTyp=21 DoJE=F Cont=F.
 Enter PrismC: JobTyp=21 DoJE=F Cont=F.
 Enter PrismC: JobTyp=21 DoJE=F Cont=F.
 Enter PrismC: JobTyp=21 DoJE=F Cont=F.
 Enter PrismC: JobTyp=21 DoJE=F Cont=F.
 Enter PrismC: JobTyp=21 DoJE=F Cont=F.
 Enter PrismC: JobTyp=21 DoJE=F Cont=F.
 PrismC was handed    13032912 working-precision words and  3262 shell-pairs
 PrismC was handed    13032912 working-precision words and  3262 shell-pairs
 PrismC was handed    13032912 working-precision words and  3262 shell-pairs
 PrismC was handed    13032912 working-precision words and  3262 shell-pairs
 PrismC was handed    13032912 working-precision words and  3262 shell-pairs
 PrismC was handed    13032912 working-precision words and  3262 shell-pairs
 PrismC was handed    13032912 working-precision words and  3262 shell-pairs
 PrismC was handed    13032912 working-precision words and  3262 shell-pairs
 PrismC was handed    13032912 working-precision words and  3262 shell-pairs
 PrismC was handed    13032912 working-precision words and  3262 shell-pairs
 PrismC was handed    13032912 working-precision words and  3262 shell-pairs
 PrismC was handed    13032912 working-precision words and  3262 shell-pairs
 PrismC was handed    13032912 working-precision words and  3262 shell-pairs
 PrismC was handed    13032912 working-precision words and  3262 shell-pairs
 PrismC was handed    13032912 working-precision words and  3262 shell-pairs
 PrismC was handed    13032912 working-precision words and  3262 shell-pairs
 PrismC was handed    13032912 working-precision words and  3262 shell-pairs
 PrismC was handed    13032912 working-precision words and  3262 shell-pairs
 PrismC was handed    13032912 working-precision words and  3262 shell-pairs
 PrismC was handed    13032912 working-precision words and  3262 shell-pairs
 PrismC was handed    13032912 working-precision words and  3262 shell-pairs
 PrismC was handed    13032912 working-precision words and  3262 shell-pairs
 PrismC was handed    13032912 working-precision words and  3262 shell-pairs
 PrismC was handed    13032912 working-precision words and  3262 shell-pairs
 PrismC was handed    13032912 working-precision words and  3262 shell-pairs
 PrismC was handed    13032912 working-precision words and  3262 shell-pairs
 PrismC was handed    13032912 working-precision words and  3262 shell-pairs
 PrismC was handed    13032912 working-precision words and  3262 shell-pairs
 PrismC was handed    13032912 working-precision words and  3262 shell-pairs
 PrismC was handed    13032912 working-precision words and  3262 shell-pairs
 PrismC:  IPart=     0 DynPar=T LinDyn=F Incr=        1024 UseFst=F UseS4=T IGathr=2.
 PrismC was handed    13032912 working-precision words and  3262 shell-pairs
 PrismC was handed    13032912 working-precision words and  3262 shell-pairs
 IPart= 13 NShTot=      104761 NShNF=      104761 NShFF=           0 NBatch=         895 AvBLen=       117.1
 IPart=  2 NShTot=      172065 NShNF=      172065 NShFF=           0 NBatch=        1276 AvBLen=       134.8
 IPart= 29 NShTot=      121608 NShNF=      121608 NShFF=           0 NBatch=         752 AvBLen=       161.7
 IPart= 20 NShTot=       86167 NShNF=       86167 NShFF=           0 NBatch=         812 AvBLen=       106.1
 IPart= 31 NShTot=       98726 NShNF=       98726 NShFF=           0 NBatch=         801 AvBLen=       123.3
 IPart=  1 NShTot=      182575 NShNF=      182575 NShFF=           0 NBatch=        1273 AvBLen=       143.4
 IPart=  7 NShTot=      123561 NShNF=      123561 NShFF=           0 NBatch=         878 AvBLen=       140.7
 IPart= 28 NShTot=      152059 NShNF=      152059 NShFF=           0 NBatch=        1513 AvBLen=       100.5
 IPart= 19 NShTot=      108130 NShNF=      108130 NShFF=           0 NBatch=         810 AvBLen=       133.5
 IPart= 25 NShTot=      161626 NShNF=      161626 NShFF=           0 NBatch=         997 AvBLen=       162.1
 IPart= 21 NShTot=       93484 NShNF=       93484 NShFF=           0 NBatch=         722 AvBLen=       129.5
 IPart= 14 NShTot=       81945 NShNF=       81945 NShFF=           0 NBatch=         720 AvBLen=       113.8
 IPart=  6 NShTot=      138380 NShNF=      138380 NShFF=           0 NBatch=        1112 AvBLen=       124.4
 IPart=  8 NShTot=      160552 NShNF=      160552 NShFF=           0 NBatch=        1045 AvBLen=       153.6
 IPart= 23 NShTot=       90370 NShNF=       90370 NShFF=           0 NBatch=         771 AvBLen=       117.2
 IPart= 16 NShTot=      182793 NShNF=      182793 NShFF=           0 NBatch=        1051 AvBLen=       173.9
 IPart=  3 NShTot=       87268 NShNF=       87268 NShFF=           0 NBatch=         791 AvBLen=       110.3
 IPart= 11 NShTot=       79337 NShNF=       79337 NShFF=           0 NBatch=         812 AvBLen=        97.7
 IPart=  4 NShTot=       93242 NShNF=       93242 NShFF=           0 NBatch=         763 AvBLen=       122.2
 IPart= 17 NShTot=      100321 NShNF=      100321 NShFF=           0 NBatch=         860 AvBLen=       116.7
 IPart= 22 NShTot=       75141 NShNF=       75141 NShFF=           0 NBatch=         654 AvBLen=       114.9
 IPart=  0 NShTot=       78416 NShNF=       78416 NShFF=           0 NBatch=         752 AvBLen=       104.3
 IPart=  5 NShTot=       86764 NShNF=       86764 NShFF=           0 NBatch=         790 AvBLen=       109.8
 IPart= 12 NShTot=       92430 NShNF=       92430 NShFF=           0 NBatch=         835 AvBLen=       110.7
 IPart= 24 NShTot=      140505 NShNF=      140505 NShFF=           0 NBatch=        1136 AvBLen=       123.7
 IPart= 15 NShTot=      172358 NShNF=      172358 NShFF=           0 NBatch=        1239 AvBLen=       139.1
 IPart= 10 NShTot=       90672 NShNF=       90672 NShFF=           0 NBatch=         846 AvBLen=       107.2
 IPart= 30 NShTot=       98553 NShNF=       98553 NShFF=           0 NBatch=        1152 AvBLen=        85.5
 IPart= 18 NShTot=      125811 NShNF=      125811 NShFF=           0 NBatch=        1148 AvBLen=       109.6
 IPart= 26 NShTot=       79781 NShNF=       79781 NShFF=           0 NBatch=         807 AvBLen=        98.9
 IPart=  9 NShTot=      132863 NShNF=      132863 NShFF=           0 NBatch=        1070 AvBLen=       124.2
 IPart= 27 NShTot=       74892 NShNF=       74892 NShFF=           0 NBatch=         539 AvBLen=       138.9
 CoulSu:  NxtVal=        5819393.
 FoFCou: FMM=F IPFlag=           0 FMFlag=      100000 FMFlg1=         800
         NFxFlg=           0 DoJE=F BraDBF=F KetDBF=F FulRan=T
         wScrn=  0.000000 ICntrl=    2127 IOpCl=  1 I1Cent=           0 NGrid=           0
         NMat0=    1 NMatS0=      0 NMatT0=    1 NMatD0=    1 NMtDS0=    0 NMtDT0=    0
         CW=    0.222036    0.777964
         WU=    0.000000   12.500000
 Symmetry not used in FoFCou.
 FoFCou:  KetSym=F NOpSet=  1 NOpAb=1 NOp=  1.
 FoFCou:  CnvScl= 1.00D+00 Thresh= 1.00D-10 IAcrcy=      10.
 PrismS was handed   418991370 working-precision words and  3262 shell-pairs
 FoFCou: LinMIO=F DoNuc=F BraDBF=F KetDBF=F HaveP=T PDBF=F HaveZ=T HaveW=F
         NIJTC =      10 NIJTAt=       0 NIJTCD=       0 NIJTT =      10
         IJTBeg=       1 IJTEnd=      10 KLTBeg=       1 KLTEnd=      10
         IPTBeg=       1 IPTEnd=      10 IPTBCv=       1 IPTECv=      10
         IZTBeg=       1 IZTEnd=      10 IZTBCv=       1 IZTECv=      10
         IWTBeg=      11 IWTEnd=      10 IWTBCv=      11 IWTECv=      10
         INTBeg=       1 INTEnd=       0 IFTBCv=       1 IFTECv=      10
 NCel replicated for PrismC:     1
 CoulSu:  IncDef=  1024 NBBP=        5321953 NTPThr=   100 NPartT=   32 Incr=        1024 LDynOK=F.
 CoulSu:  NPrtUS=  32 ThrOK=T IAlg=1 NPAlg=1 LenDen=           0 LWGrdD=           0 DoCopy=F.
 Enter PrismC: JobTyp=21 DoJE=F Cont=F.
 Linear combination for Coulomb/exchange, wScrn=  0.000000
 CW=    0.222036    0.777964
 WU=    0.000000   12.500000
 PrismC was handed    13032757 working-precision words and  3262 shell-pairs
 Enter PrismC: JobTyp=21 DoJE=F Cont=F.
 Linear combination for Coulomb/exchange, wScrn=  0.000000
 Enter PrismC: JobTyp=21 DoJE=F Cont=F.
 Linear combination for Coulomb/exchange, wScrn=  0.000000
 CW=    0.222036    0.777964
 WU=    0.000000   12.500000
 Enter PrismC: JobTyp=21 DoJE=F Cont=F.
 Enter PrismC: JobTyp=21 DoJE=F Cont=F.
 Linear combination for Coulomb/exchange, wScrn=  0.000000
 CW=    0.222036    0.777964
 WU=    0.000000   12.500000
 Enter PrismC: JobTyp=21 DoJE=F Cont=F.
 Enter PrismC: JobTyp=21 DoJE=F Cont=F.
 Linear combination for Coulomb/exchange, wScrn=  0.000000
 CW=    0.222036    0.777964
 WU=    0.000000   12.500000
 Enter PrismC: JobTyp=21 DoJE=F Cont=F.
 Enter PrismC: JobTyp=21 DoJE=F Cont=F.
 Linear combination for Coulomb/exchange, wScrn=  0.000000
 CW=    0.222036    0.777964
 WU=    0.000000   12.500000
 PrismC was handed    13032757 working-precision words and  3262 shell-pairs
 Enter PrismC: JobTyp=21 DoJE=F Cont=F.
 Linear combination for Coulomb/exchange, wScrn=  0.000000
 CW=    0.222036    0.777964
 WU=    0.000000   12.500000
 Enter PrismC: JobTyp=21 DoJE=F Cont=F.
 Linear combination for Coulomb/exchange, wScrn=  0.000000
 CW=    0.222036    0.777964
 WU=    0.000000   12.500000
 PrismC was handed    13032757 working-precision words and  3262 shell-pairs
 Enter PrismC: JobTyp=21 DoJE=F Cont=F.
 Linear combination for Coulomb/exchange, wScrn=  0.000000
 CW=    0.222036    0.777964
 WU=    0.000000   12.500000
 PrismC was handed    13032757 working-precision words and  3262 shell-pairs
 Enter PrismC: JobTyp=21 DoJE=F Cont=F.
 Linear combination for Coulomb/exchange, wScrn=  0.000000
 CW=    0.222036    0.777964
 WU=    0.000000   12.500000
 PrismC was handed    13032757 working-precision words and  3262 shell-pairs
 Enter PrismC: JobTyp=21 DoJE=F Cont=F.
 Linear combination for Coulomb/exchange, wScrn=  0.000000
 CW=    0.222036    0.777964
 WU=    0.000000   12.500000
 PrismC was handed    13032757 working-precision words and  3262 shell-pairs
 Enter PrismC: JobTyp=21 DoJE=F Cont=F.
 Linear combination for Coulomb/exchange, wScrn=  0.000000
 CW=    0.222036    0.777964
 WU=    0.000000   12.500000
 PrismC was handed    13032757 working-precision words and  3262 shell-pairs
 CW=    0.222036    0.777964
 WU=    0.000000   12.500000
 PrismC was handed    13032757 working-precision words and  3262 shell-pairs
 Enter PrismC: JobTyp=21 DoJE=F Cont=F.
 Linear combination for Coulomb/exchange, wScrn=  0.000000
 CW=    0.222036    0.777964
 WU=    0.000000   12.500000
 PrismC was handed    13032757 working-precision words and  3262 shell-pairs
 Linear combination for Coulomb/exchange, wScrn=  0.000000
 CW=    0.222036    0.777964
 WU=    0.000000   12.500000
 Enter PrismC: JobTyp=21 DoJE=F Cont=F.
 Linear combination for Coulomb/exchange, wScrn=  0.000000
 CW=    0.222036    0.777964
 WU=    0.000000   12.500000
 PrismC was handed    13032757 working-precision words and  3262 shell-pairs
 Enter PrismC: JobTyp=21 DoJE=F Cont=F.
 Linear combination for Coulomb/exchange, wScrn=  0.000000
 CW=    0.222036    0.777964
 WU=    0.000000   12.500000
 PrismC was handed    13032757 working-precision words and  3262 shell-pairs
 Enter PrismC: JobTyp=21 DoJE=F Cont=F.
 Linear combination for Coulomb/exchange, wScrn=  0.000000
 CW=    0.222036    0.777964
 WU=    0.000000   12.500000
 PrismC was handed    13032757 working-precision words and  3262 shell-pairs
 Enter PrismC: JobTyp=21 DoJE=F Cont=F.
 Linear combination for Coulomb/exchange, wScrn=  0.000000
 CW=    0.222036    0.777964
 WU=    0.000000   12.500000
 PrismC was handed    13032757 working-precision words and  3262 shell-pairs
 Enter PrismC: JobTyp=21 DoJE=F Cont=F.
 Linear combination for Coulomb/exchange, wScrn=  0.000000
 CW=    0.222036    0.777964
 WU=    0.000000   12.500000
 PrismC was handed    13032757 working-precision words and  3262 shell-pairs
 Enter PrismC: JobTyp=21 DoJE=F Cont=F.
 Linear combination for Coulomb/exchange, wScrn=  0.000000
 CW=    0.222036    0.777964
 WU=    0.000000   12.500000
 PrismC was handed    13032757 working-precision words and  3262 shell-pairs
 Enter PrismC: JobTyp=21 DoJE=F Cont=F.
 Linear combination for Coulomb/exchange, wScrn=  0.000000
 CW=    0.222036    0.777964
 WU=    0.000000   12.500000
 PrismC was handed    13032757 working-precision words and  3262 shell-pairs
 Enter PrismC: JobTyp=21 DoJE=F Cont=F.
 Linear combination for Coulomb/exchange, wScrn=  0.000000
 CW=    0.222036    0.777964
 WU=    0.000000   12.500000
 PrismC was handed    13032757 working-precision words and  3262 shell-pairs
 Enter PrismC: JobTyp=21 DoJE=F Cont=F.
 Linear combination for Coulomb/exchange, wScrn=  0.000000
 CW=    0.222036    0.777964
 WU=    0.000000   12.500000
 PrismC was handed    13032757 working-precision words and  3262 shell-pairs
 PrismC was handed    13032757 working-precision words and  3262 shell-pairs
 Enter PrismC: JobTyp=21 DoJE=F Cont=F.
 Linear combination for Coulomb/exchange, wScrn=  0.000000
 CW=    0.222036    0.777964
 WU=    0.000000   12.500000
 PrismC was handed    13032757 working-precision words and  3262 shell-pairs
 PrismC was handed    13032757 working-precision words and  3262 shell-pairs
 Enter PrismC: JobTyp=21 DoJE=F Cont=F.
 Linear combination for Coulomb/exchange, wScrn=  0.000000
 CW=    0.222036    0.777964
 WU=    0.000000   12.500000
 PrismC was handed    13032757 working-precision words and  3262 shell-pairs
 Enter PrismC: JobTyp=21 DoJE=F Cont=F.
 Linear combination for Coulomb/exchange, wScrn=  0.000000
 CW=    0.222036    0.777964
 WU=    0.000000   12.500000
 Enter PrismC: JobTyp=21 DoJE=F Cont=F.
 PrismC was handed    13032757 working-precision words and  3262 shell-pairs
 Enter PrismC: JobTyp=21 DoJE=F Cont=F.
 Linear combination for Coulomb/exchange, wScrn=  0.000000
 CW=    0.222036    0.777964
 WU=    0.000000   12.500000
 PrismC was handed    13032757 working-precision words and  3262 shell-pairs
 PrismC was handed    13032757 working-precision words and  3262 shell-pairs
 PrismC was handed    13032757 working-precision words and  3262 shell-pairs
 Linear combination for Coulomb/exchange, wScrn=  0.000000
 CW=    0.222036    0.777964
 WU=    0.000000   12.500000
 Linear combination for Coulomb/exchange, wScrn=  0.000000
 CW=    0.222036    0.777964
 WU=    0.000000   12.500000
 PrismC was handed    13032757 working-precision words and  3262 shell-pairs
 Enter PrismC: JobTyp=21 DoJE=F Cont=F.
 Linear combination for Coulomb/exchange, wScrn=  0.000000
 CW=    0.222036    0.777964
 WU=    0.000000   12.500000
 PrismC was handed    13032757 working-precision words and  3262 shell-pairs
 Linear combination for Coulomb/exchange, wScrn=  0.000000
 CW=    0.222036    0.777964
 WU=    0.000000   12.500000
 PrismC was handed    13032757 working-precision words and  3262 shell-pairs
 PrismC was handed    13032757 working-precision words and  3262 shell-pairs
 PrismC was handed    13032757 working-precision words and  3262 shell-pairs
 Enter PrismC: JobTyp=21 DoJE=F Cont=F.
 Linear combination for Coulomb/exchange, wScrn=  0.000000
 CW=    0.222036    0.777964
 WU=    0.000000   12.500000
 PrismC:  IPart=     0 DynPar=T LinDyn=F Incr=        1024 UseFst=F UseS4=T IGathr=2.
 PrismC was handed    13032757 working-precision words and  3262 shell-pairs
 IPart= 23 NShTot=      122711 NShNF=      122711 NShFF=           0 NBatch=        1194 AvBLen=       102.8
 IPart=  1 NShTot=       99737 NShNF=       99737 NShFF=           0 NBatch=         908 AvBLen=       109.8
 IPart=  4 NShTot=       89186 NShNF=       89186 NShFF=           0 NBatch=         871 AvBLen=       102.4
 IPart= 20 NShTot=       83085 NShNF=       83085 NShFF=           0 NBatch=         672 AvBLen=       123.6
 IPart= 18 NShTot=      136149 NShNF=      136149 NShFF=           0 NBatch=        1356 AvBLen=       100.4
 IPart=  9 NShTot=      145702 NShNF=      145702 NShFF=           0 NBatch=        1334 AvBLen=       109.2
 IPart= 16 NShTot=      101698 NShNF=      101698 NShFF=           0 NBatch=        1004 AvBLen=       101.3
 IPart= 19 NShTot=      114725 NShNF=      114725 NShFF=           0 NBatch=        1044 AvBLen=       109.9
 IPart=  7 NShTot=      114927 NShNF=      114927 NShFF=           0 NBatch=        1192 AvBLen=        96.4
 IPart= 14 NShTot=       88275 NShNF=       88275 NShFF=           0 NBatch=        1349 AvBLen=        65.4
 IPart= 15 NShTot=       89071 NShNF=       89071 NShFF=           0 NBatch=        1019 AvBLen=        87.4
 IPart= 26 NShTot=       97192 NShNF=       97192 NShFF=           0 NBatch=        1102 AvBLen=        88.2
 IPart= 11 NShTot=       99990 NShNF=       99990 NShFF=           0 NBatch=        1018 AvBLen=        98.2
 IPart= 30 NShTot=      139108 NShNF=      139108 NShFF=           0 NBatch=        1156 AvBLen=       120.3
 IPart= 24 NShTot=      147187 NShNF=      147187 NShFF=           0 NBatch=        1502 AvBLen=        98.0
 IPart= 27 NShTot=       91695 NShNF=       91695 NShFF=           0 NBatch=        1088 AvBLen=        84.3
 IPart= 22 NShTot=      101197 NShNF=      101197 NShFF=           0 NBatch=         901 AvBLen=       112.3
 IPart=  3 NShTot=      139594 NShNF=      139594 NShFF=           0 NBatch=        1242 AvBLen=       112.4
 IPart= 10 NShTot=      106904 NShNF=      106904 NShFF=           0 NBatch=        1029 AvBLen=       103.9
 IPart=  6 NShTot=      122286 NShNF=      122286 NShFF=           0 NBatch=        1035 AvBLen=       118.2
 IPart= 21 NShTot=      101934 NShNF=      101934 NShFF=           0 NBatch=        1011 AvBLen=       100.8
 IPart=  0 NShTot=       67721 NShNF=       67721 NShFF=           0 NBatch=        1023 AvBLen=        66.2
 IPart= 17 NShTot=      127228 NShNF=      127228 NShFF=           0 NBatch=        1032 AvBLen=       123.3
 IPart= 31 NShTot=      108265 NShNF=      108265 NShFF=           0 NBatch=         787 AvBLen=       137.6
 IPart=  5 NShTot=       85127 NShNF=       85127 NShFF=           0 NBatch=         816 AvBLen=       104.3
 IPart=  2 NShTot=      120895 NShNF=      120895 NShFF=           0 NBatch=        1423 AvBLen=        85.0
 IPart= 28 NShTot=      101617 NShNF=      101617 NShFF=           0 NBatch=        1141 AvBLen=        89.1
 IPart= 13 NShTot=      150918 NShNF=      150918 NShFF=           0 NBatch=        1472 AvBLen=       102.5
 IPart= 29 NShTot=      139833 NShNF=      139833 NShFF=           0 NBatch=        1451 AvBLen=        96.4
 IPart=  8 NShTot=      133163 NShNF=      133163 NShFF=           0 NBatch=        1386 AvBLen=        96.1
 IPart= 12 NShTot=      157371 NShNF=      157371 NShFF=           0 NBatch=        1317 AvBLen=       119.5
 IPart= 25 NShTot=      117775 NShNF=      117775 NShFF=           0 NBatch=        1276 AvBLen=        92.3
 CoulSu:  NxtVal=        5819393.
 ReadGW:  IGet=0 IStart=           1 Next=           1 LGW=           0.
 Remaining memory in FofDFT      399.83 Mw
 CkSvGd:  ISavGI=        -1 IRadAn=       5 IRASav=       5 ISavGd=        -1.
 CalDSu:  NPrtUS=  32 ThrOK=T IAlg=1 NPAlg=2 DoDPD=T LenP=       45150 LenD1P=             0.
 IPart=  0 IRanGd=          0 ScrnBf=T ScrnGd=T RCrit=4.00D+00 DoMicB=T.
 IPart= 10         7786 of        10336 points in      16 batches and       36 microbatches, Max-NSigAt=      12 Max-NSgAt2=      12
 IPart= 20         7525 of         7536 points in      12 batches and       24 microbatches, Max-NSigAt=      12 Max-NSgAt2=      11
 IPart= 31         5417 of         5896 points in       9 batches and       23 microbatches, Max-NSigAt=      12 Max-NSgAt2=      12
 IPart=  2         9103 of        10136 points in      17 batches and       54 microbatches, Max-NSigAt=      12 Max-NSgAt2=      12
 IPart=  9         9050 of        10160 points in      16 batches and       49 microbatches, Max-NSigAt=      12 Max-NSgAt2=      12
 IPart=  8         8932 of         9784 points in      13 batches and       59 microbatches, Max-NSigAt=      12 Max-NSgAt2=      12
 IPart= 27         8285 of         8950 points in      13 batches and       23 microbatches, Max-NSigAt=      12 Max-NSgAt2=      12
 IPart= 26         8130 of         9912 points in      15 batches and       30 microbatches, Max-NSigAt=      12 Max-NSgAt2=      12
 IPart= 17         7842 of         9670 points in      15 batches and       49 microbatches, Max-NSigAt=      12 Max-NSgAt2=      12
 IPart= 13         5895 of         6546 points in      11 batches and       73 microbatches, Max-NSigAt=      12 Max-NSgAt2=      12
 IPart= 15         7900 of         8672 points in      14 batches and       45 microbatches, Max-NSigAt=      12 Max-NSgAt2=      12
 IPart=  7         7996 of         9628 points in      14 batches and       28 microbatches, Max-NSigAt=      12 Max-NSgAt2=      12
 IPart=  1        10907 of        12106 points in      18 batches and       75 microbatches, Max-NSigAt=      12 Max-NSgAt2=      12
 IPart= 30        10307 of        12376 points in      19 batches and       66 microbatches, Max-NSigAt=      12 Max-NSgAt2=      12
 IPart= 12         7510 of         7780 points in      12 batches and       45 microbatches, Max-NSigAt=      12 Max-NSgAt2=      12
 IPart= 23         7608 of         7936 points in      12 batches and       39 microbatches, Max-NSigAt=      12 Max-NSgAt2=      12
 IPart= 19         7455 of         8740 points in      14 batches and       85 microbatches, Max-NSigAt=      12 Max-NSgAt2=      12
 IPart= 11         9365 of        11092 points in      16 batches and       42 microbatches, Max-NSigAt=      12 Max-NSgAt2=      12
 IPart=  5        11303 of        12036 points in      18 batches and       86 microbatches, Max-NSigAt=      12 Max-NSgAt2=      12
 IPart= 25         5876 of         6546 points in      11 batches and       63 microbatches, Max-NSigAt=      12 Max-NSgAt2=      12
 IPart= 21         5663 of         6156 points in       9 batches and       47 microbatches, Max-NSigAt=      12 Max-NSgAt2=      12
 IPart=  4         6949 of         7726 points in      13 batches and       66 microbatches, Max-NSigAt=      12 Max-NSgAt2=      12
 IPart= 28        10228 of        11152 points in      17 batches and       60 microbatches, Max-NSigAt=      12 Max-NSgAt2=      12
 IPart= 29         5966 of         6532 points in      11 batches and       68 microbatches, Max-NSigAt=      12 Max-NSgAt2=      12
 IPart= 14         7303 of         8010 points in      13 batches and       53 microbatches, Max-NSigAt=      12 Max-NSgAt2=      12
 IPart= 24         6832 of         7750 points in      12 batches and       68 microbatches, Max-NSigAt=      12 Max-NSgAt2=      12
 IPart= 22         5809 of         6732 points in      11 batches and       63 microbatches, Max-NSigAt=      12 Max-NSgAt2=      12
 IPart= 16         7893 of         9128 points in      14 batches and       84 microbatches, Max-NSigAt=      12 Max-NSgAt2=      12
 IPart= 18        10144 of        12968 points in      20 batches and       65 microbatches, Max-NSigAt=      12 Max-NSgAt2=      12
 IPart=  3         6761 of         7200 points in      11 batches and       30 microbatches, Max-NSigAt=      12 Max-NSgAt2=      12
 IPart=  0         5788 of         6560 points in      11 batches and       82 microbatches, Max-NSigAt=      12 Max-NSgAt2=      12
 IPart=  6         5797 of         6244 points in      10 batches and       42 microbatches, Max-NSigAt=      12 Max-NSgAt2=      12
 Forces at end of L703
 I=    0 X=  -5.286378322427D-01 Y=   1.625122731365D-01 Z=  -1.566019697436D-01
 I=    1 X=  -3.100636053877D-04 Y=  -2.888268749793D-04 Z=  -5.638587373271D-04
 I=    2 X=   2.882753877564D-04 Y=   2.385152462839D-04 Z=   4.464757333427D-04
 I=    3 X=   6.973189598325D-05 Y=  -8.664840199998D-06 Z=   3.304823591388D-04
 I=    4 X=  -1.135494102065D-04 Y=   1.810865076697D-04 Z=   9.629871327532D-05
 I=    5 X=   6.284241312082D-05 Y=  -1.231056817167D-04 Z=  -3.099623182554D-04
 I=    6 X=   3.892600497983D-04 Y=   7.890229037262D-04 Z=  -3.782868014062D-04
 I=    7 X=  -2.121775399577D-05 Y=   7.190107084317D-04 Z=   3.704505958217D-04
 I=    8 X=   7.204531016347D-05 Y=  -4.527767936513D-04 Z=   1.240309130199D-04
 I=    9 X=  -2.954582688550D-04 Y=  -4.033473266709D-04 Z=   2.231905308889D-04
 I=   10 X=   2.437791429322D-05 Y=  -3.438707326220D-04 Z=  -1.384186564590D-05
 I=   11 X=  -1.002542116879D-05 Y=  -4.026364980003D-05 Z=  -2.007301123161D-04
 I=   12 X=  -1.562185115191D-04 Y=  -2.667794664605D-04 Z=  -1.242490105985D-04
 FrcOut:
 IF    =    64 IFX   =   100 IFXYZ =   136
 IFFX  =   172 IFFFX =   172 IFLen =    36
 IFFLen=     0 IFFFLn=     0 IEDerv=   172
 LEDerv=  1781 IFroze=  2359 ICStrt=146684
 -------------------------------------------------------------------
 Center     Atomic                   Forces (Hartrees/Bohr)
 Number     Number              X              Y              Z
 -------------------------------------------------------------------
      1        6           0.000310064    0.000288827    0.000563859
      2        8          -0.000288275   -0.000238515   -0.000446476
      3        1          -0.000069732    0.000008665   -0.000330482
      4        1           0.000113549   -0.000181087   -0.000096299
      5        1          -0.000062842    0.000123106    0.000309962
      6        6          -0.000389260   -0.000789023    0.000378287
      7        6           0.000021218   -0.000719011   -0.000370451
      8        1          -0.000072045    0.000452777   -0.000124031
      9        1           0.000295458    0.000403347   -0.000223191
     10        1          -0.000024378    0.000343871    0.000013842
     11        1           0.000010025    0.000040264    0.000200730
     12        1           0.000156219    0.000266779    0.000124249
 -------------------------------------------------------------------
 Cartesian Forces:  Max     0.000789023 RMS     0.000311377
 From PutF, contents of force:
   1   -0.1365134151D-03
   2    0.6905272994D-04
   3   -0.1135796398D-03
   4    0.1718495012D-03
   5    0.6735073954D-03
   6    0.3529994797D-03
   7    0.4841966582D-03
   8   -0.1982308950D-03
   9    0.5760816019D-04
  10    0.5483365894D-04
  11   -0.1038156524D-03
  12   -0.2856253069D-03
  13   -0.5832695474D-04
  14    0.2099051169D-03
  15   -0.4969362363D-03
  16   -0.7201393843D-03
  17    0.3255853743D-03
  18   -0.3559168564D-03
  19   -0.2479782686D-03
  20    0.7109923725D-03
  21    0.1794619930D-03
  22   -0.4380423103D-03
  23   -0.1084826243D-04
  24    0.1344493689D-04
  25    0.4084883247D-04
  26   -0.2014674769D-03
  27   -0.3892045069D-04
  28    0.6940685494D-05
  29    0.1213107299D-06
  30    0.1677493393D-05
 -----------------------------------------------------------------------------------------------
                       Internal Coordinate Forces (Hartree/Bohr or radian)
  Cent   Atom   N1       Length/X         N2         Alpha/Y        N3         Beta/Z          J
 -----------------------------------------------------------------------------------------------
      1  C 
      2  O        1  -0.000137(     1)
      3  H        1   0.000069(     2)      2   0.000674(    12)
      4  H        1  -0.000114(     3)      2   0.000353(    13)      3  -0.000198(    22)     0
      5  H        2   0.000172(     4)      1   0.000484(    14)      3  -0.000201(    23)     0
      6  C        1   0.000002(     5)      2   0.000000(    15)      3   0.000007(    24)     0
      7  C        6   0.000058(     6)      1  -0.000011(    16)      2   0.000013(    25)     0
      8  H        6   0.000055(     7)      7  -0.000497(    17)      1   0.000041(    26)     0
      9  H        6  -0.000104(     8)      7  -0.000720(    18)      8   0.000711(    27)     0
     10  H        7  -0.000286(     9)      6   0.000326(    19)      8  -0.000039(    28)     0
     11  H        7  -0.000058(    10)      6  -0.000356(    20)     10   0.000179(    29)     0
     12  H        7   0.000210(    11)      6  -0.000248(    21)     10  -0.000438(    30)     0
 -----------------------------------------------------------------------------------------------
 Internal  Forces:  Max     0.000720139 RMS     0.000310773
 Final forces over variables, Energy=-1.94229469D+02:
 -1.36513415D-04 6.90527299D-05-1.13579640D-04 1.71849501D-04
  6.73507395D-04 3.52999480D-04 4.84196658D-04-1.98230895D-04
  5.76081602D-05 5.48336589D-05-1.03815652D-04-2.85625307D-04
 -5.83269547D-05 2.09905117D-04-4.96936236D-04-7.20139384D-04
  3.25585374D-04-3.55916856D-04-2.47978269D-04 7.10992373D-04
  1.79461993D-04-4.38042310D-04-1.08482624D-05 1.34449369D-05
  4.08488325D-05-2.01467477D-04-3.89204507D-05 6.94068549D-06
  1.21310730D-07 1.67749339D-06

 GradGradGradGradGradGradGradGradGradGradGradGradGradGradGradGradGradGrad
 Berny optimization.
 Search for a local minimum.
 Step number   3 out of a maximum of   50
 All quantities printed in internal units (Hartrees-Bohrs-Radians)
 Update second derivatives using D2CorN and points    1    2    3
 DE= -2.35D-04 DEPred=-2.07D-04 R= 1.14D+00
 TightC=F SS=  1.41D+00  RLast= 1.81D-01 DXNew= 5.0454D-01 5.4265D-01
 Trust test= 1.14D+00 RLast= 1.81D-01 DXMaxT set to 5.05D-01
 ITU=  1  1  0
     Eigenvalues ---    0.00847   0.01907   0.04285   0.06152   0.09989
     Eigenvalues ---    0.13562   0.14070   0.14490   0.16021   0.16357
     Eigenvalues ---    0.24777   0.29498   0.30929   0.33856   0.33915
     Eigenvalues ---    0.34686   0.34744   0.34863   0.35750   0.35882
     Eigenvalues ---    0.35974   0.36217   0.38330   0.38662   0.39632
     Eigenvalues ---    0.45848   0.47218   0.53615   0.560821000.00000
 RFO step:  Lambda=-1.94158024D-05 EMin= 8.46934013D-03
 Quartic linear search produced a step of  0.31969.
 Variable       Old X    -DE/DX   Delta X   Delta X   Delta X     New X
                                 (Linear)    (Quad)   (Total)
    R1        2.56676  -0.00014   0.00023  -0.00036  -0.00013   2.56663
    R2        2.03707   0.00007  -0.00064   0.00037  -0.00027   2.03681
    R3        2.04482  -0.00011  -0.00071  -0.00029  -0.00100   2.04382
    R4        1.80889   0.00017  -0.00015   0.00044   0.00029   1.80918
    A2        1.98464   0.00067   0.00075   0.00328   0.00403   1.98867
    A3        2.07488   0.00035   0.00150   0.00034   0.00184   2.07672
    A4        1.91496   0.00048  -0.00100   0.00430   0.00329   1.91825
    D3        3.60784  -0.00020  -0.01682  -0.00116  -0.01797   3.58986
   R21        2.79988   0.00006  -0.00083   0.00030  -0.00053   2.79935
   R22        2.04193   0.00005  -0.00059   0.00031  -0.00028   2.04165
   R23        2.04217  -0.00010  -0.00040  -0.00030  -0.00070   2.04147
   R24        2.07760  -0.00029   0.00061  -0.00123  -0.00062   2.07697
   R25        2.06162  -0.00006  -0.00006  -0.00022  -0.00028   2.06134
   R26        2.06068   0.00021  -0.00015   0.00084   0.00069   2.06137
   A22        2.10791  -0.00050   0.00379  -0.00074   0.00305   2.11096
   A23        2.11031  -0.00072   0.00376  -0.00239   0.00137   2.11168
   A24        1.94402   0.00033  -0.00015   0.00396   0.00381   1.94783
   A25        1.95383  -0.00036   0.00118  -0.00358  -0.00240   1.95143
   A26        1.95262  -0.00025   0.00051  -0.00169  -0.00118   1.95144
   D23        2.94590   0.00071   0.04130   0.00644   0.04774   2.99364
   D25        2.07889   0.00018  -0.00016   0.00098   0.00082   2.07971
   D26        4.20675  -0.00044   0.00201  -0.00452  -0.00252   4.20423
   ANG2       1.73392  -0.00001  -0.00942  -0.00129  -0.01071   1.72321
   DH2        3.34255   0.00001  -0.00002   0.00007   0.00004   3.34260
   DH3        1.70163   0.00004  -0.02194  -0.00328  -0.02522   1.67640
    D4        3.07027  -0.00020  -0.00291  -0.00222  -0.00513   3.06514
   D24        4.82023  -0.00004  -0.02589  -0.00337  -0.02926   4.79097
   DH1        1.79400   0.00001  -0.00728   0.00041  -0.00687   1.78714
   ANG1       1.97010   0.00000  -0.00357  -0.00063  -0.00420   1.96590
    BB       18.89726   0.00000   0.00000   0.00000   0.00000  18.89726
         Item               Value     Threshold  Converged?
 Maximum Force            0.000720     0.000450     NO 
 RMS     Force            0.000316     0.000300     NO 
 Maximum Displacement     0.047744     0.001800     NO 
 RMS     Displacement     0.012075     0.001200     NO 
 Predicted change in Energy=-1.996005D-05
 GradGradGradGradGradGradGradGradGradGradGradGradGradGradGradGradGradGrad

 ---------------------------------------------------------------------------------------------------
                            Z-MATRIX (ANGSTROMS AND DEGREES)
   CD    Cent   Atom    N1       Length/X        N2       Alpha/Y        N3        Beta/Z          J
 ---------------------------------------------------------------------------------------------------
      1      1  C 
      2      2  O        1   1.358200(     1)
      3      3  H        1   1.077833(     2)      2  113.943(    12)
      4      4  H        1   1.081545(     3)      2  118.987(    13)      3  205.684(    22)      0
      5      5  H        2   0.957377(     4)      1  109.908(    14)      3  175.620(    23)      0
      6      6  C        1  10.000000(     5)      2  112.638(    15)      3  102.395(    24)      0
      7      7  C        6   1.481354(     6)      1   98.733(    16)      2  191.517(    25)      0
      8      8  H        6   1.080396(     7)      7  120.949(    17)      1   96.051(    26)      0
      9      9  H        6   1.080298(     8)      7  120.990(    18)      8  171.523(    27)      0
     10     10  H        7   1.099087(     9)      6  111.603(    19)      8  274.503(    28)      0
     11     11  H        7   1.090815(    10)      6  111.809(    20)     10  119.158(    29)      0
     12     12  H        7   1.090828(    11)      6  111.809(    21)     10  240.885(    30)      0
 ---------------------------------------------------------------------------------------------------
                         Z-Matrix orientation:                         
 ---------------------------------------------------------------------
 Center     Atomic      Atomic             Coordinates (Angstroms)
 Number     Number       Type             X           Y           Z
 ---------------------------------------------------------------------
      1          6           0        0.000000    0.000000    0.000000
      2          8           0        0.000000    0.000000    1.358200
      3          1           0        0.985087    0.000000   -0.437408
      4          1           0       -0.852587    0.410028   -0.524130
      5          1           0       -0.897536    0.068753    1.684195
      6          6           0       -1.981182   -9.014416   -3.849055
      7          6           0       -1.621687   -8.740557   -5.259791
      8          1           0       -3.005854   -8.946021   -3.513457
      9          1           0       -1.255257   -9.418174   -3.158364
     10          1           0       -1.740354   -9.634274   -5.888425
     11          1           0       -2.255812   -7.968132   -5.696967
     12          1           0       -0.581217   -8.428530   -5.359627
 ---------------------------------------------------------------------
                    Distance matrix (angstroms):
                    1          2          3          4          5
     1  C    0.000000
     2  O    1.358200   0.000000
     3  H    1.077833   2.048073   0.000000
     4  H    1.081545   2.106702   1.884859   0.000000
     5  H    1.909663   0.957377   2.837287   2.234992   0.000000
     6  C   10.000000  10.597183  10.084532  10.057285  10.690889
     7  C   10.329211  11.082644  10.317363  10.332047  11.240431
     8  H   10.070294  10.620710  10.267472  10.055261  10.617286
     9  H   10.012639  10.520315  10.056080  10.183068  10.657398
    10  H   11.424606  12.180379  11.400037  11.421549  12.337085
    11  H   10.051629  10.879117  10.082535   9.945895  10.996272
    12  H   10.005176  10.793847   9.885427  10.078481  11.041709
                    6          7          8          9         10
     6  C    0.000000
     7  C    1.481354   0.000000
     8  H    1.080396   2.237815   0.000000
     9  H    1.080298   2.238176   1.847596   0.000000
    10  H    2.145052   1.099087   2.777706   2.781232   0.000000
    11  H    2.141240   1.090815   2.507298   3.090023   1.754532
    12  H    2.141259   1.090828   3.091117   2.505850   1.754151
                   11         12
    11  H    0.000000
    12  H    1.769190   0.000000
 Symmetry turned off by external request.
 Stoichiometry    C3H8O(3)
 Framework group  C1[X(C3H8O)]
 Deg. of freedom    30
 Full point group                 C1      NOp   1
 Rotational constants (GHZ):     13.3872339      0.3028909      0.2982622
 Standard basis: Jun-CC-pVTZ (5D, 7F)
   268 basis functions,   384 primitive gaussians,   300 cartesian basis functions
    18 alpha electrons       16 beta electrons
       nuclear repulsion energy        87.0021301224 Hartrees.
 NAtoms=   12 NActive=   12 NUniq=   12 SFac= 1.00D+00 NAtFMM=   60 NAOKFM=F Big=F
 Integral buffers will be    131072 words long.
 Raffenetti 2 integral format.
 Two-electron integral symmetry is turned off.
 Nuclear repulsion after empirical dispersion term =       87.0003811400 Hartrees.
 One-electron integrals computed using PRISM.
 NBasis=   268 RedAO= T EigKep=  1.13D-04  NBF=   268
 NBsUse=   268 1.00D-06 EigRej= -1.00D+00 NBFU=   268
 Initial guess from the checkpoint file:  "tmp.chk"
 B after Tr=     0.000069    0.005398    0.007346
         Rot=    0.999992    0.001758   -0.000517   -0.003558 Ang=   0.46 deg.
 Initial guess <Sx>= 0.0000 <Sy>= 0.0000 <Sz>= 1.0000 <S**2>= 2.0087 S= 1.0029
 ExpMin= 3.57D-02 ExpMax= 1.53D+04 ExpMxC= 5.22D+02 IAcc=3 IRadAn=         5 AccDes= 0.00D+00
 Harris functional with IExCor= 4639 and IRadAn=       5 diagonalized for initial guess.
 HarFok:  IExCor= 4639 AccDes= 0.00D+00 IRadAn=         5 IDoV= 1 UseB2=F ITyADJ=14
 ICtDFT=  3500011 ScaDFX=  1.000000  1.000000  1.000000  1.000000
 FoFCou: FMM=F IPFlag=           0 FMFlag=      100000 FMFlg1=           0
         NFxFlg=           0 DoJE=T BraDBF=F KetDBF=T FulRan=T
         wScrn=  0.000000 ICntrl=     500 IOpCl=  0 I1Cent=   200000004 NGrid=           0
         NMat0=    1 NMatS0=      1 NMatT0=    0 NMatD0=    1 NMtDS0=    0 NMtDT0=    0
 Symmetry not used in FoFCou.
 Requested convergence on RMS density matrix=1.00D-08 within 128 cycles.
 Requested convergence on MAX density matrix=1.00D-06.
 Requested convergence on             energy=1.00D-06.
 No special actions if energy rises.
 SCF Done:  E(UwB97XD) =  -194.229494946     A.U. after   10 cycles
            NFock= 10  Conv=0.68D-08     -V/T= 2.0065
 <Sx>= 0.0000 <Sy>= 0.0000 <Sz>= 1.0000 <S**2>= 2.0088 S= 1.0029
 <L.S>=  0.00000000000    
 Annihilation of the first spin contaminant:
 S**2 before annihilation     2.0088,   after     2.0000
 DipInt: DoE/N= T T RetVal/Mat= T F Init=T NMatP=  1 IDeriv=0 Min/MaxMlt=  1  1
 Entering OneElI...
 Multipole integrals L=1 to 1 MinM= 0 MaxM= 0.
 Requested accuracy = 0.1000D-12
 PrsmSu:  NPrtUS=   1 ThrOK=F IAlg=1 NPAlg=1 LenDen=           0.
 Prism:   IPart=     0 DynPar=F LinDyn=F Incr=          34.
 PRISM was handed   419083984 working-precision words and  3443 shell-pairs
 IPart=  0 NShTot=        3443 NBatch=          53 AvBLen=        65.0
 PrSmSu:  NxtVal=             35.
 Entering OneElI...
 Calculate overlap and kinetic energy integrals
    NBasis = 300  MinDer = 1  MaxDer = 1
 Requested accuracy = 0.1000D-12
 PrsmSu:  NPrtUS=  32 ThrOK=T IAlg=1 NPAlg=1 LenDen=           0.
 PRISM was handed    13023123 working-precision words and  3688 shell-pairs
 PRISM was handed    13023123 working-precision words and  3688 shell-pairs
 PRISM was handed    13023123 working-precision words and  3688 shell-pairs
 Prism:   IPart=     0 DynPar=F LinDyn=F Incr=           1.
 PRISM was handed    13023123 working-precision words and  3688 shell-pairs
 PRISM was handed    13023123 working-precision words and  3688 shell-pairs
 PRISM was handed    13023123 working-precision words and  3688 shell-pairs
 PRISM was handed    13023123 working-precision words and  3688 shell-pairs
 PRISM was handed    13023123 working-precision words and  3688 shell-pairs
 PRISM was handed    13023123 working-precision words and  3688 shell-pairs
 IPart= 18 NShTot=         106 NBatch=          20 AvBLen=         5.3
 PRISM was handed    13023123 working-precision words and  3688 shell-pairs
 PRISM was handed    13023123 working-precision words and  3688 shell-pairs
 PRISM was handed    13023123 working-precision words and  3688 shell-pairs
 PRISM was handed    13023123 working-precision words and  3688 shell-pairs
 PRISM was handed    13023123 working-precision words and  3688 shell-pairs
 PRISM was handed    13023123 working-precision words and  3688 shell-pairs
 PRISM was handed    13023123 working-precision words and  3688 shell-pairs
 PRISM was handed    13023123 working-precision words and  3688 shell-pairs
 PRISM was handed    13023123 working-precision words and  3688 shell-pairs
 PRISM was handed    13023123 working-precision words and  3688 shell-pairs
 PRISM was handed    13023123 working-precision words and  3688 shell-pairs
 PRISM was handed    13023123 working-precision words and  3688 shell-pairs
 PRISM was handed    13023123 working-precision words and  3688 shell-pairs
 PRISM was handed    13023123 working-precision words and  3688 shell-pairs
 PRISM was handed    13023123 working-precision words and  3688 shell-pairs
 PRISM was handed    13023123 working-precision words and  3688 shell-pairs
 PRISM was handed    13023123 working-precision words and  3688 shell-pairs
 PRISM was handed    13023123 working-precision words and  3688 shell-pairs
 PRISM was handed    13023123 working-precision words and  3688 shell-pairs
 PRISM was handed    13023123 working-precision words and  3688 shell-pairs
 PRISM was handed    13023123 working-precision words and  3688 shell-pairs
 PRISM was handed    13023123 working-precision words and  3688 shell-pairs
 PRISM was handed    13023123 working-precision words and  3688 shell-pairs
 IPart= 14 NShTot=         108 NBatch=          21 AvBLen=         5.1
 IPart=  9 NShTot=         117 NBatch=          21 AvBLen=         5.6
 IPart= 31 NShTot=         102 NBatch=          20 AvBLen=         5.1
 IPart= 28 NShTot=         103 NBatch=          20 AvBLen=         5.2
 IPart= 30 NShTot=         102 NBatch=          20 AvBLen=         5.1
 IPart= 22 NShTot=         104 NBatch=          20 AvBLen=         5.2
 IPart= 15 NShTot=         108 NBatch=          21 AvBLen=         5.1
 IPart=  2 NShTot=         145 NBatch=          43 AvBLen=         3.4
 IPart= 16 NShTot=         107 NBatch=          20 AvBLen=         5.3
 IPart= 19 NShTot=         106 NBatch=          20 AvBLen=         5.3
 IPart=  6 NShTot=         127 NBatch=          29 AvBLen=         4.4
 IPart= 26 NShTot=         103 NBatch=          20 AvBLen=         5.2
 IPart= 13 NShTot=         114 NBatch=          21 AvBLen=         5.4
 IPart= 21 NShTot=         106 NBatch=          20 AvBLen=         5.3
 IPart= 25 NShTot=         103 NBatch=          20 AvBLen=         5.2
 IPart=  8 NShTot=         119 NBatch=          22 AvBLen=         5.4
 IPart= 10 NShTot=         116 NBatch=          21 AvBLen=         5.5
 IPart=  0 NShTot=         152 NBatch=          50 AvBLen=         3.0
 IPart= 11 NShTot=         116 NBatch=          21 AvBLen=         5.5
 IPart= 24 NShTot=         104 NBatch=          20 AvBLen=         5.2
 IPart= 27 NShTot=         103 NBatch=          20 AvBLen=         5.2
 IPart=  7 NShTot=         126 NBatch=          29 AvBLen=         4.3
 IPart=  5 NShTot=         130 NBatch=          30 AvBLen=         4.3
 IPart= 29 NShTot=         102 NBatch=          20 AvBLen=         5.1
 IPart= 17 NShTot=         107 NBatch=          20 AvBLen=         5.3
 IPart= 20 NShTot=         106 NBatch=          20 AvBLen=         5.3
 IPart=  4 NShTot=         135 NBatch=          33 AvBLen=         4.1
 IPart=  3 NShTot=         144 NBatch=          42 AvBLen=         3.4
 IPart= 23 NShTot=         104 NBatch=          20 AvBLen=         5.2
 IPart= 12 NShTot=         116 NBatch=          21 AvBLen=         5.5
 IPart=  1 NShTot=         147 NBatch=          45 AvBLen=         3.3
 PrSmSu:  NxtVal=             33.
 Entering OneElI...
 Calculate potential energy integrals
    NBasis = 300  MinDer = 1  MaxDer = 1
 Requested accuracy = 0.1000D-12
 PrsmSu:  NPrtUS=  32 ThrOK=T IAlg=1 NPAlg=1 LenDen=           0.
 PRISM was handed    13039506 working-precision words and  2976 shell-pairs
 PRISM was handed    13039506 working-precision words and  2976 shell-pairs
 PRISM was handed    13039506 working-precision words and  2976 shell-pairs
 PRISM was handed    13039506 working-precision words and  2976 shell-pairs
 PRISM was handed    13039506 working-precision words and  2976 shell-pairs
 PRISM was handed    13039506 working-precision words and  2976 shell-pairs
 PRISM was handed    13039506 working-precision words and  2976 shell-pairs
 PRISM was handed    13039506 working-precision words and  2976 shell-pairs
 PRISM was handed    13039506 working-precision words and  2976 shell-pairs
 PRISM was handed    13039506 working-precision words and  2976 shell-pairs
 PRISM was handed    13039506 working-precision words and  2976 shell-pairs
 PRISM was handed    13039506 working-precision words and  2976 shell-pairs
 PRISM was handed    13039506 working-precision words and  2976 shell-pairs
 PRISM was handed    13039506 working-precision words and  2976 shell-pairs
 PRISM was handed    13039506 working-precision words and  2976 shell-pairs
 PRISM was handed    13039506 working-precision words and  2976 shell-pairs
 PRISM was handed    13039506 working-precision words and  2976 shell-pairs
 PRISM was handed    13039506 working-precision words and  2976 shell-pairs
 PRISM was handed    13039506 working-precision words and  2976 shell-pairs
 PRISM was handed    13039506 working-precision words and  2976 shell-pairs
 PRISM was handed    13039506 working-precision words and  2976 shell-pairs
 PRISM was handed    13039506 working-precision words and  2976 shell-pairs
 PRISM was handed    13039506 working-precision words and  2976 shell-pairs
 PRISM was handed    13039506 working-precision words and  2976 shell-pairs
 PRISM was handed    13039506 working-precision words and  2976 shell-pairs
 PRISM was handed    13039506 working-precision words and  2976 shell-pairs
 PRISM was handed    13039506 working-precision words and  2976 shell-pairs
 PRISM was handed    13039506 working-precision words and  2976 shell-pairs
 PRISM was handed    13039506 working-precision words and  2976 shell-pairs
 Prism:   IPart=     0 DynPar=F LinDyn=F Incr=          11.
 PRISM was handed    13039506 working-precision words and  2976 shell-pairs
 PRISM was handed    13039506 working-precision words and  2976 shell-pairs
 PRISM was handed    13039506 working-precision words and  2976 shell-pairs
 IPart=  2 NShTot=        1416 NBatch=         118 AvBLen=        12.0
 IPart= 26 NShTot=         996 NBatch=          83 AvBLen=        12.0
 IPart=  1 NShTot=        1476 NBatch=         123 AvBLen=        12.0
 IPart= 24 NShTot=        1008 NBatch=          84 AvBLen=        12.0
 IPart=  8 NShTot=        1140 NBatch=          95 AvBLen=        12.0
 IPart= 16 NShTot=        1032 NBatch=          86 AvBLen=        12.0
 IPart=  6 NShTot=        1272 NBatch=         106 AvBLen=        12.0
 IPart= 28 NShTot=         996 NBatch=          83 AvBLen=        12.0
 IPart=  4 NShTot=        1308 NBatch=         109 AvBLen=        12.0
 IPart=  9 NShTot=        1104 NBatch=          92 AvBLen=        12.0
 IPart= 22 NShTot=        1008 NBatch=          84 AvBLen=        12.0
 IPart=  5 NShTot=        1284 NBatch=         107 AvBLen=        12.0
 IPart= 20 NShTot=        1032 NBatch=          86 AvBLen=        12.0
 IPart= 23 NShTot=        1008 NBatch=          84 AvBLen=        12.0
 IPart= 10 NShTot=        1080 NBatch=          90 AvBLen=        12.0
 IPart= 19 NShTot=        1032 NBatch=          86 AvBLen=        12.0
 IPart=  3 NShTot=        1404 NBatch=         117 AvBLen=        12.0
 IPart= 17 NShTot=        1032 NBatch=          86 AvBLen=        12.0
 IPart= 11 NShTot=        1080 NBatch=          90 AvBLen=        12.0
 IPart= 27 NShTot=         996 NBatch=          83 AvBLen=        12.0
 IPart= 12 NShTot=        1068 NBatch=          89 AvBLen=        12.0
 IPart= 29 NShTot=         984 NBatch=          82 AvBLen=        12.0
 IPart= 31 NShTot=         948 NBatch=          79 AvBLen=        12.0
 IPart= 25 NShTot=        1008 NBatch=          84 AvBLen=        12.0
 IPart= 18 NShTot=        1032 NBatch=          86 AvBLen=        12.0
 IPart= 13 NShTot=        1068 NBatch=          89 AvBLen=        12.0
 IPart= 21 NShTot=        1020 NBatch=          85 AvBLen=        12.0
 IPart= 30 NShTot=         972 NBatch=          81 AvBLen=        12.0
 IPart= 15 NShTot=        1044 NBatch=          87 AvBLen=        12.0
 IPart=  7 NShTot=        1236 NBatch=         103 AvBLen=        12.0
 IPart= 14 NShTot=        1068 NBatch=          89 AvBLen=        12.0
 IPart=  0 NShTot=        1560 NBatch=         130 AvBLen=        12.0
 PrSmSu:  NxtVal=            353.
 l701 out
 I=    0 X=  -5.280754302352D-01 Y=   1.731621094034D-01 Z=  -1.518224418576D-01
 I=    1 X=   1.140543118248D-01 Y=  -8.161938613979D-01 Z=  -5.602546919851D+00
 I=    2 X=   2.521381691964D+00 Y=   1.423061746677D-02 Z=   7.044897848961D+00
 I=    3 X=   2.678652536035D+00 Y=  -2.189197805152D-02 Z=  -1.542422901114D+00
 I=    4 X=  -2.280741833112D+00 Y=   1.181869342223D+00 Z=  -1.730936231823D+00
 I=    5 X=  -2.910032019537D+00 Y=   2.595835101177D-01 Z=   2.188863391775D+00
 I=    6 X=  -6.498555922623D-01 Y=  -5.003806227898D-01 Z=   2.472914704540D+00
 I=    7 X=   5.597104713748D-01 Y=   2.411539905304D-01 Z=  -2.518280109530D+00
 I=    8 X=  -2.698297888838D+00 Y=   8.766244815959D-02 Z=   1.194504260453D+00
 I=    9 X=   1.752944251890D+00 Y=  -1.115756070003D+00 Z=   2.098816979963D+00
 I=   10 X=  -2.383107665518D-01 Y=  -2.169465773499D+00 Z=  -1.771259426968D+00
 I=   11 X=  -1.571810811669D+00 Y=   2.010031657829D+00 Z=  -1.349281519456D+00
 I=   12 X=   2.722305648882D+00 Y=   8.291567394146D-01 Z=  -4.852700769498D-01
 ICntrl=      2127.
 Calling FoFJK, ICntrl=      2127 FMM=F ISym2X=0 I1Cent= 0 IOpClX= 1 NMat=1 NMatS=1 NMatT=0.
 FoFJK:  IHMeth= 1 ICntrl=    2127 DoSepK=T KAlg= 0 I1Cent=   0 FoldK=F
 IRaf=         1 NMat=   1 IRICut=       1 DoRegI=T DoRafI=F ISym2E= 0.
 FoFCou: FMM=F IPFlag=           0 FMFlag=      100000 FMFlg1=         800
         NFxFlg=           0 DoJE=F BraDBF=F KetDBF=F FulRan=T
         wScrn=  0.000000 ICntrl=    2527 IOpCl=  0 I1Cent=           0 NGrid=           0
         NMat0=    1 NMatS0=      1 NMatT0=    0 NMatD0=    1 NMtDS0=    0 NMtDT0=    0
 Symmetry not used in FoFCou.
 FoFCou:  KetSym=F NOpSet=  1 NOpAb=1 NOp=  1.
 FoFCou:  CnvScl= 1.00D+00 Thresh= 1.00D-10 IAcrcy=      10.
 PrismS was handed   418996336 working-precision words and  3262 shell-pairs
 FoFCou: LinMIO=F DoNuc=F BraDBF=F KetDBF=F HaveP=T PDBF=F HaveZ=T HaveW=F
         NIJTC =      10 NIJTAt=       0 NIJTCD=       0 NIJTT =      10
         IJTBeg=       1 IJTEnd=      10 KLTBeg=       1 KLTEnd=      10
         IPTBeg=       1 IPTEnd=      10 IPTBCv=       1 IPTECv=      10
         IZTBeg=       1 IZTEnd=      10 IZTBCv=       1 IZTECv=      10
         IWTBeg=      11 IWTEnd=      10 IWTBCv=      11 IWTECv=      10
         INTBeg=       1 INTEnd=       0 IFTBCv=       1 IFTECv=      10
 NCel replicated for PrismC:     1
 CoulSu:  IncDef=  1024 NBBP=        5321953 NTPThr=   100 NPartT=   32 Incr=        1024 LDynOK=F.
 CoulSu:  NPrtUS=  32 ThrOK=T IAlg=1 NPAlg=1 LenDen=           0 LWGrdD=           0 DoCopy=F.
 Enter PrismC: JobTyp=21 DoJE=F Cont=F.
 Enter PrismC: JobTyp=21 DoJE=F Cont=F.
 Enter PrismC: JobTyp=21 DoJE=F Cont=F.
 PrismC was handed    13032912 working-precision words and  3262 shell-pairs
 PrismC was handed    13032912 working-precision words and  3262 shell-pairs
 Enter PrismC: JobTyp=21 DoJE=F Cont=F.
 Enter PrismC: JobTyp=21 DoJE=F Cont=F.
 Enter PrismC: JobTyp=21 DoJE=F Cont=F.
 Enter PrismC: JobTyp=21 DoJE=F Cont=F.
 Enter PrismC: JobTyp=21 DoJE=F Cont=F.
 Enter PrismC: JobTyp=21 DoJE=F Cont=F.
 Enter PrismC: JobTyp=21 DoJE=F Cont=F.
 Enter PrismC: JobTyp=21 DoJE=F Cont=F.
 Enter PrismC: JobTyp=21 DoJE=F Cont=F.
 Enter PrismC: JobTyp=21 DoJE=F Cont=F.
 Enter PrismC: JobTyp=21 DoJE=F Cont=F.
 Enter PrismC: JobTyp=21 DoJE=F Cont=F.
 Enter PrismC: JobTyp=21 DoJE=F Cont=F.
 PrismC was handed    13032912 working-precision words and  3262 shell-pairs
 Enter PrismC: JobTyp=21 DoJE=F Cont=F.
 Enter PrismC: JobTyp=21 DoJE=F Cont=F.
 PrismC was handed    13032912 working-precision words and  3262 shell-pairs
 Enter PrismC: JobTyp=21 DoJE=F Cont=F.
 PrismC was handed    13032912 working-precision words and  3262 shell-pairs
 Enter PrismC: JobTyp=21 DoJE=F Cont=F.
 PrismC was handed    13032912 working-precision words and  3262 shell-pairs
 Enter PrismC: JobTyp=21 DoJE=F Cont=F.
 Enter PrismC: JobTyp=21 DoJE=F Cont=F.
 Enter PrismC: JobTyp=21 DoJE=F Cont=F.
 Enter PrismC: JobTyp=21 DoJE=F Cont=F.
 Enter PrismC: JobTyp=21 DoJE=F Cont=F.
 PrismC was handed    13032912 working-precision words and  3262 shell-pairs
 Enter PrismC: JobTyp=21 DoJE=F Cont=F.
 PrismC was handed    13032912 working-precision words and  3262 shell-pairs
 Enter PrismC: JobTyp=21 DoJE=F Cont=F.
 PrismC was handed    13032912 working-precision words and  3262 shell-pairs
 Enter PrismC: JobTyp=21 DoJE=F Cont=F.
 Enter PrismC: JobTyp=21 DoJE=F Cont=F.
 PrismC was handed    13032912 working-precision words and  3262 shell-pairs
 Enter PrismC: JobTyp=21 DoJE=F Cont=F.
 PrismC was handed    13032912 working-precision words and  3262 shell-pairs
 Enter PrismC: JobTyp=21 DoJE=F Cont=F.
 PrismC was handed    13032912 working-precision words and  3262 shell-pairs
 Enter PrismC: JobTyp=21 DoJE=F Cont=F.
 PrismC was handed    13032912 working-precision words and  3262 shell-pairs
 PrismC was handed    13032912 working-precision words and  3262 shell-pairs
 PrismC was handed    13032912 working-precision words and  3262 shell-pairs
 PrismC was handed    13032912 working-precision words and  3262 shell-pairs
 PrismC was handed    13032912 working-precision words and  3262 shell-pairs
 PrismC was handed    13032912 working-precision words and  3262 shell-pairs
 PrismC was handed    13032912 working-precision words and  3262 shell-pairs
 PrismC was handed    13032912 working-precision words and  3262 shell-pairs
 PrismC was handed    13032912 working-precision words and  3262 shell-pairs
 PrismC was handed    13032912 working-precision words and  3262 shell-pairs
 PrismC was handed    13032912 working-precision words and  3262 shell-pairs
 PrismC was handed    13032912 working-precision words and  3262 shell-pairs
 PrismC was handed    13032912 working-precision words and  3262 shell-pairs
 PrismC:  IPart=     0 DynPar=T LinDyn=F Incr=        1024 UseFst=F UseS4=T IGathr=2.
 PrismC was handed    13032912 working-precision words and  3262 shell-pairs
 PrismC was handed    13032912 working-precision words and  3262 shell-pairs
 PrismC was handed    13032912 working-precision words and  3262 shell-pairs
 PrismC was handed    13032912 working-precision words and  3262 shell-pairs
 PrismC was handed    13032912 working-precision words and  3262 shell-pairs
 PrismC was handed    13032912 working-precision words and  3262 shell-pairs
 PrismC was handed    13032912 working-precision words and  3262 shell-pairs
 IPart= 12 NShTot=      177782 NShNF=      177782 NShFF=           0 NBatch=        1322 AvBLen=       134.5
 IPart= 13 NShTot=      105267 NShNF=      105267 NShFF=           0 NBatch=         756 AvBLen=       139.2
 IPart= 25 NShTot=      129275 NShNF=      129275 NShFF=           0 NBatch=         844 AvBLen=       153.2
 IPart= 18 NShTot=      109093 NShNF=      109093 NShFF=           0 NBatch=         676 AvBLen=       161.4
 IPart= 31 NShTot=      109550 NShNF=      109550 NShFF=           0 NBatch=         815 AvBLen=       134.4
 IPart=  9 NShTot=      126663 NShNF=      126663 NShFF=           0 NBatch=         840 AvBLen=       150.8
 IPart= 23 NShTot=      125563 NShNF=      125563 NShFF=           0 NBatch=        1152 AvBLen=       109.0
 IPart= 27 NShTot=       76425 NShNF=       76425 NShFF=           0 NBatch=         733 AvBLen=       104.3
 IPart= 22 NShTot=      100361 NShNF=      100361 NShFF=           0 NBatch=         763 AvBLen=       131.5
 IPart= 26 NShTot=      132216 NShNF=      132216 NShFF=           0 NBatch=        1262 AvBLen=       104.8
 IPart= 11 NShTot=       87918 NShNF=       87918 NShFF=           0 NBatch=         596 AvBLen=       147.5
 IPart=  8 NShTot=       85475 NShNF=       85475 NShFF=           0 NBatch=         765 AvBLen=       111.7
 IPart= 20 NShTot=      124582 NShNF=      124582 NShFF=           0 NBatch=        1044 AvBLen=       119.3
 IPart= 28 NShTot=      146393 NShNF=      146393 NShFF=           0 NBatch=        1464 AvBLen=       100.0
 IPart=  6 NShTot=      104746 NShNF=      104746 NShFF=           0 NBatch=         776 AvBLen=       135.0
 IPart= 16 NShTot=      119318 NShNF=      119318 NShFF=           0 NBatch=        1315 AvBLen=        90.7
 IPart= 17 NShTot=       89733 NShNF=       89733 NShFF=           0 NBatch=         737 AvBLen=       121.8
 IPart= 21 NShTot=       87248 NShNF=       87248 NShFF=           0 NBatch=         755 AvBLen=       115.6
 IPart= 19 NShTot=       90068 NShNF=       90068 NShFF=           0 NBatch=         854 AvBLen=       105.5
 IPart= 14 NShTot=      142617 NShNF=      142617 NShFF=           0 NBatch=        1126 AvBLen=       126.7
 IPart=  7 NShTot=      151247 NShNF=      151247 NShFF=           0 NBatch=        1051 AvBLen=       143.9
 IPart= 29 NShTot=      100583 NShNF=      100583 NShFF=           0 NBatch=         775 AvBLen=       129.8
 IPart= 10 NShTot=      144114 NShNF=      144114 NShFF=           0 NBatch=        1062 AvBLen=       135.7
 IPart=  1 NShTot=      142516 NShNF=      142516 NShFF=           0 NBatch=        1390 AvBLen=       102.5
 IPart=  4 NShTot=       91430 NShNF=       91430 NShFF=           0 NBatch=         743 AvBLen=       123.1
 IPart=  2 NShTot=      126159 NShNF=      126159 NShFF=           0 NBatch=         981 AvBLen=       128.6
 IPart=  5 NShTot=       95423 NShNF=       95423 NShFF=           0 NBatch=         726 AvBLen=       131.4
 IPart=  3 NShTot=      143188 NShNF=      143188 NShFF=           0 NBatch=         984 AvBLen=       145.5
 IPart= 30 NShTot=      102551 NShNF=      102551 NShFF=           0 NBatch=         807 AvBLen=       127.1
 IPart=  0 NShTot=       94619 NShNF=       94619 NShFF=           0 NBatch=         852 AvBLen=       111.1
 IPart= 15 NShTot=      112243 NShNF=      112243 NShFF=           0 NBatch=         835 AvBLen=       134.4
 IPart= 24 NShTot=       94473 NShNF=       94473 NShFF=           0 NBatch=         829 AvBLen=       114.0
 CoulSu:  NxtVal=        5819393.
 FoFCou: FMM=F IPFlag=           0 FMFlag=      100000 FMFlg1=         800
         NFxFlg=           0 DoJE=F BraDBF=F KetDBF=F FulRan=T
         wScrn=  0.000000 ICntrl=    2127 IOpCl=  1 I1Cent=           0 NGrid=           0
         NMat0=    1 NMatS0=      0 NMatT0=    1 NMatD0=    1 NMtDS0=    0 NMtDT0=    0
         CW=    0.222036    0.777964
         WU=    0.000000   12.500000
 Symmetry not used in FoFCou.
 FoFCou:  KetSym=F NOpSet=  1 NOpAb=1 NOp=  1.
 FoFCou:  CnvScl= 1.00D+00 Thresh= 1.00D-10 IAcrcy=      10.
 PrismS was handed   418991370 working-precision words and  3262 shell-pairs
 FoFCou: LinMIO=F DoNuc=F BraDBF=F KetDBF=F HaveP=T PDBF=F HaveZ=T HaveW=F
         NIJTC =      10 NIJTAt=       0 NIJTCD=       0 NIJTT =      10
         IJTBeg=       1 IJTEnd=      10 KLTBeg=       1 KLTEnd=      10
         IPTBeg=       1 IPTEnd=      10 IPTBCv=       1 IPTECv=      10
         IZTBeg=       1 IZTEnd=      10 IZTBCv=       1 IZTECv=      10
         IWTBeg=      11 IWTEnd=      10 IWTBCv=      11 IWTECv=      10
         INTBeg=       1 INTEnd=       0 IFTBCv=       1 IFTECv=      10
 NCel replicated for PrismC:     1
 CoulSu:  IncDef=  1024 NBBP=        5321953 NTPThr=   100 NPartT=   32 Incr=        1024 LDynOK=F.
 CoulSu:  NPrtUS=  32 ThrOK=T IAlg=1 NPAlg=1 LenDen=           0 LWGrdD=           0 DoCopy=F.
 Enter PrismC: JobTyp=21 DoJE=F Cont=F.
 Linear combination for Coulomb/exchange, wScrn=  0.000000
 CW=    0.222036    0.777964
 WU=    0.000000   12.500000
 PrismC was handed    13032757 working-precision words and  3262 shell-pairs
 Enter PrismC: JobTyp=21 DoJE=F Cont=F.
 Linear combination for Coulomb/exchange, wScrn=  0.000000
 CW=    0.222036    0.777964
 WU=    0.000000   12.500000
 Enter PrismC: JobTyp=21 DoJE=F Cont=F.
 Enter PrismC: JobTyp=21 DoJE=F Cont=F.
 Linear combination for Coulomb/exchange, wScrn=  0.000000
 CW=    0.222036    0.777964
 WU=    0.000000   12.500000
 Enter PrismC: JobTyp=21 DoJE=F Cont=F.
 Enter PrismC: JobTyp=21 DoJE=F Cont=F.
 Linear combination for Coulomb/exchange, wScrn=  0.000000
 Enter PrismC: JobTyp=21 DoJE=F Cont=F.
 Linear combination for Coulomb/exchange, wScrn=  0.000000
 CW=    0.222036    0.777964
 WU=    0.000000   12.500000
 Enter PrismC: JobTyp=21 DoJE=F Cont=F.
 Linear combination for Coulomb/exchange, wScrn=  0.000000
 CW=    0.222036    0.777964
 WU=    0.000000   12.500000
 PrismC was handed    13032757 working-precision words and  3262 shell-pairs
 Enter PrismC: JobTyp=21 DoJE=F Cont=F.
 Linear combination for Coulomb/exchange, wScrn=  0.000000
 CW=    0.222036    0.777964
 WU=    0.000000   12.500000
 Enter PrismC: JobTyp=21 DoJE=F Cont=F.
 Linear combination for Coulomb/exchange, wScrn=  0.000000
 CW=    0.222036    0.777964
 WU=    0.000000   12.500000
 Enter PrismC: JobTyp=21 DoJE=F Cont=F.
 Linear combination for Coulomb/exchange, wScrn=  0.000000
 CW=    0.222036    0.777964
 WU=    0.000000   12.500000
 CW=    0.222036    0.777964
 WU=    0.000000   12.500000
 Linear combination for Coulomb/exchange, wScrn=  0.000000
 CW=    0.222036    0.777964
 WU=    0.000000   12.500000
 Enter PrismC: JobTyp=21 DoJE=F Cont=F.
 Linear combination for Coulomb/exchange, wScrn=  0.000000
 CW=    0.222036    0.777964
 WU=    0.000000   12.500000
 PrismC was handed    13032757 working-precision words and  3262 shell-pairs
 Enter PrismC: JobTyp=21 DoJE=F Cont=F.
 Linear combination for Coulomb/exchange, wScrn=  0.000000
 CW=    0.222036    0.777964
 WU=    0.000000   12.500000
 PrismC was handed    13032757 working-precision words and  3262 shell-pairs
 Enter PrismC: JobTyp=21 DoJE=F Cont=F.
 Linear combination for Coulomb/exchange, wScrn=  0.000000
 CW=    0.222036    0.777964
 WU=    0.000000   12.500000
 PrismC was handed    13032757 working-precision words and  3262 shell-pairs
 Enter PrismC: JobTyp=21 DoJE=F Cont=F.
 Linear combination for Coulomb/exchange, wScrn=  0.000000
 CW=    0.222036    0.777964
 WU=    0.000000   12.500000
 PrismC was handed    13032757 working-precision words and  3262 shell-pairs
 PrismC was handed    13032757 working-precision words and  3262 shell-pairs
 Enter PrismC: JobTyp=21 DoJE=F Cont=F.
 Linear combination for Coulomb/exchange, wScrn=  0.000000
 CW=    0.222036    0.777964
 WU=    0.000000   12.500000
 PrismC was handed    13032757 working-precision words and  3262 shell-pairs
 Enter PrismC: JobTyp=21 DoJE=F Cont=F.
 Linear combination for Coulomb/exchange, wScrn=  0.000000
 CW=    0.222036    0.777964
 WU=    0.000000   12.500000
 PrismC was handed    13032757 working-precision words and  3262 shell-pairs
 Enter PrismC: JobTyp=21 DoJE=F Cont=F.
 Linear combination for Coulomb/exchange, wScrn=  0.000000
 CW=    0.222036    0.777964
 WU=    0.000000   12.500000
 PrismC was handed    13032757 working-precision words and  3262 shell-pairs
 PrismC was handed    13032757 working-precision words and  3262 shell-pairs
 Enter PrismC: JobTyp=21 DoJE=F Cont=F.
 Linear combination for Coulomb/exchange, wScrn=  0.000000
 CW=    0.222036    0.777964
 WU=    0.000000   12.500000
 PrismC was handed    13032757 working-precision words and  3262 shell-pairs
 Enter PrismC: JobTyp=21 DoJE=F Cont=F.
 Linear combination for Coulomb/exchange, wScrn=  0.000000
 CW=    0.222036    0.777964
 WU=    0.000000   12.500000
 PrismC was handed    13032757 working-precision words and  3262 shell-pairs
 Enter PrismC: JobTyp=21 DoJE=F Cont=F.
 Linear combination for Coulomb/exchange, wScrn=  0.000000
 CW=    0.222036    0.777964
 WU=    0.000000   12.500000
 PrismC was handed    13032757 working-precision words and  3262 shell-pairs
 Enter PrismC: JobTyp=21 DoJE=F Cont=F.
 Linear combination for Coulomb/exchange, wScrn=  0.000000
 CW=    0.222036    0.777964
 PrismC was handed    13032757 working-precision words and  3262 shell-pairs
 Enter PrismC: JobTyp=21 DoJE=F Cont=F.
 Linear combination for Coulomb/exchange, wScrn=  0.000000
 CW=    0.222036    0.777964
 WU=    0.000000   12.500000
 PrismC was handed    13032757 working-precision words and  3262 shell-pairs
 Enter PrismC: JobTyp=21 DoJE=F Cont=F.
 Linear combination for Coulomb/exchange, wScrn=  0.000000
 CW=    0.222036    0.777964
 WU=    0.000000   12.500000
 Enter PrismC: JobTyp=21 DoJE=F Cont=F.
 Linear combination for Coulomb/exchange, wScrn=  0.000000
 CW=    0.222036    0.777964
 WU=    0.000000   12.500000
 PrismC was handed    13032757 working-precision words and  3262 shell-pairs
 WU=    0.000000   12.500000
 PrismC:  IPart=     0 DynPar=T LinDyn=F Incr=        1024 UseFst=F UseS4=T IGathr=2.
 PrismC was handed    13032757 working-precision words and  3262 shell-pairs
 Enter PrismC: JobTyp=21 DoJE=F Cont=F.
 Linear combination for Coulomb/exchange, wScrn=  0.000000
 CW=    0.222036    0.777964
 WU=    0.000000   12.500000
 PrismC was handed    13032757 working-precision words and  3262 shell-pairs
 PrismC was handed    13032757 working-precision words and  3262 shell-pairs
 Linear combination for Coulomb/exchange, wScrn=  0.000000
 CW=    0.222036    0.777964
 WU=    0.000000   12.500000
 PrismC was handed    13032757 working-precision words and  3262 shell-pairs
 PrismC was handed    13032757 working-precision words and  3262 shell-pairs
 PrismC was handed    13032757 working-precision words and  3262 shell-pairs
 Enter PrismC: JobTyp=21 DoJE=F Cont=F.
 Linear combination for Coulomb/exchange, wScrn=  0.000000
 CW=    0.222036    0.777964
 WU=    0.000000   12.500000
 PrismC was handed    13032757 working-precision words and  3262 shell-pairs
 PrismC was handed    13032757 working-precision words and  3262 shell-pairs
 PrismC was handed    13032757 working-precision words and  3262 shell-pairs
 PrismC was handed    13032757 working-precision words and  3262 shell-pairs
 Enter PrismC: JobTyp=21 DoJE=F Cont=F.
 Enter PrismC: JobTyp=21 DoJE=F Cont=F.
 Linear combination for Coulomb/exchange, wScrn=  0.000000
 CW=    0.222036    0.777964
 WU=    0.000000   12.500000
 Linear combination for Coulomb/exchange, wScrn=  0.000000
 CW=    0.222036    0.777964
 WU=    0.000000   12.500000
 PrismC was handed    13032757 working-precision words and  3262 shell-pairs
 Enter PrismC: JobTyp=21 DoJE=F Cont=F.
 Linear combination for Coulomb/exchange, wScrn=  0.000000
 CW=    0.222036    0.777964
 WU=    0.000000   12.500000
 Enter PrismC: JobTyp=21 DoJE=F Cont=F.
 Linear combination for Coulomb/exchange, wScrn=  0.000000
 CW=    0.222036    0.777964
 WU=    0.000000   12.500000
 PrismC was handed    13032757 working-precision words and  3262 shell-pairs
 PrismC was handed    13032757 working-precision words and  3262 shell-pairs
 Enter PrismC: JobTyp=21 DoJE=F Cont=F.
 Linear combination for Coulomb/exchange, wScrn=  0.000000
 CW=    0.222036    0.777964
 WU=    0.000000   12.500000
 PrismC was handed    13032757 working-precision words and  3262 shell-pairs
 PrismC was handed    13032757 working-precision words and  3262 shell-pairs
 IPart=  5 NShTot=       89783 NShNF=       89783 NShFF=           0 NBatch=        1128 AvBLen=        79.6
 IPart= 25 NShTot=      103316 NShNF=      103316 NShFF=           0 NBatch=        1092 AvBLen=        94.6
 IPart=  0 NShTot=      116235 NShNF=      116235 NShFF=           0 NBatch=        1122 AvBLen=       103.6
 IPart= 28 NShTot=       93669 NShNF=       93669 NShFF=           0 NBatch=        1202 AvBLen=        77.9
 IPart= 14 NShTot=      117650 NShNF=      117650 NShFF=           0 NBatch=        1028 AvBLen=       114.4
 IPart=  6 NShTot=      123477 NShNF=      123477 NShFF=           0 NBatch=         921 AvBLen=       134.1
 IPart= 16 NShTot=      108579 NShNF=      108579 NShFF=           0 NBatch=        1103 AvBLen=        98.4
 IPart= 26 NShTot=      114595 NShNF=      114595 NShFF=           0 NBatch=        1233 AvBLen=        92.9
 IPart= 22 NShTot=      111665 NShNF=      111665 NShFF=           0 NBatch=        1056 AvBLen=       105.7
 IPart= 30 NShTot=      118781 NShNF=      118781 NShFF=           0 NBatch=        1119 AvBLen=       106.1
 IPart= 15 NShTot=      116982 NShNF=      116982 NShFF=           0 NBatch=        1081 AvBLen=       108.2
 IPart= 27 NShTot=      160960 NShNF=      160960 NShFF=           0 NBatch=        1216 AvBLen=       132.4
 IPart= 12 NShTot=      102218 NShNF=      102218 NShFF=           0 NBatch=        1179 AvBLen=        86.7
 IPart= 31 NShTot=      170542 NShNF=      170542 NShFF=           0 NBatch=        1449 AvBLen=       117.7
 IPart= 19 NShTot=      124655 NShNF=      124655 NShFF=           0 NBatch=        1169 AvBLen=       106.6
 IPart=  8 NShTot=      117677 NShNF=      117677 NShFF=           0 NBatch=        1120 AvBLen=       105.1
 IPart=  9 NShTot=      101645 NShNF=      101645 NShFF=           0 NBatch=        1009 AvBLen=       100.7
 IPart= 24 NShTot=      163851 NShNF=      163851 NShFF=           0 NBatch=        1416 AvBLen=       115.7
 IPart=  1 NShTot=      103176 NShNF=      103176 NShFF=           0 NBatch=        1238 AvBLen=        83.3
 IPart= 11 NShTot=      114864 NShNF=      114864 NShFF=           0 NBatch=        1087 AvBLen=       105.7
 IPart=  7 NShTot=      103672 NShNF=      103672 NShFF=           0 NBatch=        1028 AvBLen=       100.8
 IPart=  2 NShTot=      104952 NShNF=      104952 NShFF=           0 NBatch=        1135 AvBLen=        92.5
 IPart= 23 NShTot=      113335 NShNF=      113335 NShFF=           0 NBatch=        1190 AvBLen=        95.2
 IPart= 13 NShTot=      105453 NShNF=      105453 NShFF=           0 NBatch=        1117 AvBLen=        94.4
 IPart= 17 NShTot=       98526 NShNF=       98526 NShFF=           0 NBatch=        1180 AvBLen=        83.5
 IPart= 29 NShTot=      112610 NShNF=      112610 NShFF=           0 NBatch=        1041 AvBLen=       108.2
 IPart=  4 NShTot=      103049 NShNF=      103049 NShFF=           0 NBatch=         990 AvBLen=       104.1
 IPart= 21 NShTot=      115523 NShNF=      115523 NShFF=           0 NBatch=        1191 AvBLen=        97.0
 IPart=  3 NShTot=       93325 NShNF=       93325 NShFF=           0 NBatch=        1018 AvBLen=        91.7
 IPart= 18 NShTot=      100441 NShNF=      100441 NShFF=           0 NBatch=        1081 AvBLen=        92.9
 IPart= 20 NShTot=      104253 NShNF=      104253 NShFF=           0 NBatch=        1102 AvBLen=        94.6
 IPart= 10 NShTot=      113594 NShNF=      113594 NShFF=           0 NBatch=        1056 AvBLen=       107.6
 CoulSu:  NxtVal=        5819393.
 ReadGW:  IGet=0 IStart=           1 Next=           1 LGW=           0.
 Remaining memory in FofDFT      399.83 Mw
 CkSvGd:  ISavGI=        -1 IRadAn=       5 IRASav=       5 ISavGd=        -1.
 CalDSu:  NPrtUS=  32 ThrOK=T IAlg=1 NPAlg=2 DoDPD=T LenP=       45150 LenD1P=             0.
 IPart=  0 IRanGd=          0 ScrnBf=T ScrnGd=T RCrit=4.00D+00 DoMicB=T.
 IPart=  5         8255 of        10068 points in      16 batches and       47 microbatches, Max-NSigAt=      12 Max-NSgAt2=      12
 IPart= 27         9299 of        10968 points in      17 batches and       65 microbatches, Max-NSigAt=      12 Max-NSgAt2=      12
 IPart= 29         7919 of         9386 points in      14 batches and       26 microbatches, Max-NSigAt=      12 Max-NSgAt2=      12
 IPart=  0         9264 of        10110 points in      15 batches and       48 microbatches, Max-NSigAt=      12 Max-NSgAt2=      12
 IPart= 20        10803 of        11470 points in      17 batches and       80 microbatches, Max-NSigAt=      12 Max-NSgAt2=      12
 IPart=  9        10482 of        12156 points in      19 batches and       48 microbatches, Max-NSigAt=      12 Max-NSgAt2=      12
 IPart=  3         7758 of         8178 points in      13 batches and       42 microbatches, Max-NSigAt=      12 Max-NSgAt2=      12
 IPart= 18         9646 of        10534 points in      15 batches and       72 microbatches, Max-NSigAt=      12 Max-NSgAt2=      12
 IPart= 28         6811 of         7094 points in      12 batches and       24 microbatches, Max-NSigAt=      12 Max-NSgAt2=      12
 IPart= 19         9014 of         9800 points in      15 batches and       64 microbatches, Max-NSigAt=      12 Max-NSgAt2=      12
 IPart= 26         9382 of        10262 points in      16 batches and       70 microbatches, Max-NSigAt=      12 Max-NSgAt2=      12
 IPart= 10         6521 of         7886 points in      12 batches and       71 microbatches, Max-NSigAt=      12 Max-NSgAt2=      12
 IPart= 12         7976 of         8316 points in      13 batches and       29 microbatches, Max-NSigAt=      12 Max-NSgAt2=      12
 IPart= 14         6796 of         7724 points in      13 batches and       72 microbatches, Max-NSigAt=      12 Max-NSgAt2=      12
 IPart= 11         9899 of        12334 points in      18 batches and       27 microbatches, Max-NSigAt=      12 Max-NSgAt2=      11
 IPart= 23         7003 of         7424 points in      12 batches and       46 microbatches, Max-NSigAt=      12 Max-NSgAt2=      12
 IPart= 24         7163 of         7804 points in      11 batches and       58 microbatches, Max-NSigAt=      12 Max-NSgAt2=      12
 IPart=  7         5611 of         6258 points in      10 batches and       61 microbatches, Max-NSigAt=      12 Max-NSgAt2=      12
 IPart= 25         7534 of         7726 points in      12 batches and       31 microbatches, Max-NSigAt=      12 Max-NSgAt2=      12
 IPart= 22         7869 of         8662 points in      13 batches and       81 microbatches, Max-NSigAt=      12 Max-NSgAt2=      12
 IPart=  1         7646 of         8054 points in      13 batches and       40 microbatches, Max-NSigAt=      12 Max-NSgAt2=      12
 IPart=  4         9080 of        10782 points in      17 batches and       78 microbatches, Max-NSigAt=      12 Max-NSgAt2=      12
 IPart=  2         9179 of        11760 points in      18 batches and       98 microbatches, Max-NSigAt=      12 Max-NSgAt2=      12
 IPart=  8         5554 of         6098 points in       9 batches and       32 microbatches, Max-NSigAt=      12 Max-NSgAt2=      12
 IPart= 15         6578 of         7336 points in      12 batches and       63 microbatches, Max-NSigAt=      12 Max-NSgAt2=      12
 IPart= 16         7127 of         9244 points in      15 batches and       50 microbatches, Max-NSigAt=      12 Max-NSgAt2=      12
 IPart= 31         7336 of         8108 points in      12 batches and       50 microbatches, Max-NSigAt=      12 Max-NSgAt2=      12
 IPart= 13         6053 of         6572 points in      11 batches and       43 microbatches, Max-NSigAt=      12 Max-NSgAt2=      12
 IPart= 17         5686 of         7534 points in      12 batches and       57 microbatches, Max-NSigAt=      12 Max-NSgAt2=      12
 IPart= 30         6531 of         6918 points in      11 batches and       42 microbatches, Max-NSigAt=      12 Max-NSgAt2=      12
 IPart=  6         7121 of         8198 points in      13 batches and       40 microbatches, Max-NSigAt=      12 Max-NSgAt2=      12
 IPart= 21         6461 of         7232 points in      11 batches and       54 microbatches, Max-NSigAt=      12 Max-NSgAt2=      12
 Forces at end of L703
 I=    0 X=  -5.280754302352D-01 Y=   1.731621094034D-01 Z=  -1.518224418576D-01
 I=    1 X=   6.712290077648D-05 Y=   2.816217183832D-05 Z=  -6.235780232524D-04
 I=    2 X=  -2.867825367314D-05 Y=   7.702141305361D-05 Z=   3.555626009941D-04
 I=    3 X=   1.538829848879D-05 Y=  -5.690355953928D-05 Z=   4.657290719812D-05
 I=    4 X=   9.252087247447D-07 Y=  -6.845692248847D-06 Z=   1.271921401427D-04
 I=    5 X=  -5.735715732502D-05 Y=  -4.233127100634D-05 Z=   9.377353475903D-05
 I=    6 X=   2.531422056344D-04 Y=   2.408579271554D-04 Z=  -6.224191039519D-04
 I=    7 X=  -1.059508022853D-04 Y=   3.612761761762D-04 Z=   3.695116606304D-04
 I=    8 X=   9.058519882954D-05 Y=  -1.592072047998D-04 Z=   2.384409280216D-04
 I=    9 X=  -2.707949913532D-04 Y=  -5.986198207975D-05 Z=   1.569129823529D-04
 I=   10 X=   2.426129940070D-05 Y=  -1.586529663160D-04 Z=  -9.461189772941D-05
 I=   11 X=   1.028265486602D-05 Y=  -1.007025169892D-04 Z=   3.132147438079D-06
 I=   12 X=   1.073437887911D-06 Y=  -1.228124952326D-04 Z=  -5.048987658235D-05
 FrcOut:
 IF    =    64 IFX   =   100 IFXYZ =   136
 IFFX  =   172 IFFFX =   172 IFLen =    36
 IFFLen=     0 IFFFLn=     0 IEDerv=   172
 LEDerv=  1781 IFroze=  2359 ICStrt=146684
 -------------------------------------------------------------------
 Center     Atomic                   Forces (Hartrees/Bohr)
 Number     Number              X              Y              Z
 -------------------------------------------------------------------
      1        6          -0.000067123   -0.000028162    0.000623578
      2        8           0.000028678   -0.000077021   -0.000355563
      3        1          -0.000015388    0.000056904   -0.000046573
      4        1          -0.000000925    0.000006846   -0.000127192
      5        1           0.000057357    0.000042331   -0.000093774
      6        6          -0.000253142   -0.000240858    0.000622419
      7        6           0.000105951   -0.000361276   -0.000369512
      8        1          -0.000090585    0.000159207   -0.000238441
      9        1           0.000270795    0.000059862   -0.000156913
     10        1          -0.000024261    0.000158653    0.000094612
     11        1          -0.000010283    0.000100703   -0.000003132
     12        1          -0.000001073    0.000122812    0.000050490
 -------------------------------------------------------------------
 Cartesian Forces:  Max     0.000623578 RMS     0.000211174
 From PutF, contents of force:
   1   -0.4493361358D-03
   2    0.4836131656D-05
   3    0.6496351703D-04
   4   -0.8266278067D-04
   5    0.9941726689D-04
   6    0.2236286463D-03
   7   -0.1262755254D-03
   8    0.1031259143D-04
   9    0.2376255224D-03
  10    0.2192594119D-04
  11    0.5926944362D-04
  12   -0.1805025956D-03
  13    0.7854213371D-04
  14    0.2948506579D-04
  15   -0.5851484550D-03
  16   -0.6113868421D-03
  17   -0.4562933120D-06
  18   -0.2236788956D-04
  19   -0.8124741167D-04
  20    0.1597399370D-03
  21    0.1205842931D-03
  22   -0.2360332214D-03
  23   -0.2091102723D-04
  24    0.1186933382D-04
  25    0.3159793205D-04
  26   -0.7925008192D-04
  27   -0.2633491918D-04
  28    0.1107027567D-04
  29    0.1163022028D-04
  30    0.1506985342D-05
 -----------------------------------------------------------------------------------------------
                       Internal Coordinate Forces (Hartree/Bohr or radian)
  Cent   Atom   N1       Length/X         N2         Alpha/Y        N3         Beta/Z          J
 -----------------------------------------------------------------------------------------------
      1  C 
      2  O        1  -0.000449(     1)
      3  H        1   0.000005(     2)      2   0.000099(    12)
      4  H        1   0.000065(     3)      2   0.000224(    13)      3   0.000010(    22)     0
      5  H        2  -0.000083(     4)      1  -0.000126(    14)      3  -0.000079(    23)     0
      6  C        1   0.000002(     5)      2   0.000012(    15)      3   0.000011(    24)     0
      7  C        6   0.000238(     6)      1  -0.000021(    16)      2   0.000012(    25)     0
      8  H        6   0.000022(     7)      7  -0.000585(    17)      1   0.000032(    26)     0
      9  H        6   0.000059(     8)      7  -0.000611(    18)      8   0.000160(    27)     0
     10  H        7  -0.000181(     9)      6  -0.000000(    19)      8  -0.000026(    28)     0
     11  H        7   0.000079(    10)      6  -0.000022(    20)     10   0.000121(    29)     0
     12  H        7   0.000029(    11)      6  -0.000081(    21)     10  -0.000236(    30)     0
 -----------------------------------------------------------------------------------------------
 Internal  Forces:  Max     0.000611387 RMS     0.000201402
 Final forces over variables, Energy=-1.94229495D+02:
 -4.49336136D-04 4.83613166D-06 6.49635170D-05-8.26627807D-05
  9.94172669D-05 2.23628646D-04-1.26275525D-04 1.03125914D-05
  2.37625522D-04 2.19259412D-05 5.92694436D-05-1.80502596D-04
  7.85421337D-05 2.94850658D-05-5.85148455D-04-6.11386842D-04
 -4.56293312D-07-2.23678896D-05-8.12474117D-05 1.59739937D-04
  1.20584293D-04-2.36033221D-04-2.09110272D-05 1.18693338D-05
  3.15979321D-05-7.92500819D-05-2.63349192D-05 1.10702757D-05
  1.16302203D-05 1.50698534D-06

 GradGradGradGradGradGradGradGradGradGradGradGradGradGradGradGradGradGrad
 Berny optimization.
 Search for a local minimum.
 Step number   4 out of a maximum of   50
 All quantities printed in internal units (Hartrees-Bohrs-Radians)
 Update second derivatives using D2CorN and points    2    3    4
 DE= -2.57D-05 DEPred=-2.00D-05 R= 1.29D+00
 TightC=F SS=  1.41D+00  RLast= 6.61D-02 DXNew= 8.4853D-01 1.9841D-01
 Trust test= 1.29D+00 RLast= 6.61D-02 DXMaxT set to 5.05D-01
 ITU=  1  1  1  0
     Eigenvalues ---    0.00690   0.01907   0.04285   0.06136   0.09983
     Eigenvalues ---    0.13545   0.14066   0.14490   0.16029   0.16356
     Eigenvalues ---    0.24777   0.29497   0.30929   0.33853   0.33916
     Eigenvalues ---    0.34686   0.34744   0.34863   0.35750   0.35882
     Eigenvalues ---    0.35974   0.36217   0.38327   0.38659   0.39631
     Eigenvalues ---    0.45842   0.47196   0.53615   0.560831000.00000
 RFO step:  Lambda=-3.21828077D-06 EMin= 6.90281210D-03
 Quartic linear search produced a step of  0.17162.
 Variable       Old X    -DE/DX   Delta X   Delta X   Delta X     New X
                                 (Linear)    (Quad)   (Total)
    R1        2.56663  -0.00045  -0.00002  -0.00094  -0.00096   2.56567
    R2        2.03681   0.00000  -0.00005  -0.00001  -0.00006   2.03675
    R3        2.04382   0.00006  -0.00017   0.00027   0.00010   2.04392
    R4        1.80918  -0.00008   0.00005  -0.00022  -0.00018   1.80901
    A2        1.98867   0.00010   0.00069  -0.00042   0.00028   1.98895
    A3        2.07672   0.00022   0.00031   0.00075   0.00107   2.07778
    A4        1.91825  -0.00013   0.00057  -0.00144  -0.00087   1.91738
    D3        3.58986   0.00001  -0.00308   0.00077  -0.00232   3.58754
   R21        2.79935   0.00024  -0.00009   0.00080   0.00071   2.80006
   R22        2.04165   0.00002  -0.00005   0.00005   0.00000   2.04165
   R23        2.04147   0.00006  -0.00012   0.00024   0.00012   2.04159
   R24        2.07697  -0.00018  -0.00011  -0.00048  -0.00059   2.07638
   R25        2.06134   0.00008  -0.00005   0.00029   0.00025   2.06159
   R26        2.06137   0.00003   0.00012  -0.00000   0.00011   2.06148
   A22        2.11096  -0.00059   0.00052  -0.00129  -0.00077   2.11020
   A23        2.11168  -0.00061   0.00023  -0.00131  -0.00108   2.11060
   A24        1.94783  -0.00000   0.00065   0.00014   0.00079   1.94862
   A25        1.95143  -0.00002  -0.00041  -0.00004  -0.00045   1.95098
   A26        1.95144  -0.00008  -0.00020  -0.00032  -0.00052   1.95092
   D23        2.99364   0.00016   0.00819  -0.00008   0.00811   3.00176
   D25        2.07971   0.00012   0.00014   0.00033   0.00047   2.08018
   D26        4.20423  -0.00024  -0.00043  -0.00078  -0.00121   4.20302
   ANG2       1.72321  -0.00002  -0.00184   0.00011  -0.00173   1.72149
   DH2        3.34260   0.00001   0.00001   0.00098   0.00098   3.34358
   DH3        1.67640   0.00003  -0.00433   0.00007  -0.00426   1.67214
    D4        3.06514  -0.00008  -0.00088  -0.00110  -0.00198   3.06316
   D24        4.79097  -0.00003  -0.00502  -0.00018  -0.00520   4.78577
   DH1        1.78714   0.00001  -0.00118   0.00016  -0.00101   1.78612
   ANG1       1.96590   0.00001  -0.00072   0.00014  -0.00058   1.96532
    BB       18.89726   0.00000   0.00000   0.00000   0.00000  18.89726
         Item               Value     Threshold  Converged?
 Maximum Force            0.000611     0.000450     NO 
 RMS     Force            0.000205     0.000300     YES
 Maximum Displacement     0.008114     0.001800     NO 
 RMS     Displacement     0.002114     0.001200     NO 
 Predicted change in Energy=-1.912432D-06
 GradGradGradGradGradGradGradGradGradGradGradGradGradGradGradGradGradGrad

 ---------------------------------------------------------------------------------------------------
                            Z-MATRIX (ANGSTROMS AND DEGREES)
   CD    Cent   Atom    N1       Length/X        N2       Alpha/Y        N3        Beta/Z          J
 ---------------------------------------------------------------------------------------------------
      1      1  C 
      2      2  O        1   1.357691(     1)
      3      3  H        1   1.077801(     2)      2  113.958(    12)
      4      4  H        1   1.081598(     3)      2  119.048(    13)      3  205.551(    22)      0
      5      5  H        2   0.957284(     4)      1  109.858(    14)      3  175.506(    23)      0
      6      6  C        1  10.000000(     5)      2  112.604(    15)      3  102.337(    24)      0
      7      7  C        6   1.481728(     6)      1   98.634(    16)      2  191.573(    25)      0
      8      8  H        6   1.080397(     7)      7  120.905(    17)      1   95.807(    26)      0
      9      9  H        6   1.080363(     8)      7  120.929(    18)      8  171.988(    27)      0
     10     10  H        7   1.098775(     9)      6  111.648(    19)      8  274.205(    28)      0
     11     11  H        7   1.090946(    10)      6  111.783(    20)     10  119.185(    29)      0
     12     12  H        7   1.090889(    11)      6  111.779(    21)     10  240.815(    30)      0
 ---------------------------------------------------------------------------------------------------
                         Z-Matrix orientation:                         
 ---------------------------------------------------------------------
 Center     Atomic      Atomic             Coordinates (Angstroms)
 Number     Number       Type             X           Y           Z
 ---------------------------------------------------------------------
      1          6           0        0.000000    0.000000    0.000000
      2          8           0        0.000000    0.000000    1.357691
      3          1           0        0.984938    0.000000   -0.437667
      4          1           0       -0.853071    0.407829   -0.525165
      5          1           0       -0.897594    0.070544    1.682871
      6          6           0       -1.972514   -9.018619   -3.843657
      7          6           0       -1.611422   -8.743138   -5.254061
      8          1           0       -2.997361   -8.947473   -3.509166
      9          1           0       -1.245245   -9.418992   -3.152306
     10          1           0       -1.727236   -9.635972   -5.883936
     11          1           0       -2.246366   -7.971147   -5.691141
     12          1           0       -0.571605   -8.427984   -5.351516
 ---------------------------------------------------------------------
                    Distance matrix (angstroms):
                    1          2          3          4          5
     1  C    0.000000
     2  O    1.357691   0.000000
     3  H    1.077801   2.047783   0.000000
     4  H    1.081598   2.106942   1.884744   0.000000
     5  H    1.908587   0.957284   2.836474   2.234092   0.000000
     6  C   10.000000  10.596241  10.083788  10.056017  10.691625
     7  C   10.326873  11.079459  10.314126  10.328493  11.238842
     8  H   10.067556  10.617332  10.264019  10.051066  10.615597
     9  H   10.010249  10.517040  10.052880  10.179494  10.656036
    10  H   11.421734  12.176883  11.396039  11.417466  12.335369
    11  H   10.048604  10.875265  10.078666   9.941621  10.993818
    12  H    9.999818  10.787544   9.879254  10.071965  11.036931
                    6          7          8          9         10
     6  C    0.000000
     7  C    1.481728   0.000000
     8  H    1.080397   2.237686   0.000000
     9  H    1.080363   2.237909   1.849213   0.000000
    10  H    2.145699   1.098775   2.779708   2.782301   0.000000
    11  H    2.141353   1.090946   2.505638   3.089366   1.754510
    12  H    2.141270   1.090889   3.090051   2.504479   1.754477
                   11         12
    11  H    0.000000
    12  H    1.768860   0.000000
 Symmetry turned off by external request.
 Stoichiometry    C3H8O(3)
 Framework group  C1[X(C3H8O)]
 Deg. of freedom    30
 Full point group                 C1      NOp   1
 Rotational constants (GHZ):     13.3821719      0.3030116      0.2983785
 Standard basis: Jun-CC-pVTZ (5D, 7F)
   268 basis functions,   384 primitive gaussians,   300 cartesian basis functions
    18 alpha electrons       16 beta electrons
       nuclear repulsion energy        87.0102293992 Hartrees.
 NAtoms=   12 NActive=   12 NUniq=   12 SFac= 1.00D+00 NAtFMM=   60 NAOKFM=F Big=F
 Integral buffers will be    131072 words long.
 Raffenetti 2 integral format.
 Two-electron integral symmetry is turned off.
 Nuclear repulsion after empirical dispersion term =       87.0084799772 Hartrees.
 One-electron integrals computed using PRISM.
 NBasis=   268 RedAO= T EigKep=  1.13D-04  NBF=   268
 NBsUse=   268 1.00D-06 EigRej= -1.00D+00 NBFU=   268
 Initial guess from the checkpoint file:  "tmp.chk"
 B after Tr=     0.000864    0.000987    0.000588
         Rot=    1.000000    0.000309    0.000237   -0.000387 Ang=   0.06 deg.
 Initial guess <Sx>= 0.0000 <Sy>= 0.0000 <Sz>= 1.0000 <S**2>= 2.0088 S= 1.0029
 Requested convergence on RMS density matrix=1.00D-08 within 128 cycles.
 Requested convergence on MAX density matrix=1.00D-06.
 Requested convergence on             energy=1.00D-06.
 No special actions if energy rises.
 SCF Done:  E(UwB97XD) =  -194.229497492     A.U. after    9 cycles
            NFock=  9  Conv=0.41D-08     -V/T= 2.0065
 <Sx>= 0.0000 <Sy>= 0.0000 <Sz>= 1.0000 <S**2>= 2.0088 S= 1.0029
 <L.S>=  0.00000000000    
 Annihilation of the first spin contaminant:
 S**2 before annihilation     2.0088,   after     2.0000
 DipInt: DoE/N= T T RetVal/Mat= T F Init=T NMatP=  1 IDeriv=0 Min/MaxMlt=  1  1
 Entering OneElI...
 Multipole integrals L=1 to 1 MinM= 0 MaxM= 0.
 Requested accuracy = 0.1000D-12
 PrsmSu:  NPrtUS=   1 ThrOK=F IAlg=1 NPAlg=1 LenDen=           0.
 Prism:   IPart=     0 DynPar=F LinDyn=F Incr=          34.
 PRISM was handed   419083932 working-precision words and  3445 shell-pairs
 IPart=  0 NShTot=        3445 NBatch=          53 AvBLen=        65.0
 PrSmSu:  NxtVal=             35.
 Entering OneElI...
 Calculate overlap and kinetic energy integrals
    NBasis = 300  MinDer = 1  MaxDer = 1
 Requested accuracy = 0.1000D-12
 PrsmSu:  NPrtUS=  32 ThrOK=T IAlg=1 NPAlg=1 LenDen=           0.
 PRISM was handed    13023123 working-precision words and  3688 shell-pairs
 PRISM was handed    13023123 working-precision words and  3688 shell-pairs
 Prism:   IPart=     0 DynPar=F LinDyn=F Incr=           1.
 PRISM was handed    13023123 working-precision words and  3688 shell-pairs
 PRISM was handed    13023123 working-precision words and  3688 shell-pairs
 PRISM was handed    13023123 working-precision words and  3688 shell-pairs
 PRISM was handed    13023123 working-precision words and  3688 shell-pairs
 PRISM was handed    13023123 working-precision words and  3688 shell-pairs
 IPart= 11 NShTot=         116 NBatch=          21 AvBLen=         5.5
 PRISM was handed    13023123 working-precision words and  3688 shell-pairs
 PRISM was handed    13023123 working-precision words and  3688 shell-pairs
 IPart= 20 NShTot=         106 NBatch=          20 AvBLen=         5.3
 PRISM was handed    13023123 working-precision words and  3688 shell-pairs
 IPart= 26 NShTot=         103 NBatch=          20 AvBLen=         5.2
 PRISM was handed    13023123 working-precision words and  3688 shell-pairs
 IPart= 30 NShTot=         102 NBatch=          20 AvBLen=         5.1
 PRISM was handed    13023123 working-precision words and  3688 shell-pairs
 PRISM was handed    13023123 working-precision words and  3688 shell-pairs
 PRISM was handed    13023123 working-precision words and  3688 shell-pairs
 IPart=  4 NShTot=         135 NBatch=          33 AvBLen=         4.1
 IPart=  7 NShTot=         126 NBatch=          29 AvBLen=         4.3
 PRISM was handed    13023123 working-precision words and  3688 shell-pairs
 PRISM was handed    13023123 working-precision words and  3688 shell-pairs
 PRISM was handed    13023123 working-precision words and  3688 shell-pairs
 IPart= 22 NShTot=         104 NBatch=          20 AvBLen=         5.2
 PRISM was handed    13023123 working-precision words and  3688 shell-pairs
 PRISM was handed    13023123 working-precision words and  3688 shell-pairs
 PRISM was handed    13023123 working-precision words and  3688 shell-pairs
 PRISM was handed    13023123 working-precision words and  3688 shell-pairs
 PRISM was handed    13023123 working-precision words and  3688 shell-pairs
 PRISM was handed    13023123 working-precision words and  3688 shell-pairs
 PRISM was handed    13023123 working-precision words and  3688 shell-pairs
 PRISM was handed    13023123 working-precision words and  3688 shell-pairs
 PRISM was handed    13023123 working-precision words and  3688 shell-pairs
 PRISM was handed    13023123 working-precision words and  3688 shell-pairs
 PRISM was handed    13023123 working-precision words and  3688 shell-pairs
 PRISM was handed    13023123 working-precision words and  3688 shell-pairs
 PRISM was handed    13023123 working-precision words and  3688 shell-pairs
 PRISM was handed    13023123 working-precision words and  3688 shell-pairs
 PRISM was handed    13023123 working-precision words and  3688 shell-pairs
 IPart= 15 NShTot=         108 NBatch=          21 AvBLen=         5.1
 IPart= 18 NShTot=         106 NBatch=          20 AvBLen=         5.3
 IPart= 29 NShTot=         102 NBatch=          20 AvBLen=         5.1
 IPart= 10 NShTot=         116 NBatch=          21 AvBLen=         5.5
 IPart= 13 NShTot=         114 NBatch=          21 AvBLen=         5.4
 IPart= 14 NShTot=         108 NBatch=          21 AvBLen=         5.1
 IPart=  2 NShTot=         145 NBatch=          43 AvBLen=         3.4
 IPart=  9 NShTot=         117 NBatch=          21 AvBLen=         5.6
 IPart= 23 NShTot=         104 NBatch=          20 AvBLen=         5.2
 IPart=  5 NShTot=         130 NBatch=          30 AvBLen=         4.3
 IPart= 24 NShTot=         104 NBatch=          20 AvBLen=         5.2
 IPart=  1 NShTot=         147 NBatch=          45 AvBLen=         3.3
 IPart= 25 NShTot=         103 NBatch=          20 AvBLen=         5.2
 IPart= 21 NShTot=         106 NBatch=          20 AvBLen=         5.3
 IPart= 28 NShTot=         103 NBatch=          20 AvBLen=         5.2
 IPart=  8 NShTot=         119 NBatch=          22 AvBLen=         5.4
 IPart= 12 NShTot=         116 NBatch=          21 AvBLen=         5.5
 IPart= 16 NShTot=         107 NBatch=          20 AvBLen=         5.3
 IPart= 27 NShTot=         103 NBatch=          20 AvBLen=         5.2
 IPart=  3 NShTot=         144 NBatch=          42 AvBLen=         3.4
 IPart= 19 NShTot=         106 NBatch=          20 AvBLen=         5.3
 IPart= 17 NShTot=         107 NBatch=          20 AvBLen=         5.3
 IPart= 31 NShTot=         102 NBatch=          20 AvBLen=         5.1
 IPart=  0 NShTot=         152 NBatch=          50 AvBLen=         3.0
 IPart=  6 NShTot=         127 NBatch=          29 AvBLen=         4.4
 PrSmSu:  NxtVal=             33.
 Entering OneElI...
 Calculate potential energy integrals
    NBasis = 300  MinDer = 1  MaxDer = 1
 Requested accuracy = 0.1000D-12
 PrsmSu:  NPrtUS=  32 ThrOK=T IAlg=1 NPAlg=1 LenDen=           0.
 PRISM was handed    13039490 working-precision words and  2976 shell-pairs
 PRISM was handed    13039490 working-precision words and  2976 shell-pairs
 PRISM was handed    13039490 working-precision words and  2976 shell-pairs
 PRISM was handed    13039490 working-precision words and  2976 shell-pairs
 PRISM was handed    13039490 working-precision words and  2976 shell-pairs
 PRISM was handed    13039490 working-precision words and  2976 shell-pairs
 PRISM was handed    13039490 working-precision words and  2976 shell-pairs
 PRISM was handed    13039490 working-precision words and  2976 shell-pairs
 PRISM was handed    13039490 working-precision words and  2976 shell-pairs
 PRISM was handed    13039490 working-precision words and  2976 shell-pairs
 PRISM was handed    13039490 working-precision words and  2976 shell-pairs
 PRISM was handed    13039490 working-precision words and  2976 shell-pairs
 PRISM was handed    13039490 working-precision words and  2976 shell-pairs
 PRISM was handed    13039490 working-precision words and  2976 shell-pairs
 PRISM was handed    13039490 working-precision words and  2976 shell-pairs
 PRISM was handed    13039490 working-precision words and  2976 shell-pairs
 PRISM was handed    13039490 working-precision words and  2976 shell-pairs
 PRISM was handed    13039490 working-precision words and  2976 shell-pairs
 PRISM was handed    13039490 working-precision words and  2976 shell-pairs
 PRISM was handed    13039490 working-precision words and  2976 shell-pairs
 PRISM was handed    13039490 working-precision words and  2976 shell-pairs
 PRISM was handed    13039490 working-precision words and  2976 shell-pairs
 PRISM was handed    13039490 working-precision words and  2976 shell-pairs
 PRISM was handed    13039490 working-precision words and  2976 shell-pairs
 PRISM was handed    13039490 working-precision words and  2976 shell-pairs
 PRISM was handed    13039490 working-precision words and  2976 shell-pairs
 PRISM was handed    13039490 working-precision words and  2976 shell-pairs
 PRISM was handed    13039490 working-precision words and  2976 shell-pairs
 PRISM was handed    13039490 working-precision words and  2976 shell-pairs
 PRISM was handed    13039490 working-precision words and  2976 shell-pairs
 PRISM was handed    13039490 working-precision words and  2976 shell-pairs
 IPart= 26 NShTot=         996 NBatch=          83 AvBLen=        12.0
 IPart=  1 NShTot=        1464 NBatch=         122 AvBLen=        12.0
 IPart=  9 NShTot=        1104 NBatch=          92 AvBLen=        12.0
 Prism:   IPart=     0 DynPar=F LinDyn=F Incr=          11.
 PRISM was handed    13039490 working-precision words and  2976 shell-pairs
 IPart= 10 NShTot=        1080 NBatch=          90 AvBLen=        12.0
 IPart= 29 NShTot=         984 NBatch=          82 AvBLen=        12.0
 IPart= 12 NShTot=        1068 NBatch=          89 AvBLen=        12.0
 IPart= 13 NShTot=        1068 NBatch=          89 AvBLen=        12.0
 IPart= 15 NShTot=        1044 NBatch=          87 AvBLen=        12.0
 IPart= 17 NShTot=        1032 NBatch=          86 AvBLen=        12.0
 IPart=  5 NShTot=        1284 NBatch=         107 AvBLen=        12.0
 IPart= 20 NShTot=        1032 NBatch=          86 AvBLen=        12.0
 IPart=  6 NShTot=        1272 NBatch=         106 AvBLen=        12.0
 IPart= 16 NShTot=        1032 NBatch=          86 AvBLen=        12.0
 IPart=  3 NShTot=        1404 NBatch=         117 AvBLen=        12.0
 IPart= 11 NShTot=        1080 NBatch=          90 AvBLen=        12.0
 IPart= 27 NShTot=         996 NBatch=          83 AvBLen=        12.0
 IPart= 28 NShTot=         996 NBatch=          83 AvBLen=        12.0
 IPart= 25 NShTot=        1008 NBatch=          84 AvBLen=        12.0
 IPart= 31 NShTot=         960 NBatch=          80 AvBLen=        12.0
 IPart= 21 NShTot=        1020 NBatch=          85 AvBLen=        12.0
 IPart= 23 NShTot=        1008 NBatch=          84 AvBLen=        12.0
 IPart= 30 NShTot=         972 NBatch=          81 AvBLen=        12.0
 IPart= 14 NShTot=        1068 NBatch=          89 AvBLen=        12.0
 IPart= 24 NShTot=        1008 NBatch=          84 AvBLen=        12.0
 IPart=  8 NShTot=        1140 NBatch=          95 AvBLen=        12.0
 IPart=  2 NShTot=        1416 NBatch=         118 AvBLen=        12.0
 IPart=  4 NShTot=        1308 NBatch=         109 AvBLen=        12.0
 IPart= 22 NShTot=        1008 NBatch=          84 AvBLen=        12.0
 IPart=  7 NShTot=        1236 NBatch=         103 AvBLen=        12.0
 IPart= 18 NShTot=        1032 NBatch=          86 AvBLen=        12.0
 IPart= 19 NShTot=        1032 NBatch=          86 AvBLen=        12.0
 IPart=  0 NShTot=        1560 NBatch=         130 AvBLen=        12.0
 PrSmSu:  NxtVal=            353.
 l701 out
 I=    0 X=  -5.279438233084D-01 Y=   1.758306228043D-01 Z=  -1.508138858125D-01
 I=    1 X=   1.129441905095D-01 Y=  -8.100137479468D-01 Z=  -5.600979705884D+00
 I=    2 X=   2.524671968708D+00 Y=   9.702954074491D-03 Z=   7.050895382706D+00
 I=    3 X=   2.678220385342D+00 Y=  -2.219575819974D-02 Z=  -1.542932361703D+00
 I=    4 X=  -2.281675356272D+00 Y=   1.175144782734D+00 Z=  -1.734179480460D+00
 I=    5 X=  -2.911444115234D+00 Y=   2.655250469588D-01 Z=   2.184870092523D+00
 I=    6 X=  -6.579532145165D-01 Y=  -5.227175690797D-01 Z=   2.470771875819D+00
 I=    7 X=   5.622640497888D-01 Y=   2.368737478977D-01 Z=  -2.516673789709D+00
 I=    8 X=  -2.700618123662D+00 Y=   9.624941438484D-02 Z=   1.191096675938D+00
 I=    9 X=   1.758263084707D+00 Y=  -1.106553652859D+00 Z=   2.100254020576D+00
 I=   10 X=  -2.317295932375D-01 Y=  -2.168403202018D+00 Z=  -1.776073797740D+00
 I=   11 X=  -1.573151699671D+00 Y=   2.008515299133D+00 Z=  -1.348466340457D+00
 I=   12 X=   2.720208423537D+00 Y=   8.378726849202D-01 Z=  -4.785825716100D-01
 ICntrl=      2127.
 Calling FoFJK, ICntrl=      2127 FMM=F ISym2X=0 I1Cent= 0 IOpClX= 1 NMat=1 NMatS=1 NMatT=0.
 FoFJK:  IHMeth= 1 ICntrl=    2127 DoSepK=T KAlg= 0 I1Cent=   0 FoldK=F
 IRaf=         1 NMat=   1 IRICut=       1 DoRegI=T DoRafI=F ISym2E= 0.
 FoFCou: FMM=F IPFlag=           0 FMFlag=      100000 FMFlg1=         800
         NFxFlg=           0 DoJE=F BraDBF=F KetDBF=F FulRan=T
         wScrn=  0.000000 ICntrl=    2527 IOpCl=  0 I1Cent=           0 NGrid=           0
         NMat0=    1 NMatS0=      1 NMatT0=    0 NMatD0=    1 NMtDS0=    0 NMtDT0=    0
 Symmetry not used in FoFCou.
 FoFCou:  KetSym=F NOpSet=  1 NOpAb=1 NOp=  1.
 FoFCou:  CnvScl= 1.00D+00 Thresh= 1.00D-10 IAcrcy=      10.
 PrismS was handed   418996336 working-precision words and  3262 shell-pairs
 FoFCou: LinMIO=F DoNuc=F BraDBF=F KetDBF=F HaveP=T PDBF=F HaveZ=T HaveW=F
         NIJTC =      10 NIJTAt=       0 NIJTCD=       0 NIJTT =      10
         IJTBeg=       1 IJTEnd=      10 KLTBeg=       1 KLTEnd=      10
         IPTBeg=       1 IPTEnd=      10 IPTBCv=       1 IPTECv=      10
         IZTBeg=       1 IZTEnd=      10 IZTBCv=       1 IZTECv=      10
         IWTBeg=      11 IWTEnd=      10 IWTBCv=      11 IWTECv=      10
         INTBeg=       1 INTEnd=       0 IFTBCv=       1 IFTECv=      10
 NCel replicated for PrismC:     1
 CoulSu:  IncDef=  1024 NBBP=        5321953 NTPThr=   100 NPartT=   32 Incr=        1024 LDynOK=F.
 CoulSu:  NPrtUS=  32 ThrOK=T IAlg=1 NPAlg=1 LenDen=           0 LWGrdD=           0 DoCopy=F.
 Enter PrismC: JobTyp=21 DoJE=F Cont=F.
 Enter PrismC: JobTyp=21 DoJE=F Cont=F.
 Enter PrismC: JobTyp=21 DoJE=F Cont=F.
 Enter PrismC: JobTyp=21 DoJE=F Cont=F.
 Enter PrismC: JobTyp=21 DoJE=F Cont=F.
 Enter PrismC: JobTyp=21 DoJE=F Cont=F.
 Enter PrismC: JobTyp=21 DoJE=F Cont=F.
 Enter PrismC: JobTyp=21 DoJE=F Cont=F.
 Enter PrismC: JobTyp=21 DoJE=F Cont=F.
 Enter PrismC: JobTyp=21 DoJE=F Cont=F.
 Enter PrismC: JobTyp=21 DoJE=F Cont=F.
 Enter PrismC: JobTyp=21 DoJE=F Cont=F.
 Enter PrismC: JobTyp=21 DoJE=F Cont=F.
 Enter PrismC: JobTyp=21 DoJE=F Cont=F.
 Enter PrismC: JobTyp=21 DoJE=F Cont=F.
 Enter PrismC: JobTyp=21 DoJE=F Cont=F.
 Enter PrismC: JobTyp=21 DoJE=F Cont=F.
 Enter PrismC: JobTyp=21 DoJE=F Cont=F.
 Enter PrismC: JobTyp=21 DoJE=F Cont=F.
 Enter PrismC: JobTyp=21 DoJE=F Cont=F.
 Enter PrismC: JobTyp=21 DoJE=F Cont=F.
 Enter PrismC: JobTyp=21 DoJE=F Cont=F.
 Enter PrismC: JobTyp=21 DoJE=F Cont=F.
 Enter PrismC: JobTyp=21 DoJE=F Cont=F.
 Enter PrismC: JobTyp=21 DoJE=F Cont=F.
 PrismC was handed    13032912 working-precision words and  3262 shell-pairs
 Enter PrismC: JobTyp=21 DoJE=F Cont=F.
 Enter PrismC: JobTyp=21 DoJE=F Cont=F.
 Enter PrismC: JobTyp=21 DoJE=F Cont=F.
 Enter PrismC: JobTyp=21 DoJE=F Cont=F.
 Enter PrismC: JobTyp=21 DoJE=F Cont=F.
 Enter PrismC: JobTyp=21 DoJE=F Cont=F.
 Enter PrismC: JobTyp=21 DoJE=F Cont=F.
 PrismC was handed    13032912 working-precision words and  3262 shell-pairs
 PrismC was handed    13032912 working-precision words and  3262 shell-pairs
 PrismC was handed    13032912 working-precision words and  3262 shell-pairs
 PrismC was handed    13032912 working-precision words and  3262 shell-pairs
 PrismC was handed    13032912 working-precision words and  3262 shell-pairs
 PrismC was handed    13032912 working-precision words and  3262 shell-pairs
 PrismC was handed    13032912 working-precision words and  3262 shell-pairs
 PrismC was handed    13032912 working-precision words and  3262 shell-pairs
 PrismC was handed    13032912 working-precision words and  3262 shell-pairs
 PrismC was handed    13032912 working-precision words and  3262 shell-pairs
 PrismC was handed    13032912 working-precision words and  3262 shell-pairs
 PrismC was handed    13032912 working-precision words and  3262 shell-pairs
 PrismC was handed    13032912 working-precision words and  3262 shell-pairs
 PrismC was handed    13032912 working-precision words and  3262 shell-pairs
 PrismC was handed    13032912 working-precision words and  3262 shell-pairs
 PrismC was handed    13032912 working-precision words and  3262 shell-pairs
 PrismC was handed    13032912 working-precision words and  3262 shell-pairs
 PrismC was handed    13032912 working-precision words and  3262 shell-pairs
 PrismC was handed    13032912 working-precision words and  3262 shell-pairs
 PrismC was handed    13032912 working-precision words and  3262 shell-pairs
 PrismC was handed    13032912 working-precision words and  3262 shell-pairs
 PrismC was handed    13032912 working-precision words and  3262 shell-pairs
 PrismC was handed    13032912 working-precision words and  3262 shell-pairs
 PrismC was handed    13032912 working-precision words and  3262 shell-pairs
 PrismC was handed    13032912 working-precision words and  3262 shell-pairs
 PrismC was handed    13032912 working-precision words and  3262 shell-pairs
 PrismC was handed    13032912 working-precision words and  3262 shell-pairs
 PrismC was handed    13032912 working-precision words and  3262 shell-pairs
 PrismC was handed    13032912 working-precision words and  3262 shell-pairs
 PrismC:  IPart=     0 DynPar=T LinDyn=F Incr=        1024 UseFst=F UseS4=T IGathr=2.
 PrismC was handed    13032912 working-precision words and  3262 shell-pairs
 PrismC was handed    13032912 working-precision words and  3262 shell-pairs
 IPart= 14 NShTot=       96308 NShNF=       96308 NShFF=           0 NBatch=         781 AvBLen=       123.3
 IPart= 16 NShTot=       95684 NShNF=       95684 NShFF=           0 NBatch=         826 AvBLen=       115.8
 IPart= 30 NShTot=      159567 NShNF=      159567 NShFF=           0 NBatch=        1528 AvBLen=       104.4
 IPart=  9 NShTot=      111183 NShNF=      111183 NShFF=           0 NBatch=         944 AvBLen=       117.8
 IPart= 29 NShTot=       96387 NShNF=       96387 NShFF=           0 NBatch=         716 AvBLen=       134.6
 IPart=  7 NShTot=      130908 NShNF=      130908 NShFF=           0 NBatch=        1057 AvBLen=       123.8
 IPart= 26 NShTot=       93811 NShNF=       93811 NShFF=           0 NBatch=         756 AvBLen=       124.1
 IPart= 18 NShTot=      111800 NShNF=      111800 NShFF=           0 NBatch=         748 AvBLen=       149.5
 IPart= 28 NShTot=      146922 NShNF=      146922 NShFF=           0 NBatch=         918 AvBLen=       160.0
 IPart=  4 NShTot=      102182 NShNF=      102182 NShFF=           0 NBatch=         768 AvBLen=       133.0
 IPart= 23 NShTot=      102521 NShNF=      102521 NShFF=           0 NBatch=         863 AvBLen=       118.8
 IPart=  2 NShTot=      184253 NShNF=      184253 NShFF=           0 NBatch=        1092 AvBLen=       168.7
 IPart=  8 NShTot=       97044 NShNF=       97044 NShFF=           0 NBatch=         907 AvBLen=       107.0
 IPart=  0 NShTot=      106272 NShNF=      106272 NShFF=           0 NBatch=         928 AvBLen=       114.5
 IPart= 19 NShTot=       96213 NShNF=       96213 NShFF=           0 NBatch=         820 AvBLen=       117.3
 IPart= 22 NShTot=      110108 NShNF=      110108 NShFF=           0 NBatch=         746 AvBLen=       147.6
 IPart= 25 NShTot=      111966 NShNF=      111966 NShFF=           0 NBatch=         766 AvBLen=       146.2
 IPart= 27 NShTot=       84849 NShNF=       84849 NShFF=           0 NBatch=         831 AvBLen=       102.1
 IPart= 15 NShTot=       97574 NShNF=       97574 NShFF=           0 NBatch=         792 AvBLen=       123.2
 IPart=  5 NShTot=       92667 NShNF=       92667 NShFF=           0 NBatch=         853 AvBLen=       108.6
 IPart= 12 NShTot=       94525 NShNF=       94525 NShFF=           0 NBatch=         643 AvBLen=       147.0
 IPart= 11 NShTot=       90336 NShNF=       90336 NShFF=           0 NBatch=         792 AvBLen=       114.1
 IPart= 31 NShTot=      119760 NShNF=      119760 NShFF=           0 NBatch=        1192 AvBLen=       100.5
 IPart= 13 NShTot=      163037 NShNF=      163037 NShFF=           0 NBatch=        1353 AvBLen=       120.5
 IPart= 21 NShTot=      107140 NShNF=      107140 NShFF=           0 NBatch=         861 AvBLen=       124.4
 IPart=  3 NShTot=      107103 NShNF=      107103 NShFF=           0 NBatch=         610 AvBLen=       175.6
 IPart= 24 NShTot=      145809 NShNF=      145809 NShFF=           0 NBatch=        1382 AvBLen=       105.5
 IPart= 17 NShTot=      113267 NShNF=      113267 NShFF=           0 NBatch=        1003 AvBLen=       112.9
 IPart=  1 NShTot=      124667 NShNF=      124667 NShFF=           0 NBatch=        1073 AvBLen=       116.2
 IPart=  6 NShTot=      130797 NShNF=      130797 NShFF=           0 NBatch=         928 AvBLen=       140.9
 IPart= 20 NShTot=      114119 NShNF=      114119 NShFF=           0 NBatch=         788 AvBLen=       144.8
 IPart= 10 NShTot=      130694 NShNF=      130694 NShFF=           0 NBatch=        1354 AvBLen=        96.5
 CoulSu:  NxtVal=        5819393.
 FoFCou: FMM=F IPFlag=           0 FMFlag=      100000 FMFlg1=         800
         NFxFlg=           0 DoJE=F BraDBF=F KetDBF=F FulRan=T
         wScrn=  0.000000 ICntrl=    2127 IOpCl=  1 I1Cent=           0 NGrid=           0
         NMat0=    1 NMatS0=      0 NMatT0=    1 NMatD0=    1 NMtDS0=    0 NMtDT0=    0
         CW=    0.222036    0.777964
         WU=    0.000000   12.500000
 Symmetry not used in FoFCou.
 FoFCou:  KetSym=F NOpSet=  1 NOpAb=1 NOp=  1.
 FoFCou:  CnvScl= 1.00D+00 Thresh= 1.00D-10 IAcrcy=      10.
 PrismS was handed   418991370 working-precision words and  3262 shell-pairs
 FoFCou: LinMIO=F DoNuc=F BraDBF=F KetDBF=F HaveP=T PDBF=F HaveZ=T HaveW=F
         NIJTC =      10 NIJTAt=       0 NIJTCD=       0 NIJTT =      10
         IJTBeg=       1 IJTEnd=      10 KLTBeg=       1 KLTEnd=      10
         IPTBeg=       1 IPTEnd=      10 IPTBCv=       1 IPTECv=      10
         IZTBeg=       1 IZTEnd=      10 IZTBCv=       1 IZTECv=      10
         IWTBeg=      11 IWTEnd=      10 IWTBCv=      11 IWTECv=      10
         INTBeg=       1 INTEnd=       0 IFTBCv=       1 IFTECv=      10
 NCel replicated for PrismC:     1
 CoulSu:  IncDef=  1024 NBBP=        5321953 NTPThr=   100 NPartT=   32 Incr=        1024 LDynOK=F.
 CoulSu:  NPrtUS=  32 ThrOK=T IAlg=1 NPAlg=1 LenDen=           0 LWGrdD=           0 DoCopy=F.
 Enter PrismC: JobTyp=21 DoJE=F Cont=F.
 Linear combination for Coulomb/exchange, wScrn=  0.000000
 CW=    0.222036    0.777964
 Enter PrismC: JobTyp=21 DoJE=F Cont=F.
 Linear combination for Coulomb/exchange, wScrn=  0.000000
 CW=    0.222036    0.777964
 Enter PrismC: JobTyp=21 DoJE=F Cont=F.
 Linear combination for Coulomb/exchange, wScrn=  0.000000
 CW=    0.222036    0.777964
 WU=    0.000000   12.500000
 Enter PrismC: JobTyp=21 DoJE=F Cont=F.
 Linear combination for Coulomb/exchange, wScrn=  0.000000
 CW=    0.222036    0.777964
 WU=    0.000000   12.500000
 Enter PrismC: JobTyp=21 DoJE=F Cont=F.
 Enter PrismC: JobTyp=21 DoJE=F Cont=F.
 Enter PrismC: JobTyp=21 DoJE=F Cont=F.
 Enter PrismC: JobTyp=21 DoJE=F Cont=F.
 Linear combination for Coulomb/exchange, wScrn=  0.000000
 CW=    0.222036    0.777964
 WU=    0.000000   12.500000
 Enter PrismC: JobTyp=21 DoJE=F Cont=F.
 Linear combination for Coulomb/exchange, wScrn=  0.000000
 CW=    0.222036    0.777964
 Enter PrismC: JobTyp=21 DoJE=F Cont=F.
 Linear combination for Coulomb/exchange, wScrn=  0.000000
 CW=    0.222036    0.777964
 WU=    0.000000   12.500000
 Enter PrismC: JobTyp=21 DoJE=F Cont=F.
 PrismC was handed    13032757 working-precision words and  3262 shell-pairs
 Enter PrismC: JobTyp=21 DoJE=F Cont=F.
 Linear combination for Coulomb/exchange, wScrn=  0.000000
 CW=    0.222036    0.777964
 WU=    0.000000   12.500000
 PrismC was handed    13032757 working-precision words and  3262 shell-pairs
 Enter PrismC: JobTyp=21 DoJE=F Cont=F.
 Linear combination for Coulomb/exchange, wScrn=  0.000000
 CW=    0.222036    0.777964
 WU=    0.000000   12.500000
 Linear combination for Coulomb/exchange, wScrn=  0.000000
 CW=    0.222036    0.777964
 WU=    0.000000   12.500000
 WU=    0.000000   12.500000
 Linear combination for Coulomb/exchange, wScrn=  0.000000
 CW=    0.222036    0.777964
 WU=    0.000000   12.500000
 PrismC was handed    13032757 working-precision words and  3262 shell-pairs
 Enter PrismC: JobTyp=21 DoJE=F Cont=F.
 Linear combination for Coulomb/exchange, wScrn=  0.000000
 CW=    0.222036    0.777964
 WU=    0.000000   12.500000
 PrismC was handed    13032757 working-precision words and  3262 shell-pairs
 Enter PrismC: JobTyp=21 DoJE=F Cont=F.
 Enter PrismC: JobTyp=21 DoJE=F Cont=F.
 Linear combination for Coulomb/exchange, wScrn=  0.000000
 CW=    0.222036    0.777964
 WU=    0.000000   12.500000
 PrismC was handed    13032757 working-precision words and  3262 shell-pairs
 PrismC was handed    13032757 working-precision words and  3262 shell-pairs
 Enter PrismC: JobTyp=21 DoJE=F Cont=F.
 PrismC was handed    13032757 working-precision words and  3262 shell-pairs
 WU=    0.000000   12.500000
 PrismC was handed    13032757 working-precision words and  3262 shell-pairs
 Enter PrismC: JobTyp=21 DoJE=F Cont=F.
 Enter PrismC: JobTyp=21 DoJE=F Cont=F.
 Linear combination for Coulomb/exchange, wScrn=  0.000000
 CW=    0.222036    0.777964
 WU=    0.000000   12.500000
 PrismC was handed    13032757 working-precision words and  3262 shell-pairs
 Enter PrismC: JobTyp=21 DoJE=F Cont=F.
 Linear combination for Coulomb/exchange, wScrn=  0.000000
 CW=    0.222036    0.777964
 WU=    0.000000   12.500000
 PrismC was handed    13032757 working-precision words and  3262 shell-pairs
 Enter PrismC: JobTyp=21 DoJE=F Cont=F.
 Linear combination for Coulomb/exchange, wScrn=  0.000000
 CW=    0.222036    0.777964
 WU=    0.000000   12.500000
 Enter PrismC: JobTyp=21 DoJE=F Cont=F.
 Linear combination for Coulomb/exchange, wScrn=  0.000000
 CW=    0.222036    0.777964
 WU=    0.000000   12.500000
 Enter PrismC: JobTyp=21 DoJE=F Cont=F.
 Linear combination for Coulomb/exchange, wScrn=  0.000000
 CW=    0.222036    0.777964
 WU=    0.000000   12.500000
 PrismC was handed    13032757 working-precision words and  3262 shell-pairs
 Enter PrismC: JobTyp=21 DoJE=F Cont=F.
 Linear combination for Coulomb/exchange, wScrn=  0.000000
 CW=    0.222036    0.777964
 WU=    0.000000   12.500000
 PrismC was handed    13032757 working-precision words and  3262 shell-pairs
 PrismC was handed    13032757 working-precision words and  3262 shell-pairs
 WU=    0.000000   12.500000
 PrismC was handed    13032757 working-precision words and  3262 shell-pairs
 Enter PrismC: JobTyp=21 DoJE=F Cont=F.
 Linear combination for Coulomb/exchange, wScrn=  0.000000
 CW=    0.222036    0.777964
 WU=    0.000000   12.500000
 Linear combination for Coulomb/exchange, wScrn=  0.000000
 CW=    0.222036    0.777964
 WU=    0.000000   12.500000
 PrismC was handed    13032757 working-precision words and  3262 shell-pairs
 Linear combination for Coulomb/exchange, wScrn=  0.000000
 CW=    0.222036    0.777964
 WU=    0.000000   12.500000
 Enter PrismC: JobTyp=21 DoJE=F Cont=F.
 Linear combination for Coulomb/exchange, wScrn=  0.000000
 CW=    0.222036    0.777964
 WU=    0.000000   12.500000
 PrismC was handed    13032757 working-precision words and  3262 shell-pairs
 PrismC was handed    13032757 working-precision words and  3262 shell-pairs
 Enter PrismC: JobTyp=21 DoJE=F Cont=F.
 Linear combination for Coulomb/exchange, wScrn=  0.000000
 CW=    0.222036    0.777964
 WU=    0.000000   12.500000
 PrismC was handed    13032757 working-precision words and  3262 shell-pairs
 PrismC was handed    13032757 working-precision words and  3262 shell-pairs
 Enter PrismC: JobTyp=21 DoJE=F Cont=F.
 Linear combination for Coulomb/exchange, wScrn=  0.000000
 CW=    0.222036    0.777964
 WU=    0.000000   12.500000
 PrismC was handed    13032757 working-precision words and  3262 shell-pairs
 Linear combination for Coulomb/exchange, wScrn=  0.000000
 CW=    0.222036    0.777964
 WU=    0.000000   12.500000
 PrismC:  IPart=     0 DynPar=T LinDyn=F Incr=        1024 UseFst=F UseS4=T IGathr=2.
 PrismC was handed    13032757 working-precision words and  3262 shell-pairs
 PrismC was handed    13032757 working-precision words and  3262 shell-pairs
 PrismC was handed    13032757 working-precision words and  3262 shell-pairs
 Enter PrismC: JobTyp=21 DoJE=F Cont=F.
 Linear combination for Coulomb/exchange, wScrn=  0.000000
 CW=    0.222036    0.777964
 WU=    0.000000   12.500000
 PrismC was handed    13032757 working-precision words and  3262 shell-pairs
 Linear combination for Coulomb/exchange, wScrn=  0.000000
 CW=    0.222036    0.777964
 WU=    0.000000   12.500000
 PrismC was handed    13032757 working-precision words and  3262 shell-pairs
 Enter PrismC: JobTyp=21 DoJE=F Cont=F.
 Linear combination for Coulomb/exchange, wScrn=  0.000000
 CW=    0.222036    0.777964
 WU=    0.000000   12.500000
 PrismC was handed    13032757 working-precision words and  3262 shell-pairs
 PrismC was handed    13032757 working-precision words and  3262 shell-pairs
 PrismC was handed    13032757 working-precision words and  3262 shell-pairs
 Linear combination for Coulomb/exchange, wScrn=  0.000000
 CW=    0.222036    0.777964
 WU=    0.000000   12.500000
 Enter PrismC: JobTyp=21 DoJE=F Cont=F.
 Linear combination for Coulomb/exchange, wScrn=  0.000000
 CW=    0.222036    0.777964
 WU=    0.000000   12.500000
 PrismC was handed    13032757 working-precision words and  3262 shell-pairs
 Enter PrismC: JobTyp=21 DoJE=F Cont=F.
 PrismC was handed    13032757 working-precision words and  3262 shell-pairs
 PrismC was handed    13032757 working-precision words and  3262 shell-pairs
 Linear combination for Coulomb/exchange, wScrn=  0.000000
 CW=    0.222036    0.777964
 WU=    0.000000   12.500000
 PrismC was handed    13032757 working-precision words and  3262 shell-pairs
 IPart= 14 NShTot=       77812 NShNF=       77812 NShFF=           0 NBatch=         906 AvBLen=        85.9
 IPart=  9 NShTot=      177132 NShNF=      177132 NShFF=           0 NBatch=        1528 AvBLen=       115.9
 IPart= 19 NShTot=       91720 NShNF=       91720 NShFF=           0 NBatch=        1085 AvBLen=        84.5
 IPart= 22 NShTot=      116151 NShNF=      116151 NShFF=           0 NBatch=        1110 AvBLen=       104.6
 IPart=  6 NShTot=       84206 NShNF=       84206 NShFF=           0 NBatch=         952 AvBLen=        88.5
 IPart= 26 NShTot=       85807 NShNF=       85807 NShFF=           0 NBatch=         911 AvBLen=        94.2
 IPart= 25 NShTot=      129753 NShNF=      129753 NShFF=           0 NBatch=        1237 AvBLen=       104.9
 IPart=  8 NShTot=       99488 NShNF=       99488 NShFF=           0 NBatch=        1092 AvBLen=        91.1
 IPart= 18 NShTot=      187088 NShNF=      187088 NShFF=           0 NBatch=        1606 AvBLen=       116.5
 IPart= 30 NShTot=      164399 NShNF=      164399 NShFF=           0 NBatch=        1463 AvBLen=       112.4
 IPart= 11 NShTot=       88161 NShNF=       88161 NShFF=           0 NBatch=         921 AvBLen=        95.7
 IPart= 10 NShTot=      107957 NShNF=      107957 NShFF=           0 NBatch=         882 AvBLen=       122.4
 IPart= 31 NShTot=      142986 NShNF=      142986 NShFF=           0 NBatch=        1435 AvBLen=        99.6
 IPart=  5 NShTot=      120700 NShNF=      120700 NShFF=           0 NBatch=        1032 AvBLen=       117.0
 IPart=  1 NShTot=      165935 NShNF=      165935 NShFF=           0 NBatch=        1514 AvBLen=       109.6
 IPart= 28 NShTot=      158925 NShNF=      158925 NShFF=           0 NBatch=        1484 AvBLen=       107.1
 IPart=  4 NShTot=       94756 NShNF=       94756 NShFF=           0 NBatch=         894 AvBLen=       106.0
 IPart=  2 NShTot=       75498 NShNF=       75498 NShFF=           0 NBatch=         870 AvBLen=        86.8
 IPart= 13 NShTot=      131495 NShNF=      131495 NShFF=           0 NBatch=        1266 AvBLen=       103.9
 IPart= 17 NShTot=       72102 NShNF=       72102 NShFF=           0 NBatch=         826 AvBLen=        87.3
 IPart= 21 NShTot=      173661 NShNF=      173661 NShFF=           0 NBatch=        1514 AvBLen=       114.7
 IPart=  7 NShTot=      147805 NShNF=      147805 NShFF=           0 NBatch=        1426 AvBLen=       103.7
 IPart= 24 NShTot=      134819 NShNF=      134819 NShFF=           0 NBatch=        1415 AvBLen=        95.3
 IPart=  0 NShTot=       66493 NShNF=       66493 NShFF=           0 NBatch=         984 AvBLen=        67.6
 IPart= 23 NShTot=       91793 NShNF=       91793 NShFF=           0 NBatch=         940 AvBLen=        97.7
 IPart= 29 NShTot=       77240 NShNF=       77240 NShFF=           0 NBatch=         760 AvBLen=       101.6
 IPart= 27 NShTot=       72041 NShNF=       72041 NShFF=           0 NBatch=         893 AvBLen=        80.7
 IPart= 15 NShTot=       99523 NShNF=       99523 NShFF=           0 NBatch=         872 AvBLen=       114.1
 IPart= 16 NShTot=       91846 NShNF=       91846 NShFF=           0 NBatch=         989 AvBLen=        92.9
 IPart= 12 NShTot=       98871 NShNF=       98871 NShFF=           0 NBatch=         919 AvBLen=       107.6
 IPart=  3 NShTot=      131117 NShNF=      131117 NShFF=           0 NBatch=        1418 AvBLen=        92.5
 IPart= 20 NShTot=       86039 NShNF=       86039 NShFF=           0 NBatch=         994 AvBLen=        86.6
 CoulSu:  NxtVal=        5819393.
 ReadGW:  IGet=0 IStart=           1 Next=           1 LGW=           0.
 Remaining memory in FofDFT      399.83 Mw
 CkSvGd:  ISavGI=        -1 IRadAn=       5 IRASav=       5 ISavGd=        -1.
 CalDSu:  NPrtUS=  32 ThrOK=T IAlg=1 NPAlg=2 DoDPD=T LenP=       45150 LenD1P=             0.
 IPart=  0 IRanGd=          0 ScrnBf=T ScrnGd=T RCrit=4.00D+00 DoMicB=T.
 IPart=  2        14901 of        19148 points in      29 batches and      120 microbatches, Max-NSigAt=      12 Max-NSgAt2=      12
 IPart=  4        11679 of        15196 points in      24 batches and       55 microbatches, Max-NSigAt=      12 Max-NSgAt2=      12
 IPart= 30         7342 of         7982 points in      13 batches and       47 microbatches, Max-NSigAt=      12 Max-NSgAt2=      12
 IPart= 18         8902 of         9500 points in      14 batches and       49 microbatches, Max-NSigAt=      12 Max-NSgAt2=      12
 IPart=  6         9221 of         9888 points in      14 batches and       56 microbatches, Max-NSigAt=      12 Max-NSgAt2=      12
 IPart=  0         8668 of        11886 points in      18 batches and       52 microbatches, Max-NSigAt=      12 Max-NSgAt2=      12
 IPart=  8        11055 of        13806 points in      21 batches and      100 microbatches, Max-NSigAt=      12 Max-NSgAt2=      12
 IPart= 17         7010 of         7386 points in      11 batches and       24 microbatches, Max-NSigAt=      12 Max-NSgAt2=      12
 IPart= 16         7907 of         8480 points in      12 batches and       46 microbatches, Max-NSigAt=      12 Max-NSgAt2=      12
 IPart= 15         6543 of         7466 points in      12 batches and       73 microbatches, Max-NSigAt=      12 Max-NSgAt2=      12
 IPart=  3         7480 of         8246 points in      13 batches and       33 microbatches, Max-NSigAt=      12 Max-NSgAt2=      12
 IPart= 28         6322 of         7122 points in      12 batches and       58 microbatches, Max-NSigAt=      12 Max-NSgAt2=      12
 IPart= 23         6732 of         7230 points in      11 batches and       37 microbatches, Max-NSigAt=      12 Max-NSgAt2=      12
 IPart=  5         8241 of         8544 points in      13 batches and       23 microbatches, Max-NSigAt=      12 Max-NSgAt2=      10
 IPart= 12         6013 of         6916 points in      11 batches and       61 microbatches, Max-NSigAt=      12 Max-NSgAt2=      12
 IPart=  7         6486 of         6898 points in      11 batches and       48 microbatches, Max-NSigAt=      12 Max-NSgAt2=      12
 IPart= 31        10603 of        11232 points in      16 batches and       46 microbatches, Max-NSigAt=      12 Max-NSgAt2=      12
 IPart=  9         6810 of         6862 points in      10 batches and       21 microbatches, Max-NSigAt=      12 Max-NSgAt2=      12
 IPart= 29         5676 of         7520 points in      12 batches and       68 microbatches, Max-NSigAt=      12 Max-NSgAt2=      12
 IPart= 24         6847 of         7476 points in      12 batches and       43 microbatches, Max-NSigAt=      12 Max-NSgAt2=      12
 IPart= 13         5779 of         6258 points in      10 batches and       40 microbatches, Max-NSigAt=      12 Max-NSgAt2=      12
 IPart= 21         7202 of         8042 points in      13 batches and       46 microbatches, Max-NSigAt=      12 Max-NSgAt2=      12
 IPart= 27         6553 of         7204 points in      11 batches and       52 microbatches, Max-NSigAt=      12 Max-NSgAt2=      12
 IPart=  1         8961 of         9258 points in      15 batches and       43 microbatches, Max-NSigAt=      12 Max-NSgAt2=      12
 IPart= 14         8182 of         9148 points in      14 batches and       73 microbatches, Max-NSigAt=      12 Max-NSgAt2=      12
 IPart= 22         6695 of         7234 points in      11 batches and       57 microbatches, Max-NSigAt=      12 Max-NSgAt2=      12
 IPart= 26         7453 of         7818 points in      12 batches and       37 microbatches, Max-NSigAt=      12 Max-NSgAt2=      12
 IPart= 10         6879 of         7454 points in      11 batches and       62 microbatches, Max-NSigAt=      12 Max-NSgAt2=      12
 IPart= 25         6412 of         6992 points in      12 batches and       39 microbatches, Max-NSigAt=      12 Max-NSgAt2=      12
 IPart= 20         7773 of         8846 points in      14 batches and       88 microbatches, Max-NSigAt=      12 Max-NSgAt2=      12
 IPart= 19         5901 of         6574 points in      11 batches and       60 microbatches, Max-NSigAt=      12 Max-NSgAt2=      12
 IPart= 11         7122 of         8384 points in      14 batches and       58 microbatches, Max-NSigAt=      12 Max-NSgAt2=      12
 Forces at end of L703
 I=    0 X=  -5.279438233084D-01 Y=   1.758306228043D-01 Z=  -1.508138858125D-01
 I=    1 X=  -4.203437364679D-05 Y=   6.594341407018D-05 Z=  -1.169864806698D-04
 I=    2 X=   4.657470783975D-05 Y=   1.939327038318D-05 Z=   7.952122561861D-05
 I=    3 X=  -3.201322227753D-06 Y=  -4.799639775214D-05 Z=   6.058101165451D-05
 I=    4 X=  -1.289412605177D-05 Y=  -1.310737512950D-05 Z=   3.211418545868D-05
 I=    5 X=   8.980100011602D-06 Y=  -2.511294024143D-05 Z=  -5.568995172123D-05
 I=    6 X=   1.014994469989D-04 Y=   1.020195248848D-04 Z=  -2.874532877857D-04
 I=    7 X=  -5.021423280982D-05 Y=   5.642118901794D-05 Z=   1.477261903484D-04
 I=    8 X=   5.841384447702D-06 Y=  -4.482478770899D-05 Z=   1.044611629897D-04
 I=    9 X=  -6.740776708347D-05 Y=  -3.116140605219D-05 Z=   9.062926504466D-05
 I=   10 X=   1.024896118393D-05 Y=  -2.543768203855D-05 Z=  -3.731457450895D-05
 I=   11 X=  -2.872969614653D-06 Y=  -1.989347192000D-05 Z=  -5.624352427569D-06
 I=   12 X=   5.480190950369D-06 Y=  -3.624333750241D-05 Z=  -1.196439413592D-05
 FrcOut:
 IF    =    64 IFX   =   100 IFXYZ =   136
 IFFX  =   172 IFFFX =   172 IFLen =    36
 IFFLen=     0 IFFFLn=     0 IEDerv=   172
 LEDerv=  1781 IFroze=  2359 ICStrt=146684
 -------------------------------------------------------------------
 Center     Atomic                   Forces (Hartrees/Bohr)
 Number     Number              X              Y              Z
 -------------------------------------------------------------------
      1        6           0.000042034   -0.000065943    0.000116986
      2        8          -0.000046575   -0.000019393   -0.000079521
      3        1           0.000003201    0.000047996   -0.000060581
      4        1           0.000012894    0.000013107   -0.000032114
      5        1          -0.000008980    0.000025113    0.000055690
      6        6          -0.000101499   -0.000102020    0.000287453
      7        6           0.000050214   -0.000056421   -0.000147726
      8        1          -0.000005841    0.000044825   -0.000104461
      9        1           0.000067408    0.000031161   -0.000090629
     10        1          -0.000010249    0.000025438    0.000037315
     11        1           0.000002873    0.000019893    0.000005624
     12        1          -0.000005480    0.000036243    0.000011964
 -------------------------------------------------------------------
 Cartesian Forces:  Max     0.000287453 RMS     0.000074806
 From PutF, contents of force:
   1   -0.2383127390D-04
   2    0.2752585311D-04
   3    0.1036540389D-04
   4    0.2918805750D-04
   5    0.1101094940D-03
   6    0.6331663480D-04
   7    0.8804257802D-04
   8    0.3106734180D-04
   9    0.1021353009D-03
  10   -0.2384829774D-04
  11   -0.2416707281D-04
  12   -0.4098031118D-04
  13    0.1015183994D-04
  14    0.4178117013D-05
  15   -0.2238972098D-03
  16   -0.2286384190D-03
  17   -0.4058879291D-04
  18   -0.1048364427D-04
  19   -0.1672925067D-04
  20    0.4299110318D-04
  21    0.3352738427D-04
  22   -0.7171580797D-04
  23   -0.2254023441D-04
  24    0.1154264284D-04
  25    0.3033955909D-04
  26   -0.4139962782D-04
  27   -0.2060680296D-04
  28    0.1152780443D-04
  29    0.1335835227D-04
  30    0.1478401258D-05
 -----------------------------------------------------------------------------------------------
                       Internal Coordinate Forces (Hartree/Bohr or radian)
  Cent   Atom   N1       Length/X         N2         Alpha/Y        N3         Beta/Z          J
 -----------------------------------------------------------------------------------------------
      1  C 
      2  O        1  -0.000024(     1)
      3  H        1   0.000028(     2)      2   0.000110(    12)
      4  H        1   0.000010(     3)      2   0.000063(    13)      3   0.000031(    22)     0
      5  H        2   0.000029(     4)      1   0.000088(    14)      3  -0.000041(    23)     0
      6  C        1   0.000001(     5)      2   0.000013(    15)      3   0.000012(    24)     0
      7  C        6   0.000102(     6)      1  -0.000023(    16)      2   0.000012(    25)     0
      8  H        6  -0.000024(     7)      7  -0.000224(    17)      1   0.000030(    26)     0
      9  H        6  -0.000024(     8)      7  -0.000229(    18)      8   0.000043(    27)     0
     10  H        7  -0.000041(     9)      6  -0.000041(    19)      8  -0.000021(    28)     0
     11  H        7   0.000010(    10)      6  -0.000010(    20)     10   0.000034(    29)     0
     12  H        7   0.000004(    11)      6  -0.000017(    21)     10  -0.000072(    30)     0
 -----------------------------------------------------------------------------------------------
 Internal  Forces:  Max     0.000228638 RMS     0.000072363
 Final forces over variables, Energy=-1.94229497D+02:
 -2.38312739D-05 2.75258531D-05 1.03654039D-05 2.91880575D-05
  1.10109494D-04 6.33166348D-05 8.80425780D-05 3.10673418D-05
  1.02135301D-04-2.38482977D-05-2.41670728D-05-4.09803112D-05
  1.01518399D-05 4.17811701D-06-2.23897210D-04-2.28638419D-04
 -4.05887929D-05-1.04836443D-05-1.67292507D-05 4.29911032D-05
  3.35273843D-05-7.17158080D-05-2.25402344D-05 1.15426428D-05
  3.03395591D-05-4.13996278D-05-2.06068030D-05 1.15278044D-05
  1.33583523D-05 1.47840126D-06

 GradGradGradGradGradGradGradGradGradGradGradGradGradGradGradGradGradGrad
 Berny optimization.
 Search for a local minimum.
 Step number   5 out of a maximum of   50
 All quantities printed in internal units (Hartrees-Bohrs-Radians)
 Update second derivatives using D2CorN and points    2    3    4    5
 DE= -2.55D-06 DEPred=-1.91D-06 R= 1.33D+00
 TightC=F SS=  1.41D+00  RLast= 1.16D-02 DXNew= 8.4853D-01 3.4730D-02
 Trust test= 1.33D+00 RLast= 1.16D-02 DXMaxT set to 5.05D-01
 ITU=  1  1  1  1  0
     Eigenvalues ---    0.00599   0.01903   0.04252   0.06123   0.09979
     Eigenvalues ---    0.13501   0.14065   0.14497   0.16083   0.16356
     Eigenvalues ---    0.24770   0.29491   0.30923   0.33792   0.33900
     Eigenvalues ---    0.34684   0.34743   0.34858   0.35748   0.35883
     Eigenvalues ---    0.35978   0.36217   0.38328   0.38651   0.39603
     Eigenvalues ---    0.45770   0.46777   0.53588   0.560861000.00000
 RFO step:  Lambda=-3.79326353D-07 EMin= 5.99230782D-03
 Quartic linear search produced a step of  0.32760.
 Variable       Old X    -DE/DX   Delta X   Delta X   Delta X     New X
                                 (Linear)    (Quad)   (Total)
    R1        2.56567  -0.00002  -0.00031   0.00021  -0.00011   2.56556
    R2        2.03675   0.00003  -0.00002   0.00009   0.00008   2.03682
    R3        2.04392   0.00001   0.00003  -0.00002   0.00001   2.04393
    R4        1.80901   0.00003  -0.00006   0.00012   0.00006   1.80907
    A2        1.98895   0.00011   0.00009   0.00042   0.00051   1.98946
    A3        2.07778   0.00006   0.00035  -0.00019   0.00016   2.07794
    A4        1.91738   0.00009  -0.00029   0.00099   0.00070   1.91809
    D3        3.58754   0.00003  -0.00076   0.00041  -0.00035   3.58720
   R21        2.80006   0.00010   0.00023   0.00018   0.00041   2.80047
   R22        2.04165  -0.00002   0.00000  -0.00011  -0.00011   2.04154
   R23        2.04159  -0.00002   0.00004  -0.00015  -0.00011   2.04148
   R24        2.07638  -0.00004  -0.00019   0.00001  -0.00019   2.07620
   R25        2.06159   0.00001   0.00008  -0.00003   0.00005   2.06164
   R26        2.06148   0.00000   0.00004  -0.00001   0.00003   2.06151
   A22        2.11020  -0.00022  -0.00025  -0.00018  -0.00043   2.10976
   A23        2.11060  -0.00023  -0.00035  -0.00026  -0.00061   2.10999
   A24        1.94862  -0.00004   0.00026  -0.00022   0.00004   1.94866
   A25        1.95098  -0.00001  -0.00015   0.00000  -0.00015   1.95083
   A26        1.95092  -0.00002  -0.00017   0.00005  -0.00012   1.95080
   D23        3.00176   0.00004   0.00266   0.00032   0.00297   3.00473
   D25        2.08018   0.00003   0.00015  -0.00001   0.00015   2.08032
   D26        4.20302  -0.00007  -0.00040   0.00001  -0.00039   4.20263
   ANG2       1.72149  -0.00002  -0.00057  -0.00012  -0.00068   1.72081
   DH2        3.34358   0.00001   0.00032   0.00041   0.00074   3.34432
   DH3        1.67214   0.00003  -0.00139  -0.00009  -0.00148   1.67066
    D4        3.06316  -0.00004  -0.00065  -0.00082  -0.00147   3.06169
   D24        4.78577  -0.00002  -0.00170  -0.00046  -0.00217   4.78360
   DH1        1.78612   0.00001  -0.00033   0.00044   0.00011   1.78623
   ANG1       1.96532   0.00001  -0.00019   0.00009  -0.00010   1.96522
    BB       18.89726   0.00000   0.00000   0.00000   0.00000  18.89726
         Item               Value     Threshold  Converged?
 Maximum Force            0.000229     0.000450     YES
 RMS     Force            0.000074     0.000300     YES
 Maximum Displacement     0.002974     0.001800     NO 
 RMS     Displacement     0.000834     0.001200     YES
 Predicted change in Energy=-3.076883D-07
 GradGradGradGradGradGradGradGradGradGradGradGradGradGradGradGradGradGrad

 ---------------------------------------------------------------------------------------------------
                            Z-MATRIX (ANGSTROMS AND DEGREES)
   CD    Cent   Atom    N1       Length/X        N2       Alpha/Y        N3        Beta/Z          J
 ---------------------------------------------------------------------------------------------------
      1      1  C 
      2      2  O        1   1.357635(     1)
      3      3  H        1   1.077841(     2)      2  113.988(    12)
      4      4  H        1   1.081602(     3)      2  119.057(    13)      3  205.531(    22)      0
      5      5  H        2   0.957316(     4)      1  109.898(    14)      3  175.422(    23)      0
      6      6  C        1  10.000000(     5)      2  112.599(    15)      3  102.343(    24)      0
      7      7  C        6   1.481946(     6)      1   98.595(    16)      2  191.615(    25)      0
      8      8  H        6   1.080338(     7)      7  120.880(    17)      1   95.722(    26)      0
      9      9  H        6   1.080307(     8)      7  120.894(    18)      8  172.158(    27)      0
     10     10  H        7   1.098677(     9)      6  111.650(    19)      8  274.080(    28)      0
     11     11  H        7   1.090971(    10)      6  111.774(    20)     10  119.194(    29)      0
     12     12  H        7   1.090903(    11)      6  111.773(    21)     10  240.793(    30)      0
 ---------------------------------------------------------------------------------------------------
                         Z-Matrix orientation:                         
 ---------------------------------------------------------------------
 Center     Atomic      Atomic             Coordinates (Angstroms)
 Number     Number       Type             X           Y           Z
 ---------------------------------------------------------------------
      1          6           0        0.000000    0.000000    0.000000
      2          8           0        0.000000    0.000000    1.357635
      3          1           0        0.984751    0.000000   -0.438186
      4          1           0       -0.853143    0.407499   -0.525315
      5          1           0       -0.897291    0.071848    1.683459
      6          6           0       -1.973573   -9.018770   -3.842759
      7          6           0       -1.611173   -8.742781   -5.252958
      8          1           0       -2.998564   -8.946045   -3.509242
      9          1           0       -1.246197   -9.418309   -3.151126
     10          1           0       -1.726008   -9.635410   -5.883131
     11          1           0       -2.245994   -7.970801   -5.690300
     12          1           0       -0.571467   -8.426828   -5.349165
 ---------------------------------------------------------------------
                    Distance matrix (angstroms):
                    1          2          3          4          5
     1  C    0.000000
     2  O    1.357635   0.000000
     3  H    1.077841   2.048098   0.000000
     4  H    1.081602   2.106990   1.884542   0.000000
     5  H    1.909012   0.957316   2.837009   2.234567   0.000000
     6  C   10.000000  10.596098  10.083700  10.055612  10.692839
     7  C   10.325970  11.078449  10.312956  10.327286  11.239269
     8  H   10.066672  10.616478  10.263036  10.049648  10.616114
     9  H   10.009353  10.516011  10.051951  10.178206  10.656361
    10  H   11.420659  12.175751  11.394594  11.416133  12.335757
    11  H   10.047770  10.874353  10.077504   9.940473  10.994340
    12  H    9.997579  10.785137   9.876789  10.069469  11.035916
                    6          7          8          9         10
     6  C    0.000000
     7  C    1.481946   0.000000
     8  H    1.080338   2.237569   0.000000
     9  H    1.080307   2.237687   1.849884   0.000000
    10  H    2.145845   1.098677   2.780282   2.782301   0.000000
    11  H    2.141462   1.090971   2.504890   3.089057   1.754563
    12  H    2.141390   1.090903   3.089612   2.503931   1.754638
                   11         12
    11  H    0.000000
    12  H    1.768721   0.000000
 Symmetry turned off by external request.
 Stoichiometry    C3H8O(3)
 Framework group  C1[X(C3H8O)]
 Deg. of freedom    30
 Full point group                 C1      NOp   1
 Rotational constants (GHZ):     13.3792981      0.3030482      0.2984133
 Standard basis: Jun-CC-pVTZ (5D, 7F)
   268 basis functions,   384 primitive gaussians,   300 cartesian basis functions
    18 alpha electrons       16 beta electrons
       nuclear repulsion energy        87.0093931691 Hartrees.
 NAtoms=   12 NActive=   12 NUniq=   12 SFac= 1.00D+00 NAtFMM=   60 NAOKFM=F Big=F
 Integral buffers will be    131072 words long.
 Raffenetti 2 integral format.
 Two-electron integral symmetry is turned off.
 Nuclear repulsion after empirical dispersion term =       87.0076433933 Hartrees.
 One-electron integrals computed using PRISM.
 NBasis=   268 RedAO= T EigKep=  1.13D-04  NBF=   268
 NBsUse=   268 1.00D-06 EigRej= -1.00D+00 NBFU=   268
 Initial guess from the checkpoint file:  "tmp.chk"
 B after Tr=     0.000494    0.000445    0.000352
         Rot=    1.000000    0.000068    0.000164    0.000120 Ang=   0.02 deg.
 Initial guess <Sx>= 0.0000 <Sy>= 0.0000 <Sz>= 1.0000 <S**2>= 2.0088 S= 1.0029
 Requested convergence on RMS density matrix=1.00D-08 within 128 cycles.
 Requested convergence on MAX density matrix=1.00D-06.
 Requested convergence on             energy=1.00D-06.
 No special actions if energy rises.
 SCF Done:  E(UwB97XD) =  -194.229497853     A.U. after    8 cycles
            NFock=  8  Conv=0.57D-08     -V/T= 2.0065
 <Sx>= 0.0000 <Sy>= 0.0000 <Sz>= 1.0000 <S**2>= 2.0088 S= 1.0029
 <L.S>=  0.00000000000    
 Annihilation of the first spin contaminant:
 S**2 before annihilation     2.0088,   after     2.0000
 DipInt: DoE/N= T T RetVal/Mat= T F Init=T NMatP=  1 IDeriv=0 Min/MaxMlt=  1  1
 Entering OneElI...
 Multipole integrals L=1 to 1 MinM= 0 MaxM= 0.
 Requested accuracy = 0.1000D-12
 PrsmSu:  NPrtUS=   1 ThrOK=F IAlg=1 NPAlg=1 LenDen=           0.
 Prism:   IPart=     0 DynPar=F LinDyn=F Incr=          34.
 PRISM was handed   419083932 working-precision words and  3445 shell-pairs
 IPart=  0 NShTot=        3445 NBatch=          53 AvBLen=        65.0
 PrSmSu:  NxtVal=             35.
 Entering OneElI...
 Calculate overlap and kinetic energy integrals
    NBasis = 300  MinDer = 1  MaxDer = 1
 Requested accuracy = 0.1000D-12
 PrsmSu:  NPrtUS=  32 ThrOK=T IAlg=1 NPAlg=1 LenDen=           0.
 PRISM was handed    13023123 working-precision words and  3688 shell-pairs
 PRISM was handed    13023123 working-precision words and  3688 shell-pairs
 PRISM was handed    13023123 working-precision words and  3688 shell-pairs
 IPart= 18 NShTot=         106 NBatch=          20 AvBLen=         5.3
 Prism:   IPart=     0 DynPar=F LinDyn=F Incr=           1.
 PRISM was handed    13023123 working-precision words and  3688 shell-pairs
 PRISM was handed    13023123 working-precision words and  3688 shell-pairs
 PRISM was handed    13023123 working-precision words and  3688 shell-pairs
 PRISM was handed    13023123 working-precision words and  3688 shell-pairs
 PRISM was handed    13023123 working-precision words and  3688 shell-pairs
 PRISM was handed    13023123 working-precision words and  3688 shell-pairs
 PRISM was handed    13023123 working-precision words and  3688 shell-pairs
 PRISM was handed    13023123 working-precision words and  3688 shell-pairs
 PRISM was handed    13023123 working-precision words and  3688 shell-pairs
 PRISM was handed    13023123 working-precision words and  3688 shell-pairs
 PRISM was handed    13023123 working-precision words and  3688 shell-pairs
 PRISM was handed    13023123 working-precision words and  3688 shell-pairs
 PRISM was handed    13023123 working-precision words and  3688 shell-pairs
 PRISM was handed    13023123 working-precision words and  3688 shell-pairs
 PRISM was handed    13023123 working-precision words and  3688 shell-pairs
 PRISM was handed    13023123 working-precision words and  3688 shell-pairs
 PRISM was handed    13023123 working-precision words and  3688 shell-pairs
 PRISM was handed    13023123 working-precision words and  3688 shell-pairs
 PRISM was handed    13023123 working-precision words and  3688 shell-pairs
 PRISM was handed    13023123 working-precision words and  3688 shell-pairs
 PRISM was handed    13023123 working-precision words and  3688 shell-pairs
 PRISM was handed    13023123 working-precision words and  3688 shell-pairs
 PRISM was handed    13023123 working-precision words and  3688 shell-pairs
 PRISM was handed    13023123 working-precision words and  3688 shell-pairs
 PRISM was handed    13023123 working-precision words and  3688 shell-pairs
 PRISM was handed    13023123 working-precision words and  3688 shell-pairs
 PRISM was handed    13023123 working-precision words and  3688 shell-pairs
 PRISM was handed    13023123 working-precision words and  3688 shell-pairs
 PRISM was handed    13023123 working-precision words and  3688 shell-pairs
 IPart= 14 NShTot=         108 NBatch=          21 AvBLen=         5.1
 IPart=  1 NShTot=         147 NBatch=          45 AvBLen=         3.3
 IPart=  0 NShTot=         152 NBatch=          50 AvBLen=         3.0
 IPart= 13 NShTot=         114 NBatch=          21 AvBLen=         5.4
 IPart=  9 NShTot=         117 NBatch=          21 AvBLen=         5.6
 IPart= 23 NShTot=         104 NBatch=          20 AvBLen=         5.2
 IPart=  7 NShTot=         126 NBatch=          29 AvBLen=         4.3
 IPart= 22 NShTot=         104 NBatch=          20 AvBLen=         5.2
 IPart= 21 NShTot=         106 NBatch=          20 AvBLen=         5.3
 IPart=  4 NShTot=         135 NBatch=          33 AvBLen=         4.1
 IPart=  6 NShTot=         127 NBatch=          29 AvBLen=         4.4
 IPart= 30 NShTot=         102 NBatch=          20 AvBLen=         5.1
 IPart=  3 NShTot=         144 NBatch=          42 AvBLen=         3.4
 IPart= 29 NShTot=         102 NBatch=          20 AvBLen=         5.1
 IPart= 27 NShTot=         103 NBatch=          20 AvBLen=         5.2
 IPart= 17 NShTot=         107 NBatch=          20 AvBLen=         5.3
 IPart= 15 NShTot=         108 NBatch=          21 AvBLen=         5.1
 IPart= 26 NShTot=         103 NBatch=          20 AvBLen=         5.2
 IPart= 20 NShTot=         106 NBatch=          20 AvBLen=         5.3
 IPart= 11 NShTot=         116 NBatch=          21 AvBLen=         5.5
 IPart= 25 NShTot=         103 NBatch=          20 AvBLen=         5.2
 IPart= 12 NShTot=         116 NBatch=          21 AvBLen=         5.5
 IPart= 16 NShTot=         107 NBatch=          20 AvBLen=         5.3
 IPart= 24 NShTot=         104 NBatch=          20 AvBLen=         5.2
 IPart= 28 NShTot=         103 NBatch=          20 AvBLen=         5.2
 IPart= 10 NShTot=         116 NBatch=          21 AvBLen=         5.5
 IPart= 31 NShTot=         102 NBatch=          20 AvBLen=         5.1
 IPart= 19 NShTot=         106 NBatch=          20 AvBLen=         5.3
 IPart=  2 NShTot=         145 NBatch=          43 AvBLen=         3.4
 IPart=  5 NShTot=         130 NBatch=          30 AvBLen=         4.3
 IPart=  8 NShTot=         119 NBatch=          22 AvBLen=         5.4
 PrSmSu:  NxtVal=             33.
 Entering OneElI...
 Calculate potential energy integrals
    NBasis = 300  MinDer = 1  MaxDer = 1
 Requested accuracy = 0.1000D-12
 PrsmSu:  NPrtUS=  32 ThrOK=T IAlg=1 NPAlg=1 LenDen=           0.
 PRISM was handed    13039490 working-precision words and  2976 shell-pairs
 PRISM was handed    13039490 working-precision words and  2976 shell-pairs
 PRISM was handed    13039490 working-precision words and  2976 shell-pairs
 PRISM was handed    13039490 working-precision words and  2976 shell-pairs
 PRISM was handed    13039490 working-precision words and  2976 shell-pairs
 PRISM was handed    13039490 working-precision words and  2976 shell-pairs
 PRISM was handed    13039490 working-precision words and  2976 shell-pairs
 PRISM was handed    13039490 working-precision words and  2976 shell-pairs
 PRISM was handed    13039490 working-precision words and  2976 shell-pairs
 PRISM was handed    13039490 working-precision words and  2976 shell-pairs
 PRISM was handed    13039490 working-precision words and  2976 shell-pairs
 PRISM was handed    13039490 working-precision words and  2976 shell-pairs
 PRISM was handed    13039490 working-precision words and  2976 shell-pairs
 PRISM was handed    13039490 working-precision words and  2976 shell-pairs
 PRISM was handed    13039490 working-precision words and  2976 shell-pairs
 PRISM was handed    13039490 working-precision words and  2976 shell-pairs
 PRISM was handed    13039490 working-precision words and  2976 shell-pairs
 PRISM was handed    13039490 working-precision words and  2976 shell-pairs
 PRISM was handed    13039490 working-precision words and  2976 shell-pairs
 PRISM was handed    13039490 working-precision words and  2976 shell-pairs
 PRISM was handed    13039490 working-precision words and  2976 shell-pairs
 PRISM was handed    13039490 working-precision words and  2976 shell-pairs
 PRISM was handed    13039490 working-precision words and  2976 shell-pairs
 PRISM was handed    13039490 working-precision words and  2976 shell-pairs
 PRISM was handed    13039490 working-precision words and  2976 shell-pairs
 PRISM was handed    13039490 working-precision words and  2976 shell-pairs
 PRISM was handed    13039490 working-precision words and  2976 shell-pairs
 PRISM was handed    13039490 working-precision words and  2976 shell-pairs
 PRISM was handed    13039490 working-precision words and  2976 shell-pairs
 PRISM was handed    13039490 working-precision words and  2976 shell-pairs
 PRISM was handed    13039490 working-precision words and  2976 shell-pairs
 IPart= 19 NShTot=        1032 NBatch=          86 AvBLen=        12.0
 Prism:   IPart=     0 DynPar=F LinDyn=F Incr=          11.
 PRISM was handed    13039490 working-precision words and  2976 shell-pairs
 IPart=  7 NShTot=        1236 NBatch=         103 AvBLen=        12.0
 IPart= 30 NShTot=         972 NBatch=          81 AvBLen=        12.0
 IPart= 20 NShTot=        1032 NBatch=          86 AvBLen=        12.0
 IPart= 17 NShTot=        1032 NBatch=          86 AvBLen=        12.0
 IPart= 25 NShTot=        1008 NBatch=          84 AvBLen=        12.0
 IPart= 23 NShTot=        1008 NBatch=          84 AvBLen=        12.0
 IPart=  1 NShTot=        1464 NBatch=         122 AvBLen=        12.0
 IPart= 31 NShTot=         960 NBatch=          80 AvBLen=        12.0
 IPart= 10 NShTot=        1080 NBatch=          90 AvBLen=        12.0
 IPart=  8 NShTot=        1140 NBatch=          95 AvBLen=        12.0
 IPart=  6 NShTot=        1272 NBatch=         106 AvBLen=        12.0
 IPart= 21 NShTot=        1020 NBatch=          85 AvBLen=        12.0
 IPart=  3 NShTot=        1404 NBatch=         117 AvBLen=        12.0
 IPart=  2 NShTot=        1416 NBatch=         118 AvBLen=        12.0
 IPart= 12 NShTot=        1068 NBatch=          89 AvBLen=        12.0
 IPart= 28 NShTot=         996 NBatch=          83 AvBLen=        12.0
 IPart=  5 NShTot=        1284 NBatch=         107 AvBLen=        12.0
 IPart= 13 NShTot=        1068 NBatch=          89 AvBLen=        12.0
 IPart= 11 NShTot=        1080 NBatch=          90 AvBLen=        12.0
 IPart=  4 NShTot=        1308 NBatch=         109 AvBLen=        12.0
 IPart= 29 NShTot=         984 NBatch=          82 AvBLen=        12.0
 IPart= 27 NShTot=         996 NBatch=          83 AvBLen=        12.0
 IPart= 15 NShTot=        1044 NBatch=          87 AvBLen=        12.0
 IPart=  9 NShTot=        1104 NBatch=          92 AvBLen=        12.0
 IPart= 16 NShTot=        1032 NBatch=          86 AvBLen=        12.0
 IPart= 14 NShTot=        1068 NBatch=          89 AvBLen=        12.0
 IPart= 22 NShTot=        1008 NBatch=          84 AvBLen=        12.0
 IPart= 24 NShTot=        1008 NBatch=          84 AvBLen=        12.0
 IPart= 26 NShTot=         996 NBatch=          83 AvBLen=        12.0
 IPart= 18 NShTot=        1032 NBatch=          86 AvBLen=        12.0
 IPart=  0 NShTot=        1560 NBatch=         130 AvBLen=        12.0
 PrSmSu:  NxtVal=            353.
 l701 out
 I=    0 X=  -5.276536023925D-01 Y=   1.773214282409D-01 Z=  -1.500920472624D-01
 I=    1 X=   1.146663573771D-01 Y=  -8.098943317815D-01 Z=  -5.599990268558D+00
 I=    2 X=   2.522573562159D+00 Y=   6.593263184076D-03 Z=   7.048965920088D+00
 I=    3 X=   2.677197120939D+00 Y=  -2.216212969432D-02 Z=  -1.544968296889D+00
 I=    4 X=  -2.281648224364D+00 Y=   1.174059011262D+00 Z=  -1.734647418030D+00
 I=    5 X=  -2.910025924931D+00 Y=   2.696627555686D-01 Z=   2.188313112945D+00
 I=    6 X=  -6.625309702510D-01 Y=  -5.308988819428D-01 Z=   2.470246571123D+00
 I=    7 X=   5.645648820004D-01 Y=   2.356926865151D-01 Z=  -2.515726414658D+00
 I=    8 X=  -2.702173740927D+00 Y=   1.009726270146D-01 Z=   1.188337533780D+00
 I=    9 X=   1.759393910967D+00 Y=  -1.104296508377D+00 Z=   2.100933158174D+00
 I=   10 X=  -2.294336457498D-01 Y=  -2.168476571799D+00 Z=  -1.777246089801D+00
 I=   11 X=  -1.572418197639D+00 Y=   2.008483979718D+00 Z=  -1.348940576065D+00
 I=   12 X=   2.719834870419D+00 Y=   8.402641003330D-01 Z=  -4.752772321083D-01
 ICntrl=      2127.
 Calling FoFJK, ICntrl=      2127 FMM=F ISym2X=0 I1Cent= 0 IOpClX= 1 NMat=1 NMatS=1 NMatT=0.
 FoFJK:  IHMeth= 1 ICntrl=    2127 DoSepK=T KAlg= 0 I1Cent=   0 FoldK=F
 IRaf=         1 NMat=   1 IRICut=       1 DoRegI=T DoRafI=F ISym2E= 0.
 FoFCou: FMM=F IPFlag=           0 FMFlag=      100000 FMFlg1=         800
         NFxFlg=           0 DoJE=F BraDBF=F KetDBF=F FulRan=T
         wScrn=  0.000000 ICntrl=    2527 IOpCl=  0 I1Cent=           0 NGrid=           0
         NMat0=    1 NMatS0=      1 NMatT0=    0 NMatD0=    1 NMtDS0=    0 NMtDT0=    0
 Symmetry not used in FoFCou.
 FoFCou:  KetSym=F NOpSet=  1 NOpAb=1 NOp=  1.
 FoFCou:  CnvScl= 1.00D+00 Thresh= 1.00D-10 IAcrcy=      10.
 PrismS was handed   418996336 working-precision words and  3262 shell-pairs
 FoFCou: LinMIO=F DoNuc=F BraDBF=F KetDBF=F HaveP=T PDBF=F HaveZ=T HaveW=F
         NIJTC =      10 NIJTAt=       0 NIJTCD=       0 NIJTT =      10
         IJTBeg=       1 IJTEnd=      10 KLTBeg=       1 KLTEnd=      10
         IPTBeg=       1 IPTEnd=      10 IPTBCv=       1 IPTECv=      10
         IZTBeg=       1 IZTEnd=      10 IZTBCv=       1 IZTECv=      10
         IWTBeg=      11 IWTEnd=      10 IWTBCv=      11 IWTECv=      10
         INTBeg=       1 INTEnd=       0 IFTBCv=       1 IFTECv=      10
 NCel replicated for PrismC:     1
 CoulSu:  IncDef=  1024 NBBP=        5321953 NTPThr=   100 NPartT=   32 Incr=        1024 LDynOK=F.
 CoulSu:  NPrtUS=  32 ThrOK=T IAlg=1 NPAlg=1 LenDen=           0 LWGrdD=           0 DoCopy=F.
 Enter PrismC: JobTyp=21 DoJE=F Cont=F.
 Enter PrismC: JobTyp=21 DoJE=F Cont=F.
 Enter PrismC: JobTyp=21 DoJE=F Cont=F.
 Enter PrismC: JobTyp=21 DoJE=F Cont=F.
 Enter PrismC: JobTyp=21 DoJE=F Cont=F.
 Enter PrismC: JobTyp=21 DoJE=F Cont=F.
 Enter PrismC: JobTyp=21 DoJE=F Cont=F.
 Enter PrismC: JobTyp=21 DoJE=F Cont=F.
 PrismC was handed    13032912 working-precision words and  3262 shell-pairs
 Enter PrismC: JobTyp=21 DoJE=F Cont=F.
 Enter PrismC: JobTyp=21 DoJE=F Cont=F.
 Enter PrismC: JobTyp=21 DoJE=F Cont=F.
 Enter PrismC: JobTyp=21 DoJE=F Cont=F.
 Enter PrismC: JobTyp=21 DoJE=F Cont=F.
 PrismC was handed    13032912 working-precision words and  3262 shell-pairs
 Enter PrismC: JobTyp=21 DoJE=F Cont=F.
 PrismC was handed    13032912 working-precision words and  3262 shell-pairs
 Enter PrismC: JobTyp=21 DoJE=F Cont=F.
 Enter PrismC: JobTyp=21 DoJE=F Cont=F.
 Enter PrismC: JobTyp=21 DoJE=F Cont=F.
 Enter PrismC: JobTyp=21 DoJE=F Cont=F.
 PrismC was handed    13032912 working-precision words and  3262 shell-pairs
 Enter PrismC: JobTyp=21 DoJE=F Cont=F.
 Enter PrismC: JobTyp=21 DoJE=F Cont=F.
 Enter PrismC: JobTyp=21 DoJE=F Cont=F.
 Enter PrismC: JobTyp=21 DoJE=F Cont=F.
 Enter PrismC: JobTyp=21 DoJE=F Cont=F.
 Enter PrismC: JobTyp=21 DoJE=F Cont=F.
 Enter PrismC: JobTyp=21 DoJE=F Cont=F.
 PrismC was handed    13032912 working-precision words and  3262 shell-pairs
 Enter PrismC: JobTyp=21 DoJE=F Cont=F.
 Enter PrismC: JobTyp=21 DoJE=F Cont=F.
 Enter PrismC: JobTyp=21 DoJE=F Cont=F.
 Enter PrismC: JobTyp=21 DoJE=F Cont=F.
 Enter PrismC: JobTyp=21 DoJE=F Cont=F.
 PrismC was handed    13032912 working-precision words and  3262 shell-pairs
 Enter PrismC: JobTyp=21 DoJE=F Cont=F.
 Enter PrismC: JobTyp=21 DoJE=F Cont=F.
 PrismC was handed    13032912 working-precision words and  3262 shell-pairs
 PrismC was handed    13032912 working-precision words and  3262 shell-pairs
 PrismC was handed    13032912 working-precision words and  3262 shell-pairs
 PrismC was handed    13032912 working-precision words and  3262 shell-pairs
 PrismC was handed    13032912 working-precision words and  3262 shell-pairs
 PrismC was handed    13032912 working-precision words and  3262 shell-pairs
 PrismC was handed    13032912 working-precision words and  3262 shell-pairs
 PrismC was handed    13032912 working-precision words and  3262 shell-pairs
 PrismC was handed    13032912 working-precision words and  3262 shell-pairs
 PrismC was handed    13032912 working-precision words and  3262 shell-pairs
 PrismC was handed    13032912 working-precision words and  3262 shell-pairs
 PrismC was handed    13032912 working-precision words and  3262 shell-pairs
 PrismC was handed    13032912 working-precision words and  3262 shell-pairs
 PrismC:  IPart=     0 DynPar=T LinDyn=F Incr=        1024 UseFst=F UseS4=T IGathr=2.
 PrismC was handed    13032912 working-precision words and  3262 shell-pairs
 PrismC was handed    13032912 working-precision words and  3262 shell-pairs
 PrismC was handed    13032912 working-precision words and  3262 shell-pairs
 PrismC was handed    13032912 working-precision words and  3262 shell-pairs
 PrismC was handed    13032912 working-precision words and  3262 shell-pairs
 PrismC was handed    13032912 working-precision words and  3262 shell-pairs
 PrismC was handed    13032912 working-precision words and  3262 shell-pairs
 PrismC was handed    13032912 working-precision words and  3262 shell-pairs
 PrismC was handed    13032912 working-precision words and  3262 shell-pairs
 PrismC was handed    13032912 working-precision words and  3262 shell-pairs
 PrismC was handed    13032912 working-precision words and  3262 shell-pairs
 PrismC was handed    13032912 working-precision words and  3262 shell-pairs
 PrismC was handed    13032912 working-precision words and  3262 shell-pairs
 IPart= 11 NShTot=      142286 NShNF=      142286 NShFF=           0 NBatch=        1157 AvBLen=       123.0
 IPart= 12 NShTot=      123561 NShNF=      123561 NShFF=           0 NBatch=        1196 AvBLen=       103.3
 IPart=  9 NShTot=      108037 NShNF=      108037 NShFF=           0 NBatch=         683 AvBLen=       158.2
 IPart= 27 NShTot=       95714 NShNF=       95714 NShFF=           0 NBatch=         849 AvBLen=       112.7
 IPart=  0 NShTot=      111315 NShNF=      111315 NShFF=           0 NBatch=        1087 AvBLen=       102.4
 IPart=  3 NShTot=      123779 NShNF=      123779 NShFF=           0 NBatch=         974 AvBLen=       127.1
 IPart= 23 NShTot=      116441 NShNF=      116441 NShFF=           0 NBatch=         860 AvBLen=       135.4
 IPart=  8 NShTot=       84041 NShNF=       84041 NShFF=           0 NBatch=         833 AvBLen=       100.9
 IPart=  5 NShTot=      140935 NShNF=      140935 NShFF=           0 NBatch=        1195 AvBLen=       117.9
 IPart= 21 NShTot=      184655 NShNF=      184655 NShFF=           0 NBatch=        1160 AvBLen=       159.2
 IPart= 16 NShTot=      144954 NShNF=      144954 NShFF=           0 NBatch=        1239 AvBLen=       117.0
 IPart= 22 NShTot=      163251 NShNF=      163251 NShFF=           0 NBatch=        1156 AvBLen=       141.2
 IPart=  7 NShTot=      120311 NShNF=      120311 NShFF=           0 NBatch=         879 AvBLen=       136.9
 IPart=  4 NShTot=      106472 NShNF=      106472 NShFF=           0 NBatch=         823 AvBLen=       129.4
 IPart= 26 NShTot=       84134 NShNF=       84134 NShFF=           0 NBatch=         815 AvBLen=       103.2
 IPart= 17 NShTot=      112427 NShNF=      112427 NShFF=           0 NBatch=        1126 AvBLen=        99.8
 IPart=  6 NShTot=      122351 NShNF=      122351 NShFF=           0 NBatch=         882 AvBLen=       138.7
 IPart= 24 NShTot=      108706 NShNF=      108706 NShFF=           0 NBatch=         798 AvBLen=       136.2
 IPart= 25 NShTot=       98767 NShNF=       98767 NShFF=           0 NBatch=         810 AvBLen=       121.9
 IPart= 28 NShTot=       99822 NShNF=       99822 NShFF=           0 NBatch=         805 AvBLen=       124.0
 IPart= 18 NShTot=      146198 NShNF=      146198 NShFF=           0 NBatch=        1084 AvBLen=       134.9
 IPart= 31 NShTot=      108056 NShNF=      108056 NShFF=           0 NBatch=         817 AvBLen=       132.3
 IPart= 29 NShTot=       89504 NShNF=       89504 NShFF=           0 NBatch=         854 AvBLen=       104.8
 IPart= 20 NShTot=       95766 NShNF=       95766 NShFF=           0 NBatch=         954 AvBLen=       100.4
 IPart=  2 NShTot=       81568 NShNF=       81568 NShFF=           0 NBatch=         722 AvBLen=       113.0
 IPart= 15 NShTot=      127705 NShNF=      127705 NShFF=           0 NBatch=         808 AvBLen=       158.1
 IPart=  1 NShTot=       98200 NShNF=       98200 NShFF=           0 NBatch=         843 AvBLen=       116.5
 IPart= 19 NShTot=       73185 NShNF=       73185 NShFF=           0 NBatch=         721 AvBLen=       101.5
 IPart= 14 NShTot=      125258 NShNF=      125258 NShFF=           0 NBatch=        1150 AvBLen=       108.9
 IPart= 30 NShTot=      100789 NShNF=      100789 NShFF=           0 NBatch=         782 AvBLen=       128.9
 IPart= 13 NShTot=      122292 NShNF=      122292 NShFF=           0 NBatch=         953 AvBLen=       128.3
 IPart= 10 NShTot=      109135 NShNF=      109135 NShFF=           0 NBatch=         639 AvBLen=       170.8
 CoulSu:  NxtVal=        5819393.
 FoFCou: FMM=F IPFlag=           0 FMFlag=      100000 FMFlg1=         800
         NFxFlg=           0 DoJE=F BraDBF=F KetDBF=F FulRan=T
         wScrn=  0.000000 ICntrl=    2127 IOpCl=  1 I1Cent=           0 NGrid=           0
         NMat0=    1 NMatS0=      0 NMatT0=    1 NMatD0=    1 NMtDS0=    0 NMtDT0=    0
         CW=    0.222036    0.777964
         WU=    0.000000   12.500000
 Symmetry not used in FoFCou.
 FoFCou:  KetSym=F NOpSet=  1 NOpAb=1 NOp=  1.
 FoFCou:  CnvScl= 1.00D+00 Thresh= 1.00D-10 IAcrcy=      10.
 PrismS was handed   418991370 working-precision words and  3262 shell-pairs
 FoFCou: LinMIO=F DoNuc=F BraDBF=F KetDBF=F HaveP=T PDBF=F HaveZ=T HaveW=F
         NIJTC =      10 NIJTAt=       0 NIJTCD=       0 NIJTT =      10
         IJTBeg=       1 IJTEnd=      10 KLTBeg=       1 KLTEnd=      10
         IPTBeg=       1 IPTEnd=      10 IPTBCv=       1 IPTECv=      10
         IZTBeg=       1 IZTEnd=      10 IZTBCv=       1 IZTECv=      10
         IWTBeg=      11 IWTEnd=      10 IWTBCv=      11 IWTECv=      10
         INTBeg=       1 INTEnd=       0 IFTBCv=       1 IFTECv=      10
 NCel replicated for PrismC:     1
 CoulSu:  IncDef=  1024 NBBP=        5321953 NTPThr=   100 NPartT=   32 Incr=        1024 LDynOK=F.
 CoulSu:  NPrtUS=  32 ThrOK=T IAlg=1 NPAlg=1 LenDen=           0 LWGrdD=           0 DoCopy=F.
 Enter PrismC: JobTyp=21 DoJE=F Cont=F.
 Enter PrismC: JobTyp=21 DoJE=F Cont=F.
 Linear combination for Coulomb/exchange, wScrn=  0.000000
 CW=    0.222036    0.777964
 WU=    0.000000   12.500000
 Linear combination for Coulomb/exchange, wScrn=  0.000000
 CW=    0.222036    0.777964
 WU=    0.000000   12.500000
 Enter PrismC: JobTyp=21 DoJE=F Cont=F.
 Enter PrismC: JobTyp=21 DoJE=F Cont=F.
 Linear combination for Coulomb/exchange, wScrn=  0.000000
 Enter PrismC: JobTyp=21 DoJE=F Cont=F.
 Linear combination for Coulomb/exchange, wScrn=  0.000000
 CW=    0.222036    0.777964
 WU=    0.000000   12.500000
 PrismC was handed    13032757 working-precision words and  3262 shell-pairs
 Enter PrismC: JobTyp=21 DoJE=F Cont=F.
 Linear combination for Coulomb/exchange, wScrn=  0.000000
 CW=    0.222036    0.777964
 WU=    0.000000   12.500000
 Enter PrismC: JobTyp=21 DoJE=F Cont=F.
 Linear combination for Coulomb/exchange, wScrn=  0.000000
 CW=    0.222036    0.777964
 WU=    0.000000   12.500000
 PrismC was handed    13032757 working-precision words and  3262 shell-pairs
 Enter PrismC: JobTyp=21 DoJE=F Cont=F.
 Linear combination for Coulomb/exchange, wScrn=  0.000000
 CW=    0.222036    0.777964
 WU=    0.000000   12.500000
 PrismC was handed    13032757 working-precision words and  3262 shell-pairs
 Enter PrismC: JobTyp=21 DoJE=F Cont=F.
 Linear combination for Coulomb/exchange, wScrn=  0.000000
 CW=    0.222036    0.777964
 WU=    0.000000   12.500000
 PrismC was handed    13032757 working-precision words and  3262 shell-pairs
 Enter PrismC: JobTyp=21 DoJE=F Cont=F.
 Linear combination for Coulomb/exchange, wScrn=  0.000000
 CW=    0.222036    0.777964
 WU=    0.000000   12.500000
 PrismC was handed    13032757 working-precision words and  3262 shell-pairs
 Enter PrismC: JobTyp=21 DoJE=F Cont=F.
 Linear combination for Coulomb/exchange, wScrn=  0.000000
 CW=    0.222036    0.777964
 WU=    0.000000   12.500000
 PrismC was handed    13032757 working-precision words and  3262 shell-pairs
 Enter PrismC: JobTyp=21 DoJE=F Cont=F.
 Linear combination for Coulomb/exchange, wScrn=  0.000000
 CW=    0.222036    0.777964
 WU=    0.000000   12.500000
 PrismC was handed    13032757 working-precision words and  3262 shell-pairs
 PrismC was handed    13032757 working-precision words and  3262 shell-pairs
 PrismC was handed    13032757 working-precision words and  3262 shell-pairs
 Enter PrismC: JobTyp=21 DoJE=F Cont=F.
 Linear combination for Coulomb/exchange, wScrn=  0.000000
 CW=    0.222036    0.777964
 WU=    0.000000   12.500000
 PrismC was handed    13032757 working-precision words and  3262 shell-pairs
 Enter PrismC: JobTyp=21 DoJE=F Cont=F.
 Linear combination for Coulomb/exchange, wScrn=  0.000000
 CW=    0.222036    0.777964
 WU=    0.000000   12.500000
 PrismC was handed    13032757 working-precision words and  3262 shell-pairs
 Enter PrismC: JobTyp=21 DoJE=F Cont=F.
 Linear combination for Coulomb/exchange, wScrn=  0.000000
 CW=    0.222036    0.777964
 WU=    0.000000   12.500000
 PrismC was handed    13032757 working-precision words and  3262 shell-pairs
 Enter PrismC: JobTyp=21 DoJE=F Cont=F.
 Linear combination for Coulomb/exchange, wScrn=  0.000000
 CW=    0.222036    0.777964
 WU=    0.000000   12.500000
 PrismC was handed    13032757 working-precision words and  3262 shell-pairs
 Enter PrismC: JobTyp=21 DoJE=F Cont=F.
 Linear combination for Coulomb/exchange, wScrn=  0.000000
 CW=    0.222036    0.777964
 WU=    0.000000   12.500000
 PrismC was handed    13032757 working-precision words and  3262 shell-pairs
 Enter PrismC: JobTyp=21 DoJE=F Cont=F.
 Linear combination for Coulomb/exchange, wScrn=  0.000000
 CW=    0.222036    0.777964
 WU=    0.000000   12.500000
 PrismC was handed    13032757 working-precision words and  3262 shell-pairs
 Enter PrismC: JobTyp=21 DoJE=F Cont=F.
 Linear combination for Coulomb/exchange, wScrn=  0.000000
 CW=    0.222036    0.777964
 WU=    0.000000   12.500000
 Enter PrismC: JobTyp=21 DoJE=F Cont=F.
 Linear combination for Coulomb/exchange, wScrn=  0.000000
 CW=    0.222036    0.777964
 WU=    0.000000   12.500000
 PrismC was handed    13032757 working-precision words and  3262 shell-pairs
 Enter PrismC: JobTyp=21 DoJE=F Cont=F.
 Linear combination for Coulomb/exchange, wScrn=  0.000000
 CW=    0.222036    0.777964
 WU=    0.000000   12.500000
 CW=    0.222036    0.777964
 WU=    0.000000   12.500000
 PrismC was handed    13032757 working-precision words and  3262 shell-pairs
 Enter PrismC: JobTyp=21 DoJE=F Cont=F.
 Linear combination for Coulomb/exchange, wScrn=  0.000000
 CW=    0.222036    0.777964
 WU=    0.000000   12.500000
 PrismC was handed    13032757 working-precision words and  3262 shell-pairs
 Enter PrismC: JobTyp=21 DoJE=F Cont=F.
 Enter PrismC: JobTyp=21 DoJE=F Cont=F.
 Linear combination for Coulomb/exchange, wScrn=  0.000000
 CW=    0.222036    0.777964
 WU=    0.000000   12.500000
 PrismC was handed    13032757 working-precision words and  3262 shell-pairs
 Enter PrismC: JobTyp=21 DoJE=F Cont=F.
 Linear combination for Coulomb/exchange, wScrn=  0.000000
 CW=    0.222036    0.777964
 WU=    0.000000   12.500000
 PrismC was handed    13032757 working-precision words and  3262 shell-pairs
 PrismC was handed    13032757 working-precision words and  3262 shell-pairs
 Enter PrismC: JobTyp=21 DoJE=F Cont=F.
 Linear combination for Coulomb/exchange, wScrn=  0.000000
 CW=    0.222036    0.777964
 WU=    0.000000   12.500000
 PrismC was handed    13032757 working-precision words and  3262 shell-pairs
 PrismC was handed    13032757 working-precision words and  3262 shell-pairs
 Enter PrismC: JobTyp=21 DoJE=F Cont=F.
 Linear combination for Coulomb/exchange, wScrn=  0.000000
 CW=    0.222036    0.777964
 WU=    0.000000   12.500000
 PrismC was handed    13032757 working-precision words and  3262 shell-pairs
 PrismC was handed    13032757 working-precision words and  3262 shell-pairs
 Linear combination for Coulomb/exchange, wScrn=  0.000000
 CW=    0.222036    0.777964
 WU=    0.000000   12.500000
 Enter PrismC: JobTyp=21 DoJE=F Cont=F.
 Linear combination for Coulomb/exchange, wScrn=  0.000000
 CW=    0.222036    0.777964
 WU=    0.000000   12.500000
 PrismC was handed    13032757 working-precision words and  3262 shell-pairs
 PrismC was handed    13032757 working-precision words and  3262 shell-pairs
 Enter PrismC: JobTyp=21 DoJE=F Cont=F.
 Linear combination for Coulomb/exchange, wScrn=  0.000000
 Enter PrismC: JobTyp=21 DoJE=F Cont=F.
 Linear combination for Coulomb/exchange, wScrn=  0.000000
 CW=    0.222036    0.777964
 WU=    0.000000   12.500000
 Enter PrismC: JobTyp=21 DoJE=F Cont=F.
 Linear combination for Coulomb/exchange, wScrn=  0.000000
 CW=    0.222036    0.777964
 WU=    0.000000   12.500000
 Linear combination for Coulomb/exchange, wScrn=  0.000000
 CW=    0.222036    0.777964
 WU=    0.000000   12.500000
 PrismC was handed    13032757 working-precision words and  3262 shell-pairs
 CW=    0.222036    0.777964
 WU=    0.000000   12.500000
 PrismC was handed    13032757 working-precision words and  3262 shell-pairs
 PrismC was handed    13032757 working-precision words and  3262 shell-pairs
 PrismC was handed    13032757 working-precision words and  3262 shell-pairs
 Enter PrismC: JobTyp=21 DoJE=F Cont=F.
 Linear combination for Coulomb/exchange, wScrn=  0.000000
 CW=    0.222036    0.777964
 WU=    0.000000   12.500000
 PrismC:  IPart=     0 DynPar=T LinDyn=F Incr=        1024 UseFst=F UseS4=T IGathr=2.
 PrismC was handed    13032757 working-precision words and  3262 shell-pairs
 IPart= 27 NShTot=      105452 NShNF=      105452 NShFF=           0 NBatch=        1137 AvBLen=        92.7
 IPart= 19 NShTot=       99920 NShNF=       99920 NShFF=           0 NBatch=        1019 AvBLen=        98.1
 IPart= 16 NShTot=      136201 NShNF=      136201 NShFF=           0 NBatch=        1361 AvBLen=       100.1
 IPart= 18 NShTot=      128333 NShNF=      128333 NShFF=           0 NBatch=         796 AvBLen=       161.2
 IPart= 28 NShTot=      109570 NShNF=      109570 NShFF=           0 NBatch=         920 AvBLen=       119.1
 IPart= 17 NShTot=      111645 NShNF=      111645 NShFF=           0 NBatch=        1212 AvBLen=        92.1
 IPart= 31 NShTot=      108592 NShNF=      108592 NShFF=           0 NBatch=        1158 AvBLen=        93.8
 IPart= 13 NShTot=      144572 NShNF=      144572 NShFF=           0 NBatch=        1289 AvBLen=       112.2
 IPart=  0 NShTot=      112119 NShNF=      112119 NShFF=           0 NBatch=        1212 AvBLen=        92.5
 IPart=  3 NShTot=      108888 NShNF=      108888 NShFF=           0 NBatch=        1075 AvBLen=       101.3
 IPart= 26 NShTot=      136941 NShNF=      136941 NShFF=           0 NBatch=        1247 AvBLen=       109.8
 IPart=  9 NShTot=      115516 NShNF=      115516 NShFF=           0 NBatch=        1290 AvBLen=        89.5
 IPart= 25 NShTot=      117828 NShNF=      117828 NShFF=           0 NBatch=        1086 AvBLen=       108.5
 IPart=  7 NShTot=      120887 NShNF=      120887 NShFF=           0 NBatch=        1148 AvBLen=       105.3
 IPart=  8 NShTot=      106882 NShNF=      106882 NShFF=           0 NBatch=        1002 AvBLen=       106.7
 IPart= 10 NShTot=      110867 NShNF=      110867 NShFF=           0 NBatch=        1064 AvBLen=       104.2
 IPart= 11 NShTot=      121682 NShNF=      121682 NShFF=           0 NBatch=        1235 AvBLen=        98.5
 IPart=  1 NShTot=      108249 NShNF=      108249 NShFF=           0 NBatch=         984 AvBLen=       110.0
 IPart= 14 NShTot=      109796 NShNF=      109796 NShFF=           0 NBatch=        1100 AvBLen=        99.8
 IPart=  5 NShTot=      132108 NShNF=      132108 NShFF=           0 NBatch=        1249 AvBLen=       105.8
 IPart=  6 NShTot=      125632 NShNF=      125632 NShFF=           0 NBatch=        1157 AvBLen=       108.6
 IPart= 29 NShTot=      115498 NShNF=      115498 NShFF=           0 NBatch=        1028 AvBLen=       112.4
 IPart= 22 NShTot=       94274 NShNF=       94274 NShFF=           0 NBatch=        1109 AvBLen=        85.0
 IPart= 23 NShTot=       84699 NShNF=       84699 NShFF=           0 NBatch=         977 AvBLen=        86.7
 IPart=  2 NShTot=      103328 NShNF=      103328 NShFF=           0 NBatch=        1151 AvBLen=        89.8
 IPart= 30 NShTot=      113295 NShNF=      113295 NShFF=           0 NBatch=        1005 AvBLen=       112.7
 IPart= 12 NShTot=      110921 NShNF=      110921 NShFF=           0 NBatch=        1341 AvBLen=        82.7
 IPart= 21 NShTot=      111621 NShNF=      111621 NShFF=           0 NBatch=        1086 AvBLen=       102.8
 IPart= 15 NShTot=      133121 NShNF=      133121 NShFF=           0 NBatch=        1225 AvBLen=       108.7
 IPart= 24 NShTot=       91668 NShNF=       91668 NShFF=           0 NBatch=        1101 AvBLen=        83.3
 IPart=  4 NShTot=      110921 NShNF=      110921 NShFF=           0 NBatch=        1139 AvBLen=        97.4
 IPart= 20 NShTot=      102345 NShNF=      102345 NShFF=           0 NBatch=        1209 AvBLen=        84.7
 CoulSu:  NxtVal=        5819393.
 ReadGW:  IGet=0 IStart=           1 Next=           1 LGW=           0.
 Remaining memory in FofDFT      399.83 Mw
 CkSvGd:  ISavGI=        -1 IRadAn=       5 IRASav=       5 ISavGd=        -1.
 CalDSu:  NPrtUS=  32 ThrOK=T IAlg=1 NPAlg=2 DoDPD=T LenP=       45150 LenD1P=             0.
 IPart=  0 IRanGd=          0 ScrnBf=T ScrnGd=T RCrit=4.00D+00 DoMicB=T.
 IPart= 26         6733 of         8984 points in      15 batches and       52 microbatches, Max-NSigAt=      12 Max-NSgAt2=      12
 IPart= 28         8145 of         8186 points in      13 batches and       27 microbatches, Max-NSigAt=      12 Max-NSgAt2=      11
 IPart= 21         8351 of         9184 points in      14 batches and       50 microbatches, Max-NSigAt=      12 Max-NSgAt2=      12
 IPart= 14         8243 of         9788 points in      13 batches and       24 microbatches, Max-NSigAt=      12 Max-NSgAt2=      12
 IPart=  6         7517 of         7720 points in      12 batches and       39 microbatches, Max-NSigAt=      12 Max-NSgAt2=      12
 IPart= 22         8184 of         8814 points in      12 batches and       52 microbatches, Max-NSigAt=      12 Max-NSgAt2=      12
 IPart= 17         6822 of         7438 points in      12 batches and       51 microbatches, Max-NSigAt=      12 Max-NSgAt2=      12
 IPart= 19        10511 of        13550 points in      21 batches and       80 microbatches, Max-NSigAt=      12 Max-NSgAt2=      12
 IPart= 11         8349 of         9086 points in      14 batches and       87 microbatches, Max-NSigAt=      12 Max-NSgAt2=      12
 IPart= 20         9009 of        10784 points in      15 batches and       35 microbatches, Max-NSigAt=      12 Max-NSgAt2=      12
 IPart=  0        10847 of        14232 points in      20 batches and       68 microbatches, Max-NSigAt=      12 Max-NSgAt2=      12
 IPart= 23         7264 of         8010 points in      13 batches and       80 microbatches, Max-NSigAt=      12 Max-NSgAt2=      12
 IPart= 18         8480 of         8610 points in      13 batches and       38 microbatches, Max-NSigAt=      12 Max-NSgAt2=      12
 IPart= 27         7743 of         8556 points in      14 batches and       40 microbatches, Max-NSigAt=      12 Max-NSgAt2=      12
 IPart= 25         7756 of         8570 points in      13 batches and       51 microbatches, Max-NSigAt=      12 Max-NSgAt2=      12
 IPart= 12         7894 of         9318 points in      15 batches and       29 microbatches, Max-NSigAt=      12 Max-NSgAt2=      12
 IPart= 31         8254 of         8686 points in      13 batches and       32 microbatches, Max-NSigAt=      12 Max-NSgAt2=      11
 IPart= 24         8404 of         9278 points in      14 batches and       51 microbatches, Max-NSigAt=      12 Max-NSgAt2=      12
 IPart=  2         6934 of         7638 points in      12 batches and       79 microbatches, Max-NSigAt=      12 Max-NSgAt2=      12
 IPart=  1         8162 of         9530 points in      16 batches and       36 microbatches, Max-NSigAt=      12 Max-NSgAt2=      12
 IPart=  3         6883 of         7442 points in      11 batches and       52 microbatches, Max-NSigAt=      12 Max-NSgAt2=      12
 IPart= 16         7428 of         8768 points in      13 batches and       36 microbatches, Max-NSigAt=      12 Max-NSgAt2=      12
 IPart= 10         7811 of         8786 points in      14 batches and       54 microbatches, Max-NSigAt=      12 Max-NSgAt2=      12
 IPart= 29         7091 of         7726 points in      13 batches and       67 microbatches, Max-NSigAt=      12 Max-NSgAt2=      12
 IPart= 13         5998 of         6532 points in      11 batches and       56 microbatches, Max-NSigAt=      12 Max-NSgAt2=      12
 IPart=  9         6964 of         8084 points in      13 batches and       61 microbatches, Max-NSigAt=      12 Max-NSgAt2=      12
 IPart=  5        11888 of        12770 points in      19 batches and       62 microbatches, Max-NSigAt=      12 Max-NSgAt2=      12
 IPart= 15         6345 of         7122 points in      12 batches and       70 microbatches, Max-NSigAt=      12 Max-NSgAt2=      12
 IPart=  4         6974 of         8242 points in      13 batches and       70 microbatches, Max-NSigAt=      12 Max-NSgAt2=      12
 IPart=  8         6306 of         7128 points in      12 batches and       72 microbatches, Max-NSigAt=      12 Max-NSgAt2=      12
 IPart=  7         6280 of         6888 points in      11 batches and       53 microbatches, Max-NSigAt=      12 Max-NSgAt2=      12
 IPart= 30         5778 of         6546 points in      11 batches and       65 microbatches, Max-NSigAt=      12 Max-NSgAt2=      12
 Forces at end of L703
 I=    0 X=  -5.276536023925D-01 Y=   1.773214282409D-01 Z=  -1.500920472624D-01
 I=    1 X=   2.364201542600D-05 Y=   5.289375076900D-05 Z=  -4.343834405152D-05
 I=    2 X=  -1.223021946828D-05 Y=   5.228779348138D-06 Z=   1.717023893644D-05
 I=    3 X=  -6.182682450451D-07 Y=  -3.336355870683D-05 Z=  -8.944715319537D-06
 I=    4 X=  -1.608010641529D-06 Y=  -1.327424371200D-05 Z=   7.852792122565D-06
 I=    5 X=  -1.175262808317D-05 Y=  -1.235955714818D-05 Z=   2.690524139837D-05
 I=    6 X=   1.747689032527D-05 Y=   8.500973194936D-06 Z=  -5.444993814541D-05
 I=    7 X=  -1.119563949803D-05 Y=  -1.780091394765D-05 Z=   2.766403781740D-05
 I=    8 X=   3.492204305733D-06 Y=   2.092354646988D-06 Z=   2.398915617352D-05
 I=    9 X=  -9.807001479123D-06 Y=   3.499305967214D-07 Z=   1.454837240367D-05
 I=   10 X=  -4.268000566021D-07 Y=   4.918406880883D-06 Z=  -7.066856575255D-06
 I=   11 X=   3.638382881643D-07 Y=   5.272374994814D-06 Z=  -2.188293452665D-06
 I=   12 X=   2.663619101728D-06 Y=  -2.458296917696D-06 Z=  -2.041691236632D-06
 FrcOut:
 IF    =    64 IFX   =   100 IFXYZ =   136
 IFFX  =   172 IFFFX =   172 IFLen =    36
 IFFLen=     0 IFFFLn=     0 IEDerv=   172
 LEDerv=  1781 IFroze=  2359 ICStrt=146684
 -------------------------------------------------------------------
 Center     Atomic                   Forces (Hartrees/Bohr)
 Number     Number              X              Y              Z
 -------------------------------------------------------------------
      1        6          -0.000023642   -0.000052894    0.000043438
      2        8           0.000012230   -0.000005229   -0.000017170
      3        1           0.000000618    0.000033364    0.000008945
      4        1           0.000001608    0.000013274   -0.000007853
      5        1           0.000011753    0.000012360   -0.000026905
      6        6          -0.000017477   -0.000008501    0.000054450
      7        6           0.000011196    0.000017801   -0.000027664
      8        1          -0.000003492   -0.000002092   -0.000023989
      9        1           0.000009807   -0.000000350   -0.000014548
     10        1           0.000000427   -0.000004918    0.000007067
     11        1          -0.000000364   -0.000005272    0.000002188
     12        1          -0.000002664    0.000002458    0.000002042
 -------------------------------------------------------------------
 Cartesian Forces:  Max     0.000054450 RMS     0.000019535
 From PutF, contents of force:
   1   -0.4407548033D-04
   2   -0.3071516253D-05
   3    0.7546733078D-05
   4   -0.1924534946D-04
   5   -0.1715726534D-04
   6    0.9791298629D-05
   7   -0.3916164764D-04
   8    0.2263908430D-04
   9    0.1955172258D-04
  10   -0.4233380497D-05
  11   -0.2581627962D-05
  12   -0.1019770730D-06
  13   -0.4396291201D-05
  14   -0.2006686196D-05
  15   -0.4617469677D-04
  16   -0.3533211388D-04
  17   -0.1675047496D-04
  18   -0.3379802121D-05
  19   -0.3090198300D-05
  20   -0.2320981803D-05
  21   -0.6263809752D-05
  22   -0.6358959932D-05
  23   -0.2296394984D-04
  24    0.1127561869D-04
  25    0.3001943153D-04
  26   -0.2255297002D-04
  27   -0.1847996312D-04
  28    0.1155653292D-04
  29    0.1378111589D-04
  30    0.1470390278D-05
 -----------------------------------------------------------------------------------------------
                       Internal Coordinate Forces (Hartree/Bohr or radian)
  Cent   Atom   N1       Length/X         N2         Alpha/Y        N3         Beta/Z          J
 -----------------------------------------------------------------------------------------------
      1  C 
      2  O        1  -0.000044(     1)
      3  H        1  -0.000003(     2)      2  -0.000017(    12)
      4  H        1   0.000008(     3)      2   0.000010(    13)      3   0.000023(    22)     0
      5  H        2  -0.000019(     4)      1  -0.000039(    14)      3  -0.000023(    23)     0
      6  C        1   0.000001(     5)      2   0.000014(    15)      3   0.000012(    24)     0
      7  C        6   0.000020(     6)      1  -0.000023(    16)      2   0.000011(    25)     0
      8  H        6  -0.000004(     7)      7  -0.000046(    17)      1   0.000030(    26)     0
      9  H        6  -0.000003(     8)      7  -0.000035(    18)      8  -0.000002(    27)     0
     10  H        7  -0.000000(     9)      6  -0.000017(    19)      8  -0.000018(    28)     0
     11  H        7  -0.000004(    10)      6  -0.000003(    20)     10  -0.000006(    29)     0
     12  H        7  -0.000002(    11)      6  -0.000003(    21)     10  -0.000006(    30)     0
 -----------------------------------------------------------------------------------------------
 Internal  Forces:  Max     0.000046175 RMS     0.000019786
 Final forces over variables, Energy=-1.94229498D+02:
 -4.40754803D-05-3.07151625D-06 7.54673308D-06-1.92453495D-05
 -1.71572653D-05 9.79129863D-06-3.91616476D-05 2.26390843D-05
  1.95517226D-05-4.23338050D-06-2.58162796D-06-1.01977073D-07
 -4.39629120D-06-2.00668620D-06-4.61746968D-05-3.53321139D-05
 -1.67504750D-05-3.37980212D-06-3.09019830D-06-2.32098180D-06
 -6.26380975D-06-6.35895993D-06-2.29639498D-05 1.12756187D-05
  3.00194315D-05-2.25529700D-05-1.84799631D-05 1.15565329D-05
  1.37811159D-05 1.47039028D-06

 GradGradGradGradGradGradGradGradGradGradGradGradGradGradGradGradGradGrad
 Berny optimization.
 Search for a local minimum.
 Step number   6 out of a maximum of   50
 All quantities printed in internal units (Hartrees-Bohrs-Radians)
 Update second derivatives using D2CorN and points    2    3    4    5    6

 DE= -3.61D-07 DEPred=-3.08D-07 R= 1.17D+00
 Trust test= 1.17D+00 RLast= 4.57D-03 DXMaxT set to 5.05D-01
 ITU=  0  1  1  1  1  0
     Eigenvalues ---    0.00875   0.01886   0.04032   0.06126   0.09982
     Eigenvalues ---    0.13475   0.14062   0.14507   0.16162   0.16360
     Eigenvalues ---    0.24758   0.29487   0.30932   0.33659   0.33888
     Eigenvalues ---    0.34683   0.34743   0.34844   0.35745   0.35882
     Eigenvalues ---    0.35978   0.36216   0.38329   0.38643   0.39558
     Eigenvalues ---    0.45469   0.46294   0.53568   0.560911000.00000
 RFO step:  Lambda=-7.81929542D-08 EMin= 8.75088143D-03
 Quartic linear search produced a step of  0.09686.
 Variable       Old X    -DE/DX   Delta X   Delta X   Delta X     New X
                                 (Linear)    (Quad)   (Total)
    R1        2.56556  -0.00004  -0.00001  -0.00009  -0.00010   2.56546
    R2        2.03682  -0.00000   0.00001  -0.00001  -0.00001   2.03682
    R3        2.04393   0.00001   0.00000   0.00002   0.00002   2.04396
    R4        1.80907  -0.00002   0.00001  -0.00004  -0.00004   1.80903
    A2        1.98946  -0.00002   0.00005  -0.00018  -0.00013   1.98933
    A3        2.07794   0.00001   0.00002   0.00002   0.00004   2.07798
    A4        1.91809  -0.00004   0.00007  -0.00031  -0.00025   1.91784
    D3        3.58720   0.00002  -0.00003   0.00053   0.00050   3.58769
   R21        2.80047   0.00002   0.00004   0.00004   0.00008   2.80055
   R22        2.04154  -0.00000  -0.00001  -0.00001  -0.00002   2.04153
   R23        2.04148  -0.00000  -0.00001  -0.00000  -0.00001   2.04147
   R24        2.07620  -0.00000  -0.00002   0.00001  -0.00001   2.07619
   R25        2.06164  -0.00000   0.00000  -0.00002  -0.00001   2.06162
   R26        2.06151  -0.00000   0.00000  -0.00001  -0.00000   2.06150
   A22        2.10976  -0.00005  -0.00004  -0.00006  -0.00010   2.10966
   A23        2.10999  -0.00004  -0.00006  -0.00007  -0.00013   2.10987
   A24        1.94866  -0.00002   0.00000  -0.00008  -0.00007   1.94859
   A25        1.95083  -0.00000  -0.00001   0.00001  -0.00000   1.95083
   A26        1.95080  -0.00000  -0.00001   0.00000  -0.00001   1.95079
   D23        3.00473  -0.00000   0.00029  -0.00014   0.00015   3.00488
   D25        2.08032  -0.00001   0.00001  -0.00000   0.00001   2.08033
   D26        4.20263  -0.00001  -0.00004   0.00005   0.00002   4.20265
   ANG2       1.72081  -0.00002  -0.00007  -0.00003  -0.00010   1.72071
   DH2        3.34432   0.00001   0.00007   0.00071   0.00078   3.34510
   DH3        1.67066   0.00003  -0.00014   0.00016   0.00002   1.67068
    D4        3.06169  -0.00002  -0.00014  -0.00058  -0.00072   3.06097
   D24        4.78360  -0.00002  -0.00021  -0.00018  -0.00039   4.78321
   DH1        1.78623   0.00001   0.00001   0.00026   0.00027   1.78650
   ANG1       1.96522   0.00001  -0.00001   0.00016   0.00015   1.96537
    BB       18.89726   0.00000   0.00000   0.00000   0.00000  18.89726
         Item               Value     Threshold  Converged?
 Maximum Force            0.000046     0.000450     YES
 RMS     Force            0.000020     0.000300     YES
 Maximum Displacement     0.000782     0.001800     YES
 RMS     Displacement     0.000245     0.001200     YES
 Predicted change in Energy=-3.877106D-08
 Optimization completed.
    -- Stationary point found.
                       ----------------------------
                       !   Optimized Parameters   !
                       ! (Angstroms and Degrees)  !
 ----------------------                            ----------------------
 !      Name          Value   Derivative information (Atomic Units)     !
 ------------------------------------------------------------------------
 !       R1          1.3576   -DE/DX =    0.0                           !
 !       R2          1.0778   -DE/DX =    0.0                           !
 !       R3          1.0816   -DE/DX =    0.0                           !
 !       R4          0.9573   -DE/DX =    0.0                           !
 !       A2        113.9877   -DE/DX =    0.0                           !
 !       A3        119.0572   -DE/DX =    0.0                           !
 !       A4        109.8983   -DE/DX =    0.0                           !
 !       D3        205.5312   -DE/DX =    0.0                           !
 !       R21         1.4819   -DE/DX =    0.0                           !
 !       R22         1.0803   -DE/DX =    0.0                           !
 !       R23         1.0803   -DE/DX =    0.0                           !
 !       R24         1.0987   -DE/DX =    0.0                           !
 !       R25         1.091    -DE/DX =    0.0                           !
 !       R26         1.0909   -DE/DX =    0.0                           !
 !       A22       120.8804   -DE/DX =    0.0                           !
 !       A23       120.8938   -DE/DX =    0.0                           !
 !       A24       111.6501   -DE/DX =    0.0                           !
 !       A25       111.7743   -DE/DX =    0.0                           !
 !       A26       111.7727   -DE/DX =    0.0                           !
 !       D23       172.1585   -DE/DX =    0.0                           !
 !       D25       119.1937   -DE/DX =    0.0                           !
 !       D26       240.793    -DE/DX =    0.0                           !
 !      ANG2        98.595    -DE/DX =    0.0                           !
 !       DH2       191.6153   -DE/DX =    0.0                           !
 !       DH3        95.722    -DE/DX =    0.0                           !
 !       D4        175.422    -DE/DX =    0.0                           !
 !       D24       274.0803   -DE/DX =    0.0                           !
 !       DH1       102.3434   -DE/DX =    0.0                           !
 !      ANG1       112.5988   -DE/DX =    0.0                           !
 !       BB          10.0     -DE/DX =    0.0                           !
 ------------------------------------------------------------------------
 GradGradGradGradGradGradGradGradGradGradGradGradGradGradGradGradGradGrad

 ---------------------------------------------------------------------------------------------------
                            Z-MATRIX (ANGSTROMS AND DEGREES)
   CD    Cent   Atom    N1       Length/X        N2       Alpha/Y        N3        Beta/Z          J
 ---------------------------------------------------------------------------------------------------
      1      1  C 
      2      2  O        1   1.357635(     1)
      3      3  H        1   1.077841(     2)      2  113.988(    12)
      4      4  H        1   1.081602(     3)      2  119.057(    13)      3  205.531(    22)      0
      5      5  H        2   0.957316(     4)      1  109.898(    14)      3  175.422(    23)      0
      6      6  C        1  10.000000(     5)      2  112.599(    15)      3  102.343(    24)      0
      7      7  C        6   1.481946(     6)      1   98.595(    16)      2  191.615(    25)      0
      8      8  H        6   1.080338(     7)      7  120.880(    17)      1   95.722(    26)      0
      9      9  H        6   1.080307(     8)      7  120.894(    18)      8  172.158(    27)      0
     10     10  H        7   1.098677(     9)      6  111.650(    19)      8  274.080(    28)      0
     11     11  H        7   1.090971(    10)      6  111.774(    20)     10  119.194(    29)      0
     12     12  H        7   1.090903(    11)      6  111.773(    21)     10  240.793(    30)      0
 ---------------------------------------------------------------------------------------------------
                         Z-Matrix orientation:                         
 ---------------------------------------------------------------------
 Center     Atomic      Atomic             Coordinates (Angstroms)
 Number     Number       Type             X           Y           Z
 ---------------------------------------------------------------------
      1          6           0        0.000000    0.000000    0.000000
      2          8           0        0.000000    0.000000    1.357635
      3          1           0        0.984751    0.000000   -0.438186
      4          1           0       -0.853143    0.407499   -0.525315
      5          1           0       -0.897291    0.071848    1.683459
      6          6           0       -1.973573   -9.018770   -3.842759
      7          6           0       -1.611173   -8.742781   -5.252958
      8          1           0       -2.998564   -8.946045   -3.509242
      9          1           0       -1.246197   -9.418309   -3.151126
     10          1           0       -1.726008   -9.635410   -5.883131
     11          1           0       -2.245994   -7.970801   -5.690300
     12          1           0       -0.571467   -8.426828   -5.349165
 ---------------------------------------------------------------------
                    Distance matrix (angstroms):
                    1          2          3          4          5
     1  C    0.000000
     2  O    1.357635   0.000000
     3  H    1.077841   2.048098   0.000000
     4  H    1.081602   2.106990   1.884542   0.000000
     5  H    1.909012   0.957316   2.837009   2.234567   0.000000
     6  C   10.000000  10.596098  10.083700  10.055612  10.692839
     7  C   10.325970  11.078449  10.312956  10.327286  11.239269
     8  H   10.066672  10.616478  10.263036  10.049648  10.616114
     9  H   10.009353  10.516011  10.051951  10.178206  10.656361
    10  H   11.420659  12.175751  11.394594  11.416133  12.335757
    11  H   10.047770  10.874353  10.077504   9.940473  10.994340
    12  H    9.997579  10.785137   9.876789  10.069469  11.035916
                    6          7          8          9         10
     6  C    0.000000
     7  C    1.481946   0.000000
     8  H    1.080338   2.237569   0.000000
     9  H    1.080307   2.237687   1.849884   0.000000
    10  H    2.145845   1.098677   2.780282   2.782301   0.000000
    11  H    2.141462   1.090971   2.504890   3.089057   1.754563
    12  H    2.141390   1.090903   3.089612   2.503931   1.754638
                   11         12
    11  H    0.000000
    12  H    1.768721   0.000000
 Symmetry turned off by external request.
 Stoichiometry    C3H8O(3)
 Framework group  C1[X(C3H8O)]
 Deg. of freedom    30
 Full point group                 C1      NOp   1
 Rotational constants (GHZ):     13.3792981      0.3030482      0.2984133

 **********************************************************************

            Population analysis using the SCF density.

 **********************************************************************

 Alpha  occ. eigenvalues --  -19.29270 -10.32982 -10.28899 -10.27934  -1.16961
 Alpha  occ. eigenvalues --   -0.85847  -0.77465  -0.70470  -0.62638  -0.54631
 Alpha  occ. eigenvalues --   -0.54065  -0.50120  -0.49676  -0.47805  -0.44752
 Alpha  occ. eigenvalues --   -0.44059  -0.28233  -0.25952
 Alpha virt. eigenvalues --    0.05431   0.05806   0.06799   0.07175   0.08021
 Alpha virt. eigenvalues --    0.08212   0.08322   0.09637   0.11024   0.11415
 Alpha virt. eigenvalues --    0.11691   0.16243   0.16930   0.18072   0.19568
 Alpha virt. eigenvalues --    0.20059   0.20657   0.20818   0.21854   0.24812
 Alpha virt. eigenvalues --    0.25346   0.25618   0.26886   0.27656   0.29171
 Alpha virt. eigenvalues --    0.29304   0.30587   0.31071   0.31221   0.31987
 Alpha virt. eigenvalues --    0.32195   0.34437   0.34808   0.34907   0.37153
 Alpha virt. eigenvalues --    0.38335   0.38705   0.40529   0.43982   0.45005
 Alpha virt. eigenvalues --    0.46239   0.49913   0.52478   0.54535   0.55375
 Alpha virt. eigenvalues --    0.57085   0.57815   0.59493   0.60320   0.62180
 Alpha virt. eigenvalues --    0.63582   0.64312   0.64997   0.65228   0.65324
 Alpha virt. eigenvalues --    0.67648   0.69800   0.70324   0.72844   0.74074
 Alpha virt. eigenvalues --    0.74130   0.75337   0.75691   0.83493   0.84196
 Alpha virt. eigenvalues --    0.85027   0.87704   0.89670   0.90074   0.94094
 Alpha virt. eigenvalues --    0.96437   0.97486   0.98683   0.99627   1.00559
 Alpha virt. eigenvalues --    1.04905   1.05104   1.06496   1.10388   1.15420
 Alpha virt. eigenvalues --    1.16072   1.16926   1.17325   1.17940   1.18129
 Alpha virt. eigenvalues --    1.23051   1.23809   1.25367   1.29083   1.29549
 Alpha virt. eigenvalues --    1.34737   1.36291   1.39407   1.39444   1.40115
 Alpha virt. eigenvalues --    1.41688   1.45781   1.46692   1.48060   1.49644
 Alpha virt. eigenvalues --    1.54587   1.56044   1.57049   1.59375   1.64057
 Alpha virt. eigenvalues --    1.67186   1.72340   1.78955   1.84211   1.96110
 Alpha virt. eigenvalues --    2.04548   2.07012   2.23256   2.24529   2.33449
 Alpha virt. eigenvalues --    2.35559   2.41663   2.46297   2.48478   2.48844
 Alpha virt. eigenvalues --    2.53177   2.57106   2.58489   2.59928   2.60888
 Alpha virt. eigenvalues --    2.67549   2.74258   2.77644   2.82349   2.83694
 Alpha virt. eigenvalues --    2.84555   2.89247   2.89688   2.90506   2.93324
 Alpha virt. eigenvalues --    2.97091   2.98930   3.01412   3.03457   3.05662
 Alpha virt. eigenvalues --    3.06807   3.07319   3.08613   3.10697   3.11782
 Alpha virt. eigenvalues --    3.13076   3.14335   3.18245   3.19208   3.20364
 Alpha virt. eigenvalues --    3.20698   3.22230   3.24215   3.26956   3.30540
 Alpha virt. eigenvalues --    3.39415   3.41480   3.42131   3.42653   3.48041
 Alpha virt. eigenvalues --    3.49965   3.50400   3.51467   3.51733   3.54056
 Alpha virt. eigenvalues --    3.55470   3.55898   3.59865   3.67348   3.70411
 Alpha virt. eigenvalues --    3.75574   3.78256   3.82793   3.83167   3.85659
 Alpha virt. eigenvalues --    3.86649   3.90937   3.94784   3.96085   3.98079
 Alpha virt. eigenvalues --    3.99213   4.00596   4.00821   4.02907   4.05293
 Alpha virt. eigenvalues --    4.07857   4.08214   4.08899   4.09565   4.12801
 Alpha virt. eigenvalues --    4.14796   4.17417   4.21029   4.27640   4.30442
 Alpha virt. eigenvalues --    4.32517   4.32924   4.32955   4.35865   4.36596
 Alpha virt. eigenvalues --    4.44865   4.58264   4.59554   4.73098   4.73217
 Alpha virt. eigenvalues --    4.78265   4.83414   4.85478   4.87944   4.91266
 Alpha virt. eigenvalues --    4.93300   4.95392   4.98598   4.99601   5.00259
 Alpha virt. eigenvalues --    5.04614   5.13922   5.16131   5.21273   5.25285
 Alpha virt. eigenvalues --    5.26926   5.34204   5.39881   5.40918   5.44383
 Alpha virt. eigenvalues --    5.47767   5.48648   5.62080   5.67915   5.68654
 Alpha virt. eigenvalues --    5.76353   5.82672   5.99642   6.00441   6.14731
 Alpha virt. eigenvalues --    6.15470   6.23180   6.52792   6.64360   6.72370
 Alpha virt. eigenvalues --    6.81716   6.90446   6.92034   7.14351   7.31881
 Alpha virt. eigenvalues --    7.60996  12.56093  12.63659  12.74125  13.49258
  Beta  occ. eigenvalues --  -19.28808 -10.31917 -10.28006 -10.27784  -1.15661
  Beta  occ. eigenvalues --   -0.83985  -0.74553  -0.67719  -0.61383  -0.53561
  Beta  occ. eigenvalues --   -0.53291  -0.48394  -0.46802  -0.45480  -0.43587
  Beta  occ. eigenvalues --   -0.43503
  Beta virt. eigenvalues --    0.01832   0.03575   0.05901   0.06351   0.07717
  Beta virt. eigenvalues --    0.08474   0.08733   0.09108   0.09582   0.11591
  Beta virt. eigenvalues --    0.11878   0.12965   0.14779   0.16692   0.17204
  Beta virt. eigenvalues --    0.18764   0.20342   0.20832   0.20954   0.21161
  Beta virt. eigenvalues --    0.22973   0.25496   0.26016   0.26473   0.27090
  Beta virt. eigenvalues --    0.27976   0.29516   0.29609   0.31046   0.31185
  Beta virt. eigenvalues --    0.31235   0.32291   0.32488   0.34591   0.34955
  Beta virt. eigenvalues --    0.35058   0.38260   0.38915   0.40227   0.41450
  Beta virt. eigenvalues --    0.45280   0.46196   0.46210   0.52432   0.52795
  Beta virt. eigenvalues --    0.54667   0.55742   0.57802   0.58731   0.60463
  Beta virt. eigenvalues --    0.60651   0.62762   0.64095   0.64544   0.65268
  Beta virt. eigenvalues --    0.65542   0.67422   0.67904   0.69905   0.70530
  Beta virt. eigenvalues --    0.73608   0.74087   0.74815   0.75757   0.76458
  Beta virt. eigenvalues --    0.84264   0.85682   0.86102   0.88088   0.90211
  Beta virt. eigenvalues --    0.91362   0.95508   0.96614   0.98082   0.98828
  Beta virt. eigenvalues --    1.00708   1.00820   1.05330   1.05871   1.07050
  Beta virt. eigenvalues --    1.11132   1.16271   1.16337   1.18018   1.18214
  Beta virt. eigenvalues --    1.18431   1.18838   1.23180   1.24616   1.25944
  Beta virt. eigenvalues --    1.29919   1.30248   1.35235   1.36421   1.40039
  Beta virt. eigenvalues --    1.40128   1.40554   1.41828   1.46055   1.47265
  Beta virt. eigenvalues --    1.48467   1.50239   1.55190   1.56727   1.57681
  Beta virt. eigenvalues --    1.60113   1.64912   1.67856   1.72534   1.79673
  Beta virt. eigenvalues --    1.84879   1.96967   2.05891   2.07644   2.23742
  Beta virt. eigenvalues --    2.30028   2.37245   2.39832   2.42588   2.47834
  Beta virt. eigenvalues --    2.49218   2.49597   2.55282   2.58565   2.59100
  Beta virt. eigenvalues --    2.61599   2.63879   2.69413   2.75276   2.78623
  Beta virt. eigenvalues --    2.83054   2.86069   2.86934   2.89920   2.91849
  Beta virt. eigenvalues --    2.92247   2.95847   2.99415   3.00658   3.02425
  Beta virt. eigenvalues --    3.06230   3.07590   3.08077   3.09689   3.10713
  Beta virt. eigenvalues --    3.12911   3.14049   3.14321   3.15651   3.18960
  Beta virt. eigenvalues --    3.21943   3.22190   3.23281   3.24565   3.24679
  Beta virt. eigenvalues --    3.31478   3.33309   3.39737   3.42139   3.42564
  Beta virt. eigenvalues --    3.43629   3.49106   3.51174   3.51428   3.51712
  Beta virt. eigenvalues --    3.53616   3.54628   3.56144   3.56534   3.60181
  Beta virt. eigenvalues --    3.68067   3.71723   3.76635   3.78757   3.83496
  Beta virt. eigenvalues --    3.83512   3.86005   3.87579   3.91698   3.95397
  Beta virt. eigenvalues --    3.96328   3.98861   3.99701   4.01032   4.01097
  Beta virt. eigenvalues --    4.03488   4.05528   4.07995   4.08714   4.09328
  Beta virt. eigenvalues --    4.10183   4.13281   4.15540   4.18530   4.21433
  Beta virt. eigenvalues --    4.28129   4.31036   4.32910   4.33620   4.33660
  Beta virt. eigenvalues --    4.35974   4.37757   4.45371   4.58562   4.60934
  Beta virt. eigenvalues --    4.73892   4.74002   4.79130   4.84952   4.86625
  Beta virt. eigenvalues --    4.88549   4.91709   4.94411   4.95900   4.99194
  Beta virt. eigenvalues --    5.01943   5.02322   5.05576   5.14690   5.17179
  Beta virt. eigenvalues --    5.21825   5.26194   5.27594   5.34742   5.40749
  Beta virt. eigenvalues --    5.41823   5.45307   5.48087   5.48899   5.62679
  Beta virt. eigenvalues --    5.68882   5.69429   5.76873   5.83562   6.01176
  Beta virt. eigenvalues --    6.01194   6.15047   6.15661   6.24117   6.53830
  Beta virt. eigenvalues --    6.65748   6.73560   6.82276   6.91222   6.93559
  Beta virt. eigenvalues --    7.15022   7.32416   7.61538  12.58384  12.65538
  Beta virt. eigenvalues --   12.75251  13.49500
          Condensed to atoms (all electrons):
               1          2          3          4          5          6
     1  C    5.267240   0.140956   0.420734   0.417547   0.007881  -0.000002
     2  O    0.140956   7.938380  -0.048926  -0.023712   0.215452   0.000000
     3  H    0.420734  -0.048926   0.500028  -0.027312   0.006897   0.000000
     4  H    0.417547  -0.023712  -0.027312   0.490453  -0.014772   0.000000
     5  H    0.007881   0.215452   0.006897  -0.014772   0.614415  -0.000000
     6  C   -0.000002   0.000000   0.000000   0.000000  -0.000000   5.452242
     7  C   -0.000001   0.000000   0.000000  -0.000000   0.000000   0.265797
     8  H   -0.000000   0.000000  -0.000000   0.000000  -0.000000   0.423432
     9  H   -0.000000   0.000000   0.000000  -0.000000   0.000000   0.423631
    10  H   -0.000000   0.000000   0.000000   0.000000   0.000000  -0.033125
    11  H    0.000000  -0.000000  -0.000000  -0.000000  -0.000000  -0.030501
    12  H    0.000000  -0.000000  -0.000000  -0.000000  -0.000000  -0.030475
               7          8          9         10         11         12
     1  C   -0.000001  -0.000000  -0.000000  -0.000000   0.000000   0.000000
     2  O    0.000000   0.000000   0.000000   0.000000  -0.000000  -0.000000
     3  H    0.000000  -0.000000   0.000000   0.000000  -0.000000  -0.000000
     4  H   -0.000000   0.000000  -0.000000   0.000000  -0.000000  -0.000000
     5  H    0.000000  -0.000000   0.000000   0.000000  -0.000000  -0.000000
     6  C    0.265797   0.423432   0.423631  -0.033125  -0.030501  -0.030475
     7  C    4.933423  -0.030285  -0.030324   0.394837   0.411932   0.412116
     8  H   -0.030285   0.466671  -0.027530  -0.001565  -0.006065   0.003498
     9  H   -0.030324  -0.027530   0.466331  -0.001507   0.003487  -0.006069
    10  H    0.394837  -0.001565  -0.001507   0.500885  -0.017374  -0.017349
    11  H    0.411932  -0.006065   0.003487  -0.017374   0.501191  -0.017300
    12  H    0.412116   0.003498  -0.006069  -0.017349  -0.017300   0.500737
          Atomic-Atomic Spin Densities.
               1          2          3          4          5          6
     1  C    1.074773  -0.167015   0.003521   0.002661  -0.004662  -0.000002
     2  O   -0.167015   0.285720   0.001851  -0.000945   0.004261   0.000000
     3  H    0.003521   0.001851  -0.026650   0.007287  -0.000337   0.000000
     4  H    0.002661  -0.000945   0.007287  -0.025002   0.001725   0.000000
     5  H   -0.004662   0.004261  -0.000337   0.001725  -0.005531   0.000000
     6  C   -0.000002   0.000000   0.000000   0.000000   0.000000   1.074759
     7  C   -0.000001   0.000000  -0.000000  -0.000000   0.000000  -0.051981
     8  H   -0.000000   0.000000   0.000000   0.000000   0.000000   0.006594
     9  H   -0.000000   0.000000   0.000000   0.000000   0.000000   0.006607
    10  H   -0.000000   0.000000   0.000000   0.000000  -0.000000  -0.027783
    11  H    0.000000  -0.000000  -0.000000  -0.000000  -0.000000  -0.009988
    12  H    0.000000  -0.000000  -0.000000  -0.000000  -0.000000  -0.009813
               7          8          9         10         11         12
     1  C   -0.000001  -0.000000  -0.000000  -0.000000   0.000000   0.000000
     2  O    0.000000   0.000000   0.000000   0.000000  -0.000000  -0.000000
     3  H   -0.000000   0.000000   0.000000   0.000000  -0.000000  -0.000000
     4  H   -0.000000   0.000000   0.000000   0.000000  -0.000000  -0.000000
     5  H    0.000000   0.000000   0.000000  -0.000000  -0.000000  -0.000000
     6  C   -0.051981   0.006594   0.006607  -0.027783  -0.009988  -0.009813
     7  C   -0.036175   0.005194   0.005184   0.020343   0.009064   0.008892
     8  H    0.005194  -0.035897   0.005886  -0.001050   0.000884   0.000011
     9  H    0.005184   0.005886  -0.035943  -0.001033   0.000010   0.000872
    10  H    0.020343  -0.001050  -0.001033   0.086674  -0.008215  -0.008126
    11  H    0.009064   0.000884   0.000010  -0.008215   0.020247   0.001661
    12  H    0.008892   0.000011   0.000872  -0.008126   0.001661   0.019909
 Mulliken charges and spin densities:
               1          2
     1  C   -0.254355   0.909276
     2  O   -0.222149   0.123873
     3  H    0.148580  -0.014328
     4  H    0.157797  -0.014275
     5  H    0.170126  -0.004545
     6  C   -0.470999   0.988394
     7  C   -0.357495  -0.039479
     8  H    0.171844  -0.018378
     9  H    0.171982  -0.018418
    10  H    0.175197   0.060810
    11  H    0.154631   0.013663
    12  H    0.154842   0.013407
 Sum of Mulliken charges =  -0.00000   2.00000
 Mulliken charges and spin densities with hydrogens summed into heavy atoms:
               1          2
     1  C    0.052022   0.880673
     2  O   -0.052023   0.119327
     6  C   -0.127174   0.951598
     7  C    0.127174   0.048401
 Electronic spatial extent (au):  <R**2>=           6461.2778
 Charge=             -0.0000 electrons
 Dipole moment (field-independent basis, Debye):
    X=             -1.3412    Y=              0.4507    Z=             -0.3815  Tot=              1.4654
 Quadrupole moment (field-independent basis, Debye-Ang):
   XX=            -24.3346   YY=            -28.3896   ZZ=            -24.1320
   XY=             -1.2574   XZ=             -2.6539   YZ=              2.5842
 Traceless Quadrupole moment (field-independent basis, Debye-Ang):
   XX=              1.2841   YY=             -2.7708   ZZ=              1.4867
   XY=             -1.2574   XZ=             -2.6539   YZ=              2.5842
 Octapole moment (field-independent basis, Debye-Ang**2):
  XXX=             73.5592  YYY=            387.9635  ZZZ=            158.9456  XYY=             35.5335
  XXY=            124.6171  XXZ=             57.6309  XZZ=             16.0582  YZZ=            105.0773
  YYZ=             38.1667  XYZ=             -2.0621
 Hexadecapole moment (field-independent basis, Debye-Ang**3):
 XXXX=           -311.2583 YYYY=          -7033.9386 ZZZZ=          -1865.2831 XXXY=           -659.4935
 XXXZ=           -334.0925 YYYX=           -813.6475 YYYZ=          -1614.9745 ZZZX=           -320.9102
 ZZZY=          -1593.8000 XXYY=          -1183.9512 XXZZ=           -361.7208 YYZZ=          -1282.1318
 XXYZ=           -563.7613 YYXZ=           -112.9221 ZZXY=           -195.9533
 N-N= 8.700764339329D+01 E-N=-6.267691965671D+02  KE= 1.929818753773D+02
                          Isotropic Fermi Contact Couplings
        Atom                 a.u.       MegaHertz       Gauss      10(-4) cm-1
     1  C(13)              0.06519      36.64445      13.07565      12.22327
     2  O(17)              0.02249      -6.81735      -2.43260      -2.27402
     3  H(1)              -0.01081     -24.16730      -8.62349      -8.06134
     4  H(1)              -0.00924     -20.64773      -7.36762      -6.88734
     5  H(1)              -0.00235      -5.26023      -1.87698      -1.75462
     6  C(13)              0.02158      12.13189       4.32896       4.04676
     7  C(13)             -0.02731     -15.34831      -5.47666      -5.11965
     8  H(1)              -0.01372     -30.67222     -10.94461     -10.23115
     9  H(1)              -0.01374     -30.70864     -10.95760     -10.24330
    10  H(1)               0.03214      71.83531      25.63262      23.96168
    11  H(1)               0.00799      17.84738       6.36839       5.95325
    12  H(1)               0.00785      17.53549       6.25710       5.84921
 --------------------------------------------------------
       Center         ----  Spin Dipole Couplings  ----
                      3XX-RR        3YY-RR        3ZZ-RR
 --------------------------------------------------------
     1   Atom       -0.449457      0.962871     -0.513414
     2   Atom       -0.393594      0.839239     -0.445645
     3   Atom        0.048081     -0.000542     -0.047539
     4   Atom        0.026245      0.011848     -0.038094
     5   Atom        0.022348     -0.014988     -0.007360
     6   Atom       -0.493597      0.927767     -0.434171
     7   Atom       -0.016713      0.006722      0.009991
     8   Atom        0.061713     -0.005229     -0.056483
     9   Atom       -0.003460      0.013085     -0.009624
    10   Atom       -0.010287     -0.004505      0.014791
    11   Atom       -0.007282     -0.004105      0.011387
    12   Atom        0.002721     -0.006993      0.004272
 --------------------------------------------------------
                        XY            XZ            YZ
 --------------------------------------------------------
     1   Atom        0.321835      0.037774      0.173422
     2   Atom        0.213521      0.013641      0.159125
     3   Atom        0.005828     -0.048847      0.009888
     4   Atom       -0.018047      0.056032     -0.014187
     5   Atom       -0.006982     -0.030915      0.007926
     6   Atom        0.310740      0.093140      0.439671
     7   Atom        0.005960     -0.004573      0.005146
     8   Atom        0.003084     -0.038574      0.024660
     9   Atom       -0.022076      0.069422     -0.013177
    10   Atom        0.000329     -0.003284      0.007230
    11   Atom       -0.001062      0.003915     -0.010331
    12   Atom        0.002930     -0.012512     -0.004479
 --------------------------------------------------------


 ---------------------------------------------------------------------------------
              Anisotropic Spin Dipole Couplings in Principal Axis System
 ---------------------------------------------------------------------------------

       Atom             a.u.   MegaHertz   Gauss  10(-4) cm-1        Axes

              Baa    -0.5335   -71.594   -25.547   -23.881 -0.0318 -0.1083  0.9936
     1 C(13)  Bbb    -0.5193   -69.690   -24.867   -23.246  0.9770 -0.2131  0.0081
              Bcc     1.0529   141.284    50.414    47.127  0.2108  0.9710  0.1126
 
              Baa    -0.4688    33.920    12.104    11.315  0.2886 -0.1619  0.9436
     2 O(17)  Bbb    -0.4253    30.775    10.981    10.266  0.9433 -0.1204 -0.3092
              Bcc     0.8941   -64.696   -23.085   -21.580  0.1637  0.9794  0.1180
 
              Baa    -0.0699   -37.319   -13.316   -12.448  0.3842 -0.1618  0.9090
     3 H(1)   Bbb     0.0013     0.687     0.245     0.229  0.0419  0.9866  0.1579
              Bcc     0.0687    36.632    13.071    12.219  0.9223  0.0225 -0.3858
 
              Baa    -0.0707   -37.705   -13.454   -12.577 -0.4944  0.0412  0.8683
     4 H(1)   Bbb     0.0028     1.471     0.525     0.491  0.3460  0.9257  0.1531
              Bcc     0.0679    36.234    12.929    12.086  0.7974 -0.3761  0.4718
 
              Baa    -0.0276   -14.730    -5.256    -4.914  0.4818 -0.2592  0.8371
     5 H(1)   Bbb    -0.0159    -8.505    -3.035    -2.837  0.2806  0.9506  0.1328
              Bcc     0.0435    23.236     8.291     7.751  0.8301 -0.1709 -0.5307
 
              Baa    -0.5642   -75.705   -27.013   -25.252 -0.2521 -0.2249  0.9412
     6 C(13)  Bbb    -0.5583   -74.922   -26.734   -24.991  0.9475 -0.2552  0.1929
              Bcc     1.1225   150.627    53.747    50.244  0.1968  0.9404  0.2774
 
              Baa    -0.0193    -2.584    -0.922    -0.862  0.9473 -0.2556  0.1931
     7 C(13)  Bbb     0.0055     0.738     0.263     0.246  0.3203  0.7685 -0.5539
              Bcc     0.0138     1.846     0.659     0.616 -0.0068  0.5866  0.8099
 
              Baa    -0.0764   -40.771   -14.548   -13.600  0.2610 -0.3261  0.9086
     8 H(1)   Bbb     0.0030     1.603     0.572     0.535  0.1455  0.9438  0.2969
              Bcc     0.0734    39.168    13.976    13.065  0.9543 -0.0547 -0.2938
 
              Baa    -0.0764   -40.774   -14.549   -13.601 -0.6984 -0.0673  0.7126
     9 H(1)   Bbb     0.0030     1.612     0.575     0.538  0.2320  0.9205  0.3144
              Bcc     0.0734    39.163    13.974    13.063  0.6771 -0.3849  0.6272
 
              Baa    -0.0110    -5.895    -2.103    -1.966  0.9458 -0.2610  0.1932
    10 H(1)   Bbb    -0.0065    -3.457    -1.233    -1.153  0.3063  0.9147 -0.2636
              Bcc     0.0175     9.352     3.337     3.119 -0.1079  0.3085  0.9451
 
              Baa    -0.0096    -5.142    -1.835    -1.715 -0.4152  0.7835  0.4623
    11 H(1)   Bbb    -0.0076    -4.035    -1.440    -1.346  0.8955  0.4416  0.0557
              Bcc     0.0172     9.177     3.275     3.061  0.1605 -0.4371  0.8850
 
              Baa    -0.0096    -5.126    -1.829    -1.710  0.5460  0.5172  0.6591
    12 H(1)   Bbb    -0.0076    -4.042    -1.442    -1.348 -0.5114  0.8289 -0.2268
              Bcc     0.0172     9.168     3.271     3.058 -0.6636 -0.2133  0.7171
 

 ---------------------------------------------------------------------------------


 Test job not archived.
 1\1\GINC-NODE-5-9\POpt\UwB97XD\Jun-CC-pVTZ\C3H8O1(3)\ROOT\12-Jun-2024\
 1\\# uwb97xd/jun-cc-pvtz opt=(noeig,intern,maxcyc=50) # int=ultrafine 
 nosym iop(7/33=1)\\geom 0\\0,3\C\O,1,R1\H,1,R2,2,A2\H,1,R3,2,A3,3,D3,0
 \H,2,R4,1,A4,3,D4,0\C,1,BB,2,ANG1,3,DH1,0\C,6,R21,1,ANG2,2,DH2,0\H,6,R
 22,7,A22,1,DH3,0\H,6,R23,7,A23,8,D23,0\H,7,R24,6,A24,8,D24,0\H,7,R25,6
 ,A25,10,D25,0\H,7,R26,6,A26,10,D26,0\\R1=1.35763493\R2=1.07784103\R3=1
 .0816024\R4=0.95731599\A2=113.98768077\A3=119.05718272\A4=109.89827164
 \D3=205.53120234\R21=1.48194599\R22=1.08033768\R23=1.08030688\R24=1.09
 867733\R25=1.0909711\R26=1.09090313\A22=120.88040166\A23=120.89376451\
 A24=111.65010377\A25=111.77426718\A26=111.77268707\D23=172.15845708\D2
 5=119.19373248\D26=240.7929815\ANG2=98.5949746\DH2=191.61532682\DH3=95
 .72200523\D4=175.42198095\D24=274.08028084\DH1=102.34343329\ANG1=112.5
 9879724\BB=10.\\Version=EM64L-G09RevD.01\HF=-194.2294979\S2=2.008768\S
 2-1=0.\S2A=2.000047\RMSD=5.694e-09\RMSF=1.954e-05\Dipole=-0.5276536,0.
 1773214,-0.150092\Quadrupole=0.9547201,-2.0600443,1.1053242,-0.9348159
 ,-1.9730829,1.9212944\PG=C01 [X(C3H8O1)]\\@


 ERWIN WITH HIS PSI CAN DO
 CALCULATIONS QUITE A FEW.
 BUT ONE THING HAS NOT BEEN SEEN
 JUST WHAT DOES PSI REALLY MEAN.
 -- WALTER HUCKEL, TRANS. BY FELIX BLOCH
 Job cpu time:       0 days  0 hours 45 minutes  7.3 seconds.
 File lengths (MBytes):  RWF=    113 Int=      0 D2E=      0 Chk=     10 Scr=      1
 Normal termination of Gaussian 09 at Wed Jun 12 17:07:20 2024.
 Initial command:
 /software/cinetica/g09d1/g09d01/d01/build-node-6-2-59348/src/main/l1.exe "/scratch/mdt/200674/Gau-32233.inp" -scrdir="/scratch/mdt/200674/"
 Entering Link 1 = /software/cinetica/g09d1/g09d01/d01/build-node-6-2-59348/src/main/l1.exe PID=      3601.
  
 Copyright (c) 1988,1990,1992,1993,1995,1998,2003,2009,2013,
            Gaussian, Inc.  All Rights Reserved.
  
 This is part of the Gaussian(R) 09 program.  It is based on
 the Gaussian(R) 03 system (copyright 2003, Gaussian, Inc.),
 the Gaussian(R) 98 system (copyright 1998, Gaussian, Inc.),
 the Gaussian(R) 94 system (copyright 1995, Gaussian, Inc.),
 the Gaussian 92(TM) system (copyright 1992, Gaussian, Inc.),
 the Gaussian 90(TM) system (copyright 1990, Gaussian, Inc.),
 the Gaussian 88(TM) system (copyright 1988, Gaussian, Inc.),
 the Gaussian 86(TM) system (copyright 1986, Carnegie Mellon
 University), and the Gaussian 82(TM) system (copyright 1983,
 Carnegie Mellon University). Gaussian is a federally registered
 trademark of Gaussian, Inc.
  
 This software contains proprietary and confidential information,
 including trade secrets, belonging to Gaussian, Inc.
  
 This software is provided under written license and may be
 used, copied, transmitted, or stored only in accord with that
 written license.
  
 The following legend is applicable only to US Government
 contracts under FAR:
  
                    RESTRICTED RIGHTS LEGEND
  
 Use, reproduction and disclosure by the US Government is
 subject to restrictions as set forth in subparagraphs (a)
 and (c) of the Commercial Computer Software - Restricted
 Rights clause in FAR 52.227-19.
  
 Gaussian, Inc.
 340 Quinnipiac St., Bldg. 40, Wallingford CT 06492
  
  
 ---------------------------------------------------------------
 Warning -- This program may not be used in any manner that
 competes with the business of Gaussian, Inc. or will provide
 assistance to any competitor of Gaussian, Inc.  The licensee
 of this program is prohibited from giving any competitor of
 Gaussian, Inc. access to this program.  By using this program,
 the user acknowledges that Gaussian, Inc. is engaged in the
 business of creating and licensing software in the field of
 computational chemistry and represents and warrants to the
 licensee that it is not a competitor of Gaussian, Inc. and that
 it will not use this program in any manner prohibited above.
 ---------------------------------------------------------------
  

 Cite this work as:
 Gaussian 09, Revision D.01,
 M. J. Frisch, G. W. Trucks, H. B. Schlegel, G. E. Scuseria, 
 M. A. Robb, J. R. Cheeseman, G. Scalmani, V. Barone, B. Mennucci, 
 G. A. Petersson, H. Nakatsuji, M. Caricato, X. Li, H. P. Hratchian, 
 A. F. Izmaylov, J. Bloino, G. Zheng, J. L. Sonnenberg, M. Hada, 
 M. Ehara, K. Toyota, R. Fukuda, J. Hasegawa, M. Ishida, T. Nakajima, 
 Y. Honda, O. Kitao, H. Nakai, T. Vreven, J. A. Montgomery, Jr., 
 J. E. Peralta, F. Ogliaro, M. Bearpark, J. J. Heyd, E. Brothers, 
 K. N. Kudin, V. N. Staroverov, T. Keith, R. Kobayashi, J. Normand, 
 K. Raghavachari, A. Rendell, J. C. Burant, S. S. Iyengar, J. Tomasi, 
 M. Cossi, N. Rega, J. M. Millam, M. Klene, J. E. Knox, J. B. Cross, 
 V. Bakken, C. Adamo, J. Jaramillo, R. Gomperts, R. E. Stratmann, 
 O. Yazyev, A. J. Austin, R. Cammi, C. Pomelli, J. W. Ochterski, 
 R. L. Martin, K. Morokuma, V. G. Zakrzewski, G. A. Voth, 
 P. Salvador, J. J. Dannenberg, S. Dapprich, A. D. Daniels, 
 O. Farkas, J. B. Foresman, J. V. Ortiz, J. Cioslowski, 
 and D. J. Fox, Gaussian, Inc., Wallingford CT, 2013.
 
 ******************************************
 Gaussian 09:  EM64L-G09RevD.01 24-Apr-2013
                12-Jun-2024 
 ******************************************
 %mem=400MW
 %chk=tmp
 %NProcShared= 32
 Will use up to   32 processors via shared memory.
 ----------------------------------------------------------------------
 # uwb97xd/jun-cc-pvtz # int=ultrafine nosym freq iop(7/33=1) #guess=re
 ad geom=allcheck
 ----------------------------------------------------------------------
 1/10=4,29=7,30=1,38=1/1,3;
 2/12=2,15=1,40=1/2;
 3/5=16,6=1,7=60,11=2,14=-4,16=1,25=1,30=1,71=2,74=-58,75=-5,116=2,140=1/1,2,3;
 4/5=1/1;
 5/5=2,38=6,98=1/2;
 8/6=4,10=90,11=11/1;
 11/6=1,8=1,9=11,15=111,16=1,31=1/1,2,10;
 10/6=1,31=1/2;
 6/7=2,8=2,9=2,10=2,18=1,28=1/1;
 7/8=1,10=1,25=1,30=1,33=1/1,2,3,16;
 1/10=4,30=1/3;
 99//99;
 Structure from the checkpoint file:  "tmp.chk"
 ------
 geom 0
 ------
 Charge =  0 Multiplicity = 3
 Z-Matrix found in file.
 C
 O,1,R1
 H,1,R2,2,A2
 H,1,R3,2,A3,3,D3,0
 H,2,R4,1,A4,3,D4,0
 C,1,BB,2,ANG1,3,DH1,0
 C,6,R21,1,ANG2,2,DH2,0
 H,6,R22,7,A22,1,DH3,0
 H,6,R23,7,A23,8,D23,0
 H,7,R24,6,A24,8,D24,0
 H,7,R25,6,A25,10,D25,0
 H,7,R26,6,A26,10,D26,0
      Variables:
 R1=1.35763493
 R2=1.07784103
 R3=1.0816024
 R4=0.95731599
 A2=113.98768077
 A3=119.05718272
 A4=109.89827164
 D3=205.53120234
 R21=1.48194599
 R22=1.08033768
 R23=1.08030688
 R24=1.09867733
 R25=1.0909711
 R26=1.09090313
 A22=120.88040166
 A23=120.89376451
 A24=111.65010377
 A25=111.77426718
 A26=111.77268707
 D23=172.15845708
 D25=119.19373248
 D26=240.7929815
 ANG2=98.5949746
 DH2=191.61532682
 DH3=95.72200523
 D4=175.42198095
 D24=274.08028084
 DH1=102.34343329
 ANG1=112.59879724
      Constants:
 BB=10.
 Recover connectivity data from disk.

 GradGradGradGradGradGradGradGradGradGradGradGradGradGradGradGradGradGrad
 Berny optimization.
 Initialization pass.
                       ----------------------------
                       !    Initial Parameters    !
                       ! (Angstroms and Degrees)  !
 ----------------------                            ----------------------
 !      Name          Value   Derivative information (Atomic Units)     !
 ------------------------------------------------------------------------
 !       R1          1.3576   calculate D2E/DX2 analytically            !
 !       R2          1.0778   calculate D2E/DX2 analytically            !
 !       R3          1.0816   calculate D2E/DX2 analytically            !
 !       R4          0.9573   calculate D2E/DX2 analytically            !
 !       A2        113.9877   calculate D2E/DX2 analytically            !
 !       A3        119.0572   calculate D2E/DX2 analytically            !
 !       A4        109.8983   calculate D2E/DX2 analytically            !
 !       D3        205.5312   calculate D2E/DX2 analytically            !
 !       R21         1.4819   calculate D2E/DX2 analytically            !
 !       R22         1.0803   calculate D2E/DX2 analytically            !
 !       R23         1.0803   calculate D2E/DX2 analytically            !
 !       R24         1.0987   calculate D2E/DX2 analytically            !
 !       R25         1.091    calculate D2E/DX2 analytically            !
 !       R26         1.0909   calculate D2E/DX2 analytically            !
 !       A22       120.8804   calculate D2E/DX2 analytically            !
 !       A23       120.8938   calculate D2E/DX2 analytically            !
 !       A24       111.6501   calculate D2E/DX2 analytically            !
 !       A25       111.7743   calculate D2E/DX2 analytically            !
 !       A26       111.7727   calculate D2E/DX2 analytically            !
 !       D23       172.1585   calculate D2E/DX2 analytically            !
 !       D25       119.1937   calculate D2E/DX2 analytically            !
 !       D26       240.793    calculate D2E/DX2 analytically            !
 !      ANG2        98.595    calculate D2E/DX2 analytically            !
 !       DH2       191.6153   calculate D2E/DX2 analytically            !
 !       DH3        95.722    calculate D2E/DX2 analytically            !
 !       D4        175.422    calculate D2E/DX2 analytically            !
 !       D24       274.0803   calculate D2E/DX2 analytically            !
 !       DH1       102.3434   calculate D2E/DX2 analytically            !
 !      ANG1       112.5988   calculate D2E/DX2 analytically            !
 !       BB          10.0     frozen, calculate D2E/DX2 analytically    !
 ------------------------------------------------------------------------
 Trust Radius=3.00D-01 FncErr=1.00D-07 GrdErr=1.00D-07
 Number of steps in this run=      2 maximum allowed number of steps=      2.
 GradGradGradGradGradGradGradGradGradGradGradGradGradGradGradGradGradGrad

                          Input orientation:                          
 ---------------------------------------------------------------------
 Center     Atomic      Atomic             Coordinates (Angstroms)
 Number     Number       Type             X           Y           Z
 ---------------------------------------------------------------------
      1          6           0        0.000000    0.000000    0.000000
      2          8           0        0.000000    0.000000    1.357635
      3          1           0        0.984751    0.000000   -0.438186
      4          1           0       -0.853143    0.407499   -0.525315
      5          1           0       -0.897291    0.071848    1.683459
      6          6           0       -1.973573   -9.018770   -3.842759
      7          6           0       -1.611173   -8.742781   -5.252958
      8          1           0       -2.998564   -8.946045   -3.509242
      9          1           0       -1.246197   -9.418309   -3.151126
     10          1           0       -1.726008   -9.635410   -5.883131
     11          1           0       -2.245994   -7.970801   -5.690300
     12          1           0       -0.571467   -8.426828   -5.349165
 ---------------------------------------------------------------------
                    Distance matrix (angstroms):
                    1          2          3          4          5
     1  C    0.000000
     2  O    1.357635   0.000000
     3  H    1.077841   2.048098   0.000000
     4  H    1.081602   2.106990   1.884542   0.000000
     5  H    1.909012   0.957316   2.837009   2.234567   0.000000
     6  C   10.000000  10.596098  10.083700  10.055612  10.692839
     7  C   10.325970  11.078449  10.312956  10.327286  11.239269
     8  H   10.066672  10.616478  10.263036  10.049648  10.616114
     9  H   10.009353  10.516011  10.051951  10.178206  10.656361
    10  H   11.420659  12.175751  11.394594  11.416133  12.335757
    11  H   10.047770  10.874353  10.077504   9.940473  10.994340
    12  H    9.997579  10.785137   9.876789  10.069469  11.035916
                    6          7          8          9         10
     6  C    0.000000
     7  C    1.481946   0.000000
     8  H    1.080338   2.237569   0.000000
     9  H    1.080307   2.237687   1.849884   0.000000
    10  H    2.145845   1.098677   2.780282   2.782301   0.000000
    11  H    2.141462   1.090971   2.504890   3.089057   1.754563
    12  H    2.141390   1.090903   3.089612   2.503931   1.754638
                   11         12
    11  H    0.000000
    12  H    1.768721   0.000000
 Symmetry turned off by external request.
 Stoichiometry    C3H8O(3)
 Framework group  C1[X(C3H8O)]
 Deg. of freedom    30
 Full point group                 C1      NOp   1
 Rotational constants (GHZ):     13.3792981      0.3030482      0.2984133
 Standard basis: Jun-CC-pVTZ (5D, 7F)
   268 basis functions,   384 primitive gaussians,   300 cartesian basis functions
    18 alpha electrons       16 beta electrons
       nuclear repulsion energy        87.0093931691 Hartrees.
 NAtoms=   12 NActive=   12 NUniq=   12 SFac= 1.00D+00 NAtFMM=   60 NAOKFM=F Big=F
 Integral buffers will be    131072 words long.
 Raffenetti 2 integral format.
 Two-electron integral symmetry is turned off.
 Nuclear repulsion after empirical dispersion term =       87.0076433933 Hartrees.
 One-electron integrals computed using PRISM.
 NBasis=   268 RedAO= T EigKep=  1.13D-04  NBF=   268
 NBsUse=   268 1.00D-06 EigRej= -1.00D+00 NBFU=   268
 Initial guess from the checkpoint file:  "tmp.chk"
 B after Tr=     0.000000    0.000000    0.000000
         Rot=    1.000000    0.000000    0.000000    0.000000 Ang=   0.00 deg.
 Initial guess <Sx>= 0.0000 <Sy>= 0.0000 <Sz>= 1.0000 <S**2>= 2.0088 S= 1.0029
 Requested convergence on RMS density matrix=1.00D-08 within 128 cycles.
 Requested convergence on MAX density matrix=1.00D-06.
 Requested convergence on             energy=1.00D-06.
 No special actions if energy rises.
 SCF Done:  E(UwB97XD) =  -194.229497853     A.U. after    1 cycles
            NFock=  1  Conv=0.16D-08     -V/T= 2.0065
 <Sx>= 0.0000 <Sy>= 0.0000 <Sz>= 1.0000 <S**2>= 2.0088 S= 1.0029
 <L.S>=  0.00000000000    
 Annihilation of the first spin contaminant:
 S**2 before annihilation     2.0088,   after     2.0000
 DoSCS=F DFT=T ScalE2(SS,OS)=  1.000000  1.000000
 Range of M.O.s used for correlation:     1   268
 NBasis=   268 NAE=    18 NBE=    16 NFC=     0 NFV=     0
 NROrb=    268 NOA=    18 NOB=    16 NVA=   250 NVB=   252

 **** Warning!!: The largest alpha MO coefficient is  0.28414873D+02


 **** Warning!!: The largest beta MO coefficient is  0.28788400D+02

 Symmetrizing basis deriv contribution to polar:
 IMax=3 JMax=2 DiffMx= 0.00D+00
 G2DrvN: will do    13 centers at a time, making    1 passes.
 Calling FoFCou, ICntrl=  3107 FMM=F I1Cent=   0 AccDes= 0.00D+00.
 End of G2Drv F.D. properties file   721 does not exist.
 End of G2Drv F.D. properties file   722 does not exist.
 End of G2Drv F.D. properties file   788 does not exist.
          IDoAtm=111111111111
          Differentiating once with respect to electric field.
                with respect to dipole field.
          Differentiating once with respect to nuclear coordinates.
          There are    39 degrees of freedom in the 1st order CPHF.  IDoFFX=6 NUNeed=     3.
     36 vectors produced by pass  0 Test12= 2.19D-14 2.56D-09 XBig12= 3.57D+01 1.58D+00.
 AX will form    36 AO Fock derivatives at one time.
     36 vectors produced by pass  1 Test12= 2.19D-14 2.56D-09 XBig12= 2.44D+00 5.47D-01.
     36 vectors produced by pass  2 Test12= 2.19D-14 2.56D-09 XBig12= 7.59D-02 7.52D-02.
     36 vectors produced by pass  3 Test12= 2.19D-14 2.56D-09 XBig12= 1.57D-03 5.89D-03.
     35 vectors produced by pass  4 Test12= 2.19D-14 2.56D-09 XBig12= 1.58D-05 5.44D-04.
     33 vectors produced by pass  5 Test12= 2.19D-14 2.56D-09 XBig12= 1.73D-07 6.32D-05.
     33 vectors produced by pass  6 Test12= 2.19D-14 2.56D-09 XBig12= 1.86D-09 6.06D-06.
     19 vectors produced by pass  7 Test12= 2.19D-14 2.56D-09 XBig12= 1.53D-11 5.81D-07.
      3 vectors produced by pass  8 Test12= 2.19D-14 2.56D-09 XBig12= 1.35D-13 4.68D-08.
      2 vectors produced by pass  9 Test12= 2.19D-14 2.56D-09 XBig12= 1.06D-15 3.44D-09.
 InvSVY:  IOpt=1 It=  1 EMax= 6.22D-15
 Solved reduced A of dimension   269 with    39 vectors.
 Isotropic polarizability for W=    0.000000       48.93 Bohr**3.
 End of Minotr F.D. properties file   721 does not exist.
 End of Minotr F.D. properties file   722 does not exist.
 End of Minotr F.D. properties file   788 does not exist.

 **********************************************************************

            Population analysis using the SCF density.

 **********************************************************************

 Alpha  occ. eigenvalues --  -19.29270 -10.32982 -10.28899 -10.27934  -1.16961
 Alpha  occ. eigenvalues --   -0.85847  -0.77465  -0.70470  -0.62638  -0.54631
 Alpha  occ. eigenvalues --   -0.54065  -0.50120  -0.49676  -0.47805  -0.44752
 Alpha  occ. eigenvalues --   -0.44059  -0.28233  -0.25952
 Alpha virt. eigenvalues --    0.05431   0.05806   0.06799   0.07175   0.08021
 Alpha virt. eigenvalues --    0.08212   0.08322   0.09637   0.11024   0.11415
 Alpha virt. eigenvalues --    0.11691   0.16243   0.16930   0.18072   0.19568
 Alpha virt. eigenvalues --    0.20059   0.20657   0.20818   0.21854   0.24812
 Alpha virt. eigenvalues --    0.25346   0.25618   0.26886   0.27656   0.29171
 Alpha virt. eigenvalues --    0.29304   0.30587   0.31071   0.31221   0.31987
 Alpha virt. eigenvalues --    0.32195   0.34437   0.34808   0.34907   0.37153
 Alpha virt. eigenvalues --    0.38335   0.38705   0.40529   0.43982   0.45005
 Alpha virt. eigenvalues --    0.46239   0.49913   0.52478   0.54535   0.55375
 Alpha virt. eigenvalues --    0.57085   0.57815   0.59493   0.60320   0.62180
 Alpha virt. eigenvalues --    0.63582   0.64312   0.64997   0.65228   0.65324
 Alpha virt. eigenvalues --    0.67648   0.69800   0.70324   0.72844   0.74074
 Alpha virt. eigenvalues --    0.74130   0.75337   0.75691   0.83493   0.84196
 Alpha virt. eigenvalues --    0.85027   0.87704   0.89670   0.90074   0.94094
 Alpha virt. eigenvalues --    0.96437   0.97486   0.98683   0.99627   1.00559
 Alpha virt. eigenvalues --    1.04905   1.05104   1.06496   1.10388   1.15420
 Alpha virt. eigenvalues --    1.16072   1.16926   1.17325   1.17940   1.18129
 Alpha virt. eigenvalues --    1.23051   1.23809   1.25367   1.29083   1.29549
 Alpha virt. eigenvalues --    1.34737   1.36291   1.39407   1.39444   1.40115
 Alpha virt. eigenvalues --    1.41688   1.45781   1.46692   1.48060   1.49644
 Alpha virt. eigenvalues --    1.54587   1.56044   1.57049   1.59375   1.64057
 Alpha virt. eigenvalues --    1.67186   1.72340   1.78955   1.84211   1.96110
 Alpha virt. eigenvalues --    2.04548   2.07012   2.23256   2.24529   2.33449
 Alpha virt. eigenvalues --    2.35559   2.41663   2.46297   2.48478   2.48844
 Alpha virt. eigenvalues --    2.53177   2.57106   2.58489   2.59928   2.60888
 Alpha virt. eigenvalues --    2.67549   2.74258   2.77644   2.82349   2.83694
 Alpha virt. eigenvalues --    2.84555   2.89247   2.89688   2.90506   2.93324
 Alpha virt. eigenvalues --    2.97091   2.98930   3.01412   3.03457   3.05662
 Alpha virt. eigenvalues --    3.06807   3.07319   3.08613   3.10697   3.11782
 Alpha virt. eigenvalues --    3.13076   3.14335   3.18245   3.19208   3.20364
 Alpha virt. eigenvalues --    3.20698   3.22230   3.24215   3.26956   3.30540
 Alpha virt. eigenvalues --    3.39415   3.41480   3.42131   3.42653   3.48041
 Alpha virt. eigenvalues --    3.49965   3.50400   3.51467   3.51733   3.54056
 Alpha virt. eigenvalues --    3.55470   3.55898   3.59865   3.67348   3.70411
 Alpha virt. eigenvalues --    3.75574   3.78256   3.82793   3.83167   3.85659
 Alpha virt. eigenvalues --    3.86649   3.90937   3.94784   3.96085   3.98079
 Alpha virt. eigenvalues --    3.99213   4.00596   4.00821   4.02907   4.05293
 Alpha virt. eigenvalues --    4.07857   4.08214   4.08899   4.09565   4.12801
 Alpha virt. eigenvalues --    4.14796   4.17417   4.21029   4.27640   4.30442
 Alpha virt. eigenvalues --    4.32517   4.32924   4.32955   4.35865   4.36596
 Alpha virt. eigenvalues --    4.44865   4.58264   4.59554   4.73098   4.73217
 Alpha virt. eigenvalues --    4.78265   4.83414   4.85478   4.87944   4.91266
 Alpha virt. eigenvalues --    4.93300   4.95392   4.98598   4.99601   5.00259
 Alpha virt. eigenvalues --    5.04614   5.13922   5.16131   5.21273   5.25285
 Alpha virt. eigenvalues --    5.26926   5.34204   5.39881   5.40918   5.44383
 Alpha virt. eigenvalues --    5.47767   5.48648   5.62080   5.67915   5.68654
 Alpha virt. eigenvalues --    5.76353   5.82672   5.99642   6.00441   6.14731
 Alpha virt. eigenvalues --    6.15470   6.23180   6.52792   6.64360   6.72370
 Alpha virt. eigenvalues --    6.81716   6.90446   6.92034   7.14351   7.31881
 Alpha virt. eigenvalues --    7.60996  12.56093  12.63659  12.74125  13.49258
  Beta  occ. eigenvalues --  -19.28808 -10.31917 -10.28006 -10.27784  -1.15661
  Beta  occ. eigenvalues --   -0.83985  -0.74553  -0.67719  -0.61383  -0.53561
  Beta  occ. eigenvalues --   -0.53291  -0.48394  -0.46802  -0.45480  -0.43587
  Beta  occ. eigenvalues --   -0.43503
  Beta virt. eigenvalues --    0.01832   0.03575   0.05901   0.06351   0.07717
  Beta virt. eigenvalues --    0.08474   0.08733   0.09108   0.09582   0.11591
  Beta virt. eigenvalues --    0.11878   0.12965   0.14779   0.16692   0.17204
  Beta virt. eigenvalues --    0.18764   0.20342   0.20832   0.20954   0.21161
  Beta virt. eigenvalues --    0.22973   0.25496   0.26016   0.26473   0.27090
  Beta virt. eigenvalues --    0.27976   0.29516   0.29609   0.31046   0.31185
  Beta virt. eigenvalues --    0.31235   0.32291   0.32488   0.34591   0.34955
  Beta virt. eigenvalues --    0.35058   0.38260   0.38915   0.40227   0.41450
  Beta virt. eigenvalues --    0.45280   0.46196   0.46210   0.52432   0.52795
  Beta virt. eigenvalues --    0.54667   0.55742   0.57802   0.58731   0.60463
  Beta virt. eigenvalues --    0.60651   0.62762   0.64095   0.64544   0.65268
  Beta virt. eigenvalues --    0.65542   0.67422   0.67904   0.69905   0.70530
  Beta virt. eigenvalues --    0.73608   0.74087   0.74815   0.75757   0.76458
  Beta virt. eigenvalues --    0.84264   0.85682   0.86102   0.88088   0.90211
  Beta virt. eigenvalues --    0.91362   0.95508   0.96614   0.98082   0.98828
  Beta virt. eigenvalues --    1.00708   1.00820   1.05330   1.05871   1.07050
  Beta virt. eigenvalues --    1.11132   1.16271   1.16337   1.18018   1.18214
  Beta virt. eigenvalues --    1.18431   1.18838   1.23180   1.24616   1.25944
  Beta virt. eigenvalues --    1.29919   1.30248   1.35235   1.36421   1.40039
  Beta virt. eigenvalues --    1.40128   1.40554   1.41828   1.46055   1.47265
  Beta virt. eigenvalues --    1.48467   1.50239   1.55190   1.56727   1.57681
  Beta virt. eigenvalues --    1.60113   1.64912   1.67856   1.72534   1.79673
  Beta virt. eigenvalues --    1.84879   1.96967   2.05891   2.07644   2.23742
  Beta virt. eigenvalues --    2.30028   2.37245   2.39832   2.42588   2.47834
  Beta virt. eigenvalues --    2.49218   2.49597   2.55282   2.58565   2.59100
  Beta virt. eigenvalues --    2.61599   2.63879   2.69413   2.75276   2.78623
  Beta virt. eigenvalues --    2.83054   2.86069   2.86934   2.89920   2.91849
  Beta virt. eigenvalues --    2.92247   2.95847   2.99415   3.00658   3.02425
  Beta virt. eigenvalues --    3.06230   3.07590   3.08077   3.09689   3.10713
  Beta virt. eigenvalues --    3.12911   3.14049   3.14321   3.15651   3.18960
  Beta virt. eigenvalues --    3.21943   3.22190   3.23281   3.24565   3.24679
  Beta virt. eigenvalues --    3.31478   3.33309   3.39737   3.42139   3.42564
  Beta virt. eigenvalues --    3.43629   3.49106   3.51174   3.51428   3.51712
  Beta virt. eigenvalues --    3.53616   3.54628   3.56144   3.56534   3.60181
  Beta virt. eigenvalues --    3.68067   3.71723   3.76635   3.78757   3.83496
  Beta virt. eigenvalues --    3.83512   3.86005   3.87579   3.91698   3.95397
  Beta virt. eigenvalues --    3.96328   3.98861   3.99701   4.01032   4.01097
  Beta virt. eigenvalues --    4.03488   4.05528   4.07995   4.08714   4.09328
  Beta virt. eigenvalues --    4.10183   4.13281   4.15540   4.18530   4.21433
  Beta virt. eigenvalues --    4.28129   4.31036   4.32910   4.33620   4.33660
  Beta virt. eigenvalues --    4.35974   4.37757   4.45371   4.58562   4.60934
  Beta virt. eigenvalues --    4.73892   4.74002   4.79130   4.84952   4.86625
  Beta virt. eigenvalues --    4.88549   4.91709   4.94411   4.95900   4.99194
  Beta virt. eigenvalues --    5.01943   5.02322   5.05576   5.14690   5.17179
  Beta virt. eigenvalues --    5.21825   5.26194   5.27594   5.34742   5.40749
  Beta virt. eigenvalues --    5.41823   5.45307   5.48087   5.48899   5.62679
  Beta virt. eigenvalues --    5.68882   5.69429   5.76873   5.83562   6.01176
  Beta virt. eigenvalues --    6.01194   6.15047   6.15661   6.24117   6.53830
  Beta virt. eigenvalues --    6.65748   6.73560   6.82276   6.91222   6.93559
  Beta virt. eigenvalues --    7.15022   7.32416   7.61538  12.58384  12.65538
  Beta virt. eigenvalues --   12.75251  13.49500
          Condensed to atoms (all electrons):
               1          2          3          4          5          6
     1  C    5.267240   0.140956   0.420734   0.417547   0.007881  -0.000002
     2  O    0.140956   7.938380  -0.048926  -0.023712   0.215452   0.000000
     3  H    0.420734  -0.048926   0.500028  -0.027312   0.006897   0.000000
     4  H    0.417547  -0.023712  -0.027312   0.490453  -0.014772   0.000000
     5  H    0.007881   0.215452   0.006897  -0.014772   0.614415  -0.000000
     6  C   -0.000002   0.000000   0.000000   0.000000  -0.000000   5.452242
     7  C   -0.000001   0.000000   0.000000  -0.000000   0.000000   0.265797
     8  H   -0.000000   0.000000  -0.000000   0.000000  -0.000000   0.423432
     9  H   -0.000000   0.000000   0.000000  -0.000000   0.000000   0.423631
    10  H   -0.000000   0.000000   0.000000   0.000000   0.000000  -0.033125
    11  H    0.000000  -0.000000  -0.000000  -0.000000  -0.000000  -0.030501
    12  H    0.000000  -0.000000  -0.000000  -0.000000  -0.000000  -0.030475
               7          8          9         10         11         12
     1  C   -0.000001  -0.000000  -0.000000  -0.000000   0.000000   0.000000
     2  O    0.000000   0.000000   0.000000   0.000000  -0.000000  -0.000000
     3  H    0.000000  -0.000000   0.000000   0.000000  -0.000000  -0.000000
     4  H   -0.000000   0.000000  -0.000000   0.000000  -0.000000  -0.000000
     5  H    0.000000  -0.000000   0.000000   0.000000  -0.000000  -0.000000
     6  C    0.265797   0.423432   0.423631  -0.033125  -0.030501  -0.030475
     7  C    4.933423  -0.030285  -0.030324   0.394837   0.411932   0.412116
     8  H   -0.030285   0.466671  -0.027530  -0.001565  -0.006065   0.003498
     9  H   -0.030324  -0.027530   0.466331  -0.001507   0.003487  -0.006069
    10  H    0.394837  -0.001565  -0.001507   0.500885  -0.017374  -0.017349
    11  H    0.411932  -0.006065   0.003487  -0.017374   0.501191  -0.017300
    12  H    0.412116   0.003498  -0.006069  -0.017349  -0.017300   0.500737
          Atomic-Atomic Spin Densities.
               1          2          3          4          5          6
     1  C    1.074774  -0.167015   0.003521   0.002661  -0.004662  -0.000002
     2  O   -0.167015   0.285720   0.001851  -0.000945   0.004261   0.000000
     3  H    0.003521   0.001851  -0.026650   0.007287  -0.000337   0.000000
     4  H    0.002661  -0.000945   0.007287  -0.025002   0.001725   0.000000
     5  H   -0.004662   0.004261  -0.000337   0.001725  -0.005531   0.000000
     6  C   -0.000002   0.000000   0.000000   0.000000   0.000000   1.074759
     7  C   -0.000001   0.000000  -0.000000  -0.000000   0.000000  -0.051981
     8  H   -0.000000   0.000000   0.000000   0.000000   0.000000   0.006594
     9  H   -0.000000   0.000000   0.000000   0.000000   0.000000   0.006607
    10  H   -0.000000   0.000000   0.000000   0.000000  -0.000000  -0.027783
    11  H    0.000000  -0.000000  -0.000000  -0.000000  -0.000000  -0.009988
    12  H    0.000000  -0.000000  -0.000000  -0.000000  -0.000000  -0.009813
               7          8          9         10         11         12
     1  C   -0.000001  -0.000000  -0.000000  -0.000000   0.000000   0.000000
     2  O    0.000000   0.000000   0.000000   0.000000  -0.000000  -0.000000
     3  H   -0.000000   0.000000   0.000000   0.000000  -0.000000  -0.000000
     4  H   -0.000000   0.000000   0.000000   0.000000  -0.000000  -0.000000
     5  H    0.000000   0.000000   0.000000  -0.000000  -0.000000  -0.000000
     6  C   -0.051981   0.006594   0.006607  -0.027783  -0.009988  -0.009813
     7  C   -0.036175   0.005194   0.005184   0.020343   0.009064   0.008892
     8  H    0.005194  -0.035897   0.005886  -0.001050   0.000884   0.000011
     9  H    0.005184   0.005886  -0.035943  -0.001033   0.000010   0.000872
    10  H    0.020343  -0.001050  -0.001033   0.086674  -0.008215  -0.008126
    11  H    0.009064   0.000884   0.000010  -0.008215   0.020247   0.001661
    12  H    0.008892   0.000011   0.000872  -0.008126   0.001661   0.019909
 Mulliken charges and spin densities:
               1          2
     1  C   -0.254355   0.909276
     2  O   -0.222149   0.123873
     3  H    0.148580  -0.014328
     4  H    0.157797  -0.014275
     5  H    0.170126  -0.004545
     6  C   -0.470999   0.988394
     7  C   -0.357495  -0.039479
     8  H    0.171844  -0.018378
     9  H    0.171982  -0.018418
    10  H    0.175197   0.060810
    11  H    0.154631   0.013663
    12  H    0.154842   0.013407
 Sum of Mulliken charges =  -0.00000   2.00000
 Mulliken charges and spin densities with hydrogens summed into heavy atoms:
               1          2
     1  C    0.052022   0.880673
     2  O   -0.052023   0.119327
     6  C   -0.127174   0.951598
     7  C    0.127174   0.048401
 APT charges:
               1
     1  C    0.237474
     2  O   -0.582523
     3  H    0.043220
     4  H    0.023703
     5  H    0.278144
     6  C   -0.052520
     7  C    0.051326
     8  H    0.016235
     9  H    0.016058
    10  H   -0.012271
    11  H   -0.009565
    12  H   -0.009282
 Sum of APT charges =  -0.00000
 APT charges with hydrogens summed into heavy atoms:
               1
     1  C    0.304397
     2  O   -0.304379
     6  C   -0.020226
     7  C    0.020208
 Electronic spatial extent (au):  <R**2>=           6461.2777
 Charge=             -0.0000 electrons
 Dipole moment (field-independent basis, Debye):
    X=             -1.3412    Y=              0.4507    Z=             -0.3815  Tot=              1.4654
 Quadrupole moment (field-independent basis, Debye-Ang):
   XX=            -24.3346   YY=            -28.3895   ZZ=            -24.1320
   XY=             -1.2574   XZ=             -2.6539   YZ=              2.5842
 Traceless Quadrupole moment (field-independent basis, Debye-Ang):
   XX=              1.2841   YY=             -2.7708   ZZ=              1.4867
   XY=             -1.2574   XZ=             -2.6539   YZ=              2.5842
 Octapole moment (field-independent basis, Debye-Ang**2):
  XXX=             73.5592  YYY=            387.9633  ZZZ=            158.9456  XYY=             35.5334
  XXY=            124.6171  XXZ=             57.6309  XZZ=             16.0582  YZZ=            105.0773
  YYZ=             38.1666  XYZ=             -2.0622
 Hexadecapole moment (field-independent basis, Debye-Ang**3):
 XXXX=           -311.2583 YYYY=          -7033.9366 ZZZZ=          -1865.2831 XXXY=           -659.4935
 XXXZ=           -334.0924 YYYX=           -813.6470 YYYZ=          -1614.9740 ZZZX=           -320.9102
 ZZZY=          -1593.7999 XXYY=          -1183.9511 XXZZ=           -361.7208 YYZZ=          -1282.1317
 XXYZ=           -563.7612 YYXZ=           -112.9220 ZZXY=           -195.9533
 N-N= 8.700764339329D+01 E-N=-6.267691971948D+02  KE= 1.929818756442D+02
  Exact polarizability:  46.223   0.178  45.811  -1.872  -0.238  54.769
 Approx polarizability:  45.914  -0.452  42.836  -1.066  -0.237  49.919
                          Isotropic Fermi Contact Couplings
        Atom                 a.u.       MegaHertz       Gauss      10(-4) cm-1
     1  C(13)              0.06519      36.64444      13.07565      12.22327
     2  O(17)              0.02249      -6.81736      -2.43260      -2.27403
     3  H(1)              -0.01081     -24.16731      -8.62350      -8.06135
     4  H(1)              -0.00924     -20.64772      -7.36762      -6.88734
     5  H(1)              -0.00235      -5.26023      -1.87698      -1.75463
     6  C(13)              0.02158      12.13188       4.32896       4.04676
     7  C(13)             -0.02731     -15.34830      -5.47665      -5.11964
     8  H(1)              -0.01372     -30.67222     -10.94461     -10.23115
     9  H(1)              -0.01374     -30.70864     -10.95761     -10.24330
    10  H(1)               0.03214      71.83529      25.63262      23.96167
    11  H(1)               0.00799      17.84738       6.36839       5.95325
    12  H(1)               0.00785      17.53548       6.25710       5.84921
 --------------------------------------------------------
       Center         ----  Spin Dipole Couplings  ----
                      3XX-RR        3YY-RR        3ZZ-RR
 --------------------------------------------------------
     1   Atom       -0.449457      0.962872     -0.513414
     2   Atom       -0.393594      0.839240     -0.445645
     3   Atom        0.048081     -0.000542     -0.047539
     4   Atom        0.026245      0.011848     -0.038094
     5   Atom        0.022348     -0.014988     -0.007360
     6   Atom       -0.493596      0.927767     -0.434171
     7   Atom       -0.016713      0.006722      0.009991
     8   Atom        0.061713     -0.005229     -0.056483
     9   Atom       -0.003460      0.013085     -0.009624
    10   Atom       -0.010287     -0.004505      0.014791
    11   Atom       -0.007282     -0.004105      0.011387
    12   Atom        0.002721     -0.006993      0.004272
 --------------------------------------------------------
                        XY            XZ            YZ
 --------------------------------------------------------
     1   Atom        0.321835      0.037774      0.173421
     2   Atom        0.213521      0.013641      0.159125
     3   Atom        0.005828     -0.048847      0.009888
     4   Atom       -0.018047      0.056032     -0.014187
     5   Atom       -0.006982     -0.030915      0.007926
     6   Atom        0.310740      0.093140      0.439671
     7   Atom        0.005960     -0.004573      0.005146
     8   Atom        0.003084     -0.038574      0.024660
     9   Atom       -0.022076      0.069422     -0.013177
    10   Atom        0.000329     -0.003284      0.007230
    11   Atom       -0.001062      0.003915     -0.010331
    12   Atom        0.002930     -0.012512     -0.004479
 --------------------------------------------------------


 ---------------------------------------------------------------------------------
              Anisotropic Spin Dipole Couplings in Principal Axis System
 ---------------------------------------------------------------------------------

       Atom             a.u.   MegaHertz   Gauss  10(-4) cm-1        Axes

              Baa    -0.5335   -71.594   -25.547   -23.881 -0.0318 -0.1083  0.9936
     1 C(13)  Bbb    -0.5193   -69.690   -24.867   -23.246  0.9770 -0.2131  0.0081
              Bcc     1.0529   141.284    50.414    47.127  0.2108  0.9710  0.1126
 
              Baa    -0.4688    33.920    12.104    11.315  0.2886 -0.1619  0.9436
     2 O(17)  Bbb    -0.4253    30.775    10.981    10.266  0.9433 -0.1204 -0.3092
              Bcc     0.8941   -64.696   -23.085   -21.580  0.1637  0.9794  0.1180
 
              Baa    -0.0699   -37.319   -13.316   -12.448  0.3842 -0.1618  0.9090
     3 H(1)   Bbb     0.0013     0.687     0.245     0.229  0.0419  0.9866  0.1579
              Bcc     0.0687    36.632    13.071    12.219  0.9223  0.0225 -0.3858
 
              Baa    -0.0707   -37.705   -13.454   -12.577 -0.4944  0.0412  0.8683
     4 H(1)   Bbb     0.0028     1.471     0.525     0.491  0.3460  0.9257  0.1531
              Bcc     0.0679    36.234    12.929    12.086  0.7974 -0.3761  0.4718
 
              Baa    -0.0276   -14.730    -5.256    -4.914  0.4818 -0.2592  0.8371
     5 H(1)   Bbb    -0.0159    -8.505    -3.035    -2.837  0.2806  0.9506  0.1328
              Bcc     0.0435    23.236     8.291     7.751  0.8301 -0.1709 -0.5307
 
              Baa    -0.5642   -75.705   -27.013   -25.252 -0.2521 -0.2249  0.9412
     6 C(13)  Bbb    -0.5583   -74.922   -26.734   -24.991  0.9475 -0.2552  0.1929
              Bcc     1.1225   150.627    53.747    50.244  0.1968  0.9404  0.2774
 
              Baa    -0.0193    -2.584    -0.922    -0.862  0.9473 -0.2556  0.1931
     7 C(13)  Bbb     0.0055     0.738     0.263     0.246  0.3203  0.7685 -0.5539
              Bcc     0.0138     1.846     0.659     0.616 -0.0068  0.5866  0.8098
 
              Baa    -0.0764   -40.771   -14.548   -13.600  0.2610 -0.3261  0.9086
     8 H(1)   Bbb     0.0030     1.603     0.572     0.535  0.1455  0.9438  0.2969
              Bcc     0.0734    39.168    13.976    13.065  0.9543 -0.0547 -0.2938
 
              Baa    -0.0764   -40.774   -14.549   -13.601 -0.6984 -0.0673  0.7126
     9 H(1)   Bbb     0.0030     1.612     0.575     0.538  0.2320  0.9205  0.3144
              Bcc     0.0734    39.163    13.974    13.063  0.6771 -0.3849  0.6272
 
              Baa    -0.0110    -5.895    -2.103    -1.966  0.9458 -0.2610  0.1932
    10 H(1)   Bbb    -0.0065    -3.457    -1.233    -1.153  0.3063  0.9147 -0.2636
              Bcc     0.0175     9.352     3.337     3.119 -0.1079  0.3085  0.9451
 
              Baa    -0.0096    -5.142    -1.835    -1.715 -0.4152  0.7835  0.4623
    11 H(1)   Bbb    -0.0076    -4.035    -1.440    -1.346  0.8955  0.4416  0.0557
              Bcc     0.0172     9.177     3.275     3.061  0.1605 -0.4371  0.8850
 
              Baa    -0.0096    -5.126    -1.829    -1.710  0.5460  0.5172  0.6591
    12 H(1)   Bbb    -0.0076    -4.042    -1.442    -1.348 -0.5114  0.8289 -0.2268
              Bcc     0.0172     9.168     3.271     3.058 -0.6636 -0.2133  0.7171
 

 ---------------------------------------------------------------------------------

 Entering OneElI...
 Calculate overlap and kinetic energy integrals
    NBasis = 300  MinDer = 2  MaxDer = 2
 Requested accuracy = 0.1000D-12
 PrsmSu:  NPrtUS=  32 ThrOK=T IAlg=1 NPAlg=1 LenDen=           0.
 Prism:   IPart=     0 DynPar=F LinDyn=F Incr=           1.
 PRISM was handed    13021118 working-precision words and  3781 shell-pairs
 PRISM was handed    13021118 working-precision words and  3781 shell-pairs
 PRISM was handed    13021118 working-precision words and  3781 shell-pairs
 PRISM was handed    13021118 working-precision words and  3781 shell-pairs
 PRISM was handed    13021118 working-precision words and  3781 shell-pairs
 PRISM was handed    13021118 working-precision words and  3781 shell-pairs
 PRISM was handed    13021118 working-precision words and  3781 shell-pairs
 PRISM was handed    13021118 working-precision words and  3781 shell-pairs
 PRISM was handed    13021118 working-precision words and  3781 shell-pairs
 PRISM was handed    13021118 working-precision words and  3781 shell-pairs
 PRISM was handed    13021118 working-precision words and  3781 shell-pairs
 PRISM was handed    13021118 working-precision words and  3781 shell-pairs
 PRISM was handed    13021118 working-precision words and  3781 shell-pairs
 PRISM was handed    13021118 working-precision words and  3781 shell-pairs
 PRISM was handed    13021118 working-precision words and  3781 shell-pairs
 PRISM was handed    13021118 working-precision words and  3781 shell-pairs
 PRISM was handed    13021118 working-precision words and  3781 shell-pairs
 PRISM was handed    13021118 working-precision words and  3781 shell-pairs
 PRISM was handed    13021118 working-precision words and  3781 shell-pairs
 PRISM was handed    13021118 working-precision words and  3781 shell-pairs
 PRISM was handed    13021118 working-precision words and  3781 shell-pairs
 PRISM was handed    13021118 working-precision words and  3781 shell-pairs
 PRISM was handed    13021118 working-precision words and  3781 shell-pairs
 PRISM was handed    13021118 working-precision words and  3781 shell-pairs
 PRISM was handed    13021118 working-precision words and  3781 shell-pairs
 PRISM was handed    13021118 working-precision words and  3781 shell-pairs
 PRISM was handed    13021118 working-precision words and  3781 shell-pairs
 PRISM was handed    13021118 working-precision words and  3781 shell-pairs
 PRISM was handed    13021118 working-precision words and  3781 shell-pairs
 PRISM was handed    13021118 working-precision words and  3781 shell-pairs
 PRISM was handed    13021118 working-precision words and  3781 shell-pairs
 PRISM was handed    13021118 working-precision words and  3781 shell-pairs
 IPart=  8 NShTot=         119 NBatch=          21 AvBLen=         5.7
 IPart= 14 NShTot=         114 NBatch=          21 AvBLen=         5.4
 IPart= 20 NShTot=         110 NBatch=          20 AvBLen=         5.5
 IPart= 23 NShTot=         106 NBatch=          20 AvBLen=         5.3
 IPart=  4 NShTot=         138 NBatch=          34 AvBLen=         4.1
 IPart= 13 NShTot=         118 NBatch=          21 AvBLen=         5.6
 IPart=  6 NShTot=         129 NBatch=          29 AvBLen=         4.4
 IPart= 25 NShTot=         106 NBatch=          20 AvBLen=         5.3
 IPart= 26 NShTot=         106 NBatch=          20 AvBLen=         5.3
 IPart= 15 NShTot=         113 NBatch=          21 AvBLen=         5.4
 IPart= 30 NShTot=         104 NBatch=          20 AvBLen=         5.2
 IPart= 12 NShTot=         119 NBatch=          21 AvBLen=         5.7
 IPart= 16 NShTot=         112 NBatch=          20 AvBLen=         5.6
 IPart=  0 NShTot=         155 NBatch=          51 AvBLen=         3.0
 IPart= 24 NShTot=         106 NBatch=          20 AvBLen=         5.3
 IPart=  9 NShTot=         119 NBatch=          21 AvBLen=         5.7
 IPart= 10 NShTot=         119 NBatch=          21 AvBLen=         5.7
 IPart= 21 NShTot=         109 NBatch=          20 AvBLen=         5.5
 IPart= 22 NShTot=         107 NBatch=          20 AvBLen=         5.3
 IPart= 28 NShTot=         105 NBatch=          20 AvBLen=         5.3
 IPart= 17 NShTot=         111 NBatch=          20 AvBLen=         5.5
 IPart=  5 NShTot=         134 NBatch=          32 AvBLen=         4.2
 IPart= 19 NShTot=         110 NBatch=          20 AvBLen=         5.5
 IPart=  7 NShTot=         127 NBatch=          28 AvBLen=         4.5
 IPart=  3 NShTot=         145 NBatch=          41 AvBLen=         3.5
 IPart= 31 NShTot=         104 NBatch=          20 AvBLen=         5.2
 IPart= 18 NShTot=         111 NBatch=          20 AvBLen=         5.5
 IPart= 29 NShTot=         104 NBatch=          20 AvBLen=         5.2
 IPart= 27 NShTot=         106 NBatch=          20 AvBLen=         5.3
 IPart=  2 NShTot=         146 NBatch=          42 AvBLen=         3.5
 IPart=  1 NShTot=         150 NBatch=          46 AvBLen=         3.3
 IPart= 11 NShTot=         119 NBatch=          21 AvBLen=         5.7
 PrSmSu:  NxtVal=             33.
 Entering OneElI...
 Calculate potential energy integrals
    NBasis = 300  MinDer = 2  MaxDer = 2
 Requested accuracy = 0.1000D-12
 PrsmSu:  NPrtUS=  32 ThrOK=T IAlg=1 NPAlg=1 LenDen=           0.
 PRISM was handed    13038180 working-precision words and  2982 shell-pairs
 PRISM was handed    13038180 working-precision words and  2982 shell-pairs
 PRISM was handed    13038180 working-precision words and  2982 shell-pairs
 PRISM was handed    13038180 working-precision words and  2982 shell-pairs
 PRISM was handed    13038180 working-precision words and  2982 shell-pairs
 PRISM was handed    13038180 working-precision words and  2982 shell-pairs
 PRISM was handed    13038180 working-precision words and  2982 shell-pairs
 PRISM was handed    13038180 working-precision words and  2982 shell-pairs
 PRISM was handed    13038180 working-precision words and  2982 shell-pairs
 PRISM was handed    13038180 working-precision words and  2982 shell-pairs
 PRISM was handed    13038180 working-precision words and  2982 shell-pairs
 PRISM was handed    13038180 working-precision words and  2982 shell-pairs
 PRISM was handed    13038180 working-precision words and  2982 shell-pairs
 PRISM was handed    13038180 working-precision words and  2982 shell-pairs
 PRISM was handed    13038180 working-precision words and  2982 shell-pairs
 PRISM was handed    13038180 working-precision words and  2982 shell-pairs
 PRISM was handed    13038180 working-precision words and  2982 shell-pairs
 PRISM was handed    13038180 working-precision words and  2982 shell-pairs
 PRISM was handed    13038180 working-precision words and  2982 shell-pairs
 PRISM was handed    13038180 working-precision words and  2982 shell-pairs
 PRISM was handed    13038180 working-precision words and  2982 shell-pairs
 PRISM was handed    13038180 working-precision words and  2982 shell-pairs
 PRISM was handed    13038180 working-precision words and  2982 shell-pairs
 PRISM was handed    13038180 working-precision words and  2982 shell-pairs
 PRISM was handed    13038180 working-precision words and  2982 shell-pairs
 PRISM was handed    13038180 working-precision words and  2982 shell-pairs
 PRISM was handed    13038180 working-precision words and  2982 shell-pairs
 PRISM was handed    13038180 working-precision words and  2982 shell-pairs
 PRISM was handed    13038180 working-precision words and  2982 shell-pairs
 PRISM was handed    13038180 working-precision words and  2982 shell-pairs
 Prism:   IPart=     0 DynPar=F LinDyn=F Incr=          11.
 PRISM was handed    13038180 working-precision words and  2982 shell-pairs
 PRISM was handed    13038180 working-precision words and  2982 shell-pairs
 IPart=  1 NShTot=        1452 NBatch=         121 AvBLen=        12.0
 IPart=  5 NShTot=        1272 NBatch=         106 AvBLen=        12.0
 IPart= 12 NShTot=        1068 NBatch=          89 AvBLen=        12.0
 IPart=  2 NShTot=        1404 NBatch=         117 AvBLen=        12.0
 IPart=  7 NShTot=        1236 NBatch=         103 AvBLen=        12.0
 IPart= 21 NShTot=        1020 NBatch=          85 AvBLen=        12.0
 IPart= 20 NShTot=        1032 NBatch=          86 AvBLen=        12.0
 IPart=  4 NShTot=        1308 NBatch=         109 AvBLen=        12.0
 IPart= 17 NShTot=        1044 NBatch=          87 AvBLen=        12.0
 IPart= 23 NShTot=        1008 NBatch=          84 AvBLen=        12.0
 IPart= 30 NShTot=         996 NBatch=          83 AvBLen=        12.0
 IPart=  6 NShTot=        1260 NBatch=         105 AvBLen=        12.0
 IPart= 13 NShTot=        1056 NBatch=          88 AvBLen=        12.0
 IPart= 22 NShTot=        1008 NBatch=          84 AvBLen=        12.0
 IPart=  9 NShTot=        1128 NBatch=          94 AvBLen=        12.0
 IPart= 10 NShTot=        1092 NBatch=          91 AvBLen=        12.0
 IPart= 28 NShTot=        1008 NBatch=          84 AvBLen=        12.0
 IPart=  3 NShTot=        1380 NBatch=         115 AvBLen=        12.0
 IPart= 24 NShTot=        1008 NBatch=          84 AvBLen=        12.0
 IPart= 29 NShTot=        1008 NBatch=          84 AvBLen=        12.0
 IPart= 19 NShTot=        1032 NBatch=          86 AvBLen=        12.0
 IPart= 27 NShTot=        1008 NBatch=          84 AvBLen=        12.0
 IPart= 18 NShTot=        1032 NBatch=          86 AvBLen=        12.0
 IPart= 16 NShTot=        1044 NBatch=          87 AvBLen=        12.0
 IPart=  8 NShTot=        1140 NBatch=          95 AvBLen=        12.0
 IPart=  0 NShTot=        1560 NBatch=         130 AvBLen=        12.0
 IPart= 15 NShTot=        1056 NBatch=          88 AvBLen=        12.0
 IPart= 11 NShTot=        1080 NBatch=          90 AvBLen=        12.0
 IPart= 31 NShTot=         972 NBatch=          81 AvBLen=        12.0
 IPart= 26 NShTot=        1008 NBatch=          84 AvBLen=        12.0
 IPart= 14 NShTot=        1056 NBatch=          88 AvBLen=        12.0
 IPart= 25 NShTot=        1008 NBatch=          84 AvBLen=        12.0
 PrSmSu:  NxtVal=            353.
 Polarizability after L701:
                1             2             3 
      1  0.462230D+02
      2  0.177823D+00  0.458113D+02
      3 -0.187231D+01 -0.237884D+00  0.547687D+02
 Dipole Derivatives after L701:
                 1             2             3             4             5 
      1   0.168975D+00 -0.134612D+00 -0.692565D-01 -0.270446D+00  0.283309D-01
      2  -0.130592D+00 -0.319481D+00 -0.416359D-01  0.208264D-01 -0.317349D+00
      3  -0.469061D-01 -0.561668D-01  0.862928D+00  0.816503D-01 -0.510808D-01
                 6             7             8             9            10 
      1   0.865100D-01 -0.519735D-01 -0.904141D-02 -0.857662D-03 -0.380912D-01
      2  -0.199201D-01  0.988961D-02  0.166158D+00  0.260624D-01  0.886394D-01
      3  -0.115977D+01  0.572466D-01  0.356439D-01  0.154750D-01 -0.541935D-01
                11            12            13            14            15 
      1   0.107124D+00  0.472841D-02  0.191561D+00  0.803041D-02 -0.212810D-01
      2   0.131782D+00  0.356984D-01  0.110787D-01  0.338992D+00 -0.313951D-03
      3   0.581779D-01 -0.225811D-01 -0.379735D-01  0.133080D-01  0.303878D+00
                16            17            18            19            20 
      1   0.953152D-01 -0.979797D-01 -0.313492D-01  0.430919D-01  0.257373D-01
      2  -0.948167D-01 -0.341148D+00 -0.135567D+00  0.160749D-01  0.123152D+00
      3  -0.277606D-01 -0.121986D+00  0.882735D-01  0.575697D-02 -0.180037D-01
                21            22            23            24            25 
      1   0.185334D-01 -0.808029D-01  0.263768D-01  0.386058D-01 -0.202847D-01
      2   0.286289D-01  0.175124D-01  0.133176D+00  0.429341D-01  0.566746D-01
      3  -0.122648D-01  0.674122D-01  0.384980D-01 -0.366691D-02 -0.503639D-01
                26            27            28            29            30 
      1   0.474620D-01 -0.222893D-01  0.810483D-01 -0.174903D-01  0.105079D-01
      2   0.111027D+00  0.700457D-01 -0.251207D-01 -0.577407D-01 -0.716270D-01
      3   0.771517D-01 -0.425679D-01  0.464161D-03 -0.109623D+00 -0.601208D-01
                31            32            33            34            35 
      1  -0.139760D-02  0.773109D-01 -0.245848D-01 -0.116995D+00 -0.612488D-01
      2   0.889291D-01 -0.278578D-01  0.558541D-01 -0.590954D-01  0.592898D-01
      3  -0.402273D-01  0.961403D-01  0.559334D-03  0.448947D-01  0.379408D-01
                36 
      1   0.107330D-01
      2   0.984059D-02
      3   0.298607D-01
 Hessian after L701:
                1             2             3             4             5 
      1  0.906920D+01
      2  0.544616D+00  0.115251D+02
      3  0.280822D+00  0.333941D+00  0.254915D+01
      4 -0.631865D+01  0.658680D-01 -0.102861D+00  0.829479D+01
      5  0.599296D-01 -0.616386D+01  0.414883D-01  0.191908D+00  0.107017D+02
      6 -0.180757D+00  0.662454D-01  0.187201D+01  0.143343D+01 -0.109489D+00
      7 -0.119979D+01 -0.227090D-01 -0.824222D+00  0.118002D+00  0.120998D-02
      8 -0.241254D-01 -0.279042D+01  0.357597D-02 -0.236329D-02 -0.430278D-02
      9 -0.891633D+00  0.163405D-01 -0.234978D+01 -0.930816D-02 -0.544093D-02
     10 -0.154907D+01 -0.585075D+00  0.817730D+00  0.966147D-01 -0.665993D-01
     11 -0.580956D+00 -0.245407D+01 -0.415005D+00 -0.718828D-01  0.377078D-02
     12  0.874141D+00 -0.436388D+00 -0.214079D+01  0.880898D-01 -0.611075D-01
     13  0.136873D-01 -0.911879D-02 -0.176417D+00 -0.217607D+01 -0.193163D+00
     14 -0.651630D-02 -0.131525D+00  0.111717D-01 -0.194546D+00 -0.455356D+01
     15 -0.859923D-01  0.481114D-02  0.724760D-01 -0.141664D+01  0.113201D+00
     16 -0.702306D-02  0.233868D-02  0.669011D-03 -0.741680D-02  0.204507D-02
     17  0.315092D-02  0.574972D-02  0.790816D-02  0.429098D-02  0.601870D-02
     18  0.225600D-02  0.838778D-02  0.177930D-02  0.584499D-02  0.133367D-01
     19 -0.600965D-02  0.275416D-02  0.299805D-02 -0.520504D-02  0.317969D-02
     20  0.243819D-02  0.533520D-02  0.113008D-01  0.418211D-02  0.592239D-02
     21  0.571506D-03  0.408375D-02 -0.412910D-02  0.389560D-03  0.460243D-02
     22  0.644981D-03  0.297746D-02  0.414884D-02  0.243172D-02  0.479528D-02
     23  0.577088D-03  0.742370D-03  0.895749D-03  0.685483D-03  0.768677D-03
     24 -0.233653D-03 -0.321276D-03 -0.189953D-02 -0.700701D-03 -0.645310D-03
     25 -0.115750D-02 -0.155085D-02 -0.232161D-02 -0.234913D-02 -0.277730D-02
     26  0.478137D-03  0.217475D-02  0.256391D-02  0.142292D-02  0.306901D-02
     27 -0.279684D-03 -0.134861D-02 -0.318468D-02 -0.138949D-02 -0.229595D-02
     28 -0.536791D-03  0.344693D-03  0.536508D-03 -0.367420D-03  0.491885D-03
     29  0.567008D-03  0.162466D-02  0.380436D-02  0.183210D-02  0.273779D-02
     30  0.368954D-03  0.144216D-02  0.201371D-02  0.129656D-02  0.239153D-02
     31 -0.231101D-03  0.154905D-02  0.309677D-02  0.751348D-03  0.234748D-02
     32 -0.225466D-03 -0.887465D-03 -0.182223D-02 -0.120603D-02 -0.187983D-02
     33  0.651446D-03  0.169407D-02  0.194651D-02  0.146025D-02  0.247193D-02
     34 -0.106006D-02 -0.199470D-02 -0.417973D-02 -0.253521D-02 -0.336708D-02
     35  0.661646D-04  0.596431D-04  0.177580D-03 -0.191541D-03 -0.368919D-03
     36  0.846683D-04  0.111256D-02  0.404565D-03  0.393513D-03  0.148706D-02
                6             7             8             9            10 
      6  0.187702D+01
      7 -0.782050D-01  0.119195D+01
      8  0.578630D-02 -0.256269D-01  0.276428D+01
      9 -0.528965D-01  0.973141D+00 -0.107963D-01  0.229804D+01
     10  0.143373D+00 -0.153497D+00  0.521502D-01 -0.167801D-01  0.158917D+01
     11 -0.877482D-01  0.395132D-01  0.433338D-01 -0.117874D-02  0.609157D+00
     12  0.434477D-01 -0.959213D-02 -0.269651D-02  0.694673D-01 -0.947935D+00
     13 -0.132199D+01  0.420514D-01 -0.141758D-02 -0.547217D-01  0.196082D-01
     14  0.106341D+00 -0.295999D-02 -0.153151D-01  0.342414D-02 -0.180254D-02
     15 -0.373614D+01 -0.660772D-01  0.200623D-02  0.382723D-01  0.706712D-02
     16  0.120145D-02 -0.444655D-03  0.513792D-03  0.524645D-04 -0.409035D-03
     17  0.662113D-02  0.325655D-02  0.910587D-03 -0.644590D-03 -0.224998D-02
     18 -0.107909D-02  0.533196D-02  0.125873D-02 -0.273313D-02 -0.410873D-02
     19  0.199902D-02  0.122043D-02  0.598955D-03 -0.539938D-03 -0.173036D-02
     20  0.808566D-02  0.467089D-02  0.930689D-03 -0.102105D-02 -0.357046D-02
     21 -0.192637D-02 -0.931806D-03  0.513280D-03  0.143157D-04  0.992287D-03
     22  0.164316D-02  0.331745D-02  0.519082D-03 -0.133056D-02 -0.270475D-02
     23  0.844653D-03  0.375703D-03  0.100066D-03 -0.683727D-04 -0.235734D-03
     24 -0.914226D-03 -0.106107D-02 -0.877329D-04  0.352109D-03  0.874497D-03
     25 -0.672765D-03 -0.209826D-02 -0.259233D-03  0.850694D-03  0.163021D-02
     26  0.142629D-02  0.182107D-02  0.354655D-03 -0.682577D-03 -0.145905D-02
     27 -0.137194D-02 -0.215490D-02 -0.267820D-03  0.809132D-03  0.178929D-02
     28  0.264477D-03  0.309024D-03  0.742007D-04 -0.128960D-03 -0.324979D-03
     29  0.173719D-02  0.248836D-02  0.317148D-03 -0.900029D-03 -0.203299D-02
     30  0.711589D-03  0.169205D-02  0.258687D-03 -0.692423D-03 -0.137541D-02
     31  0.155886D-02  0.190738D-02  0.296727D-03 -0.689264D-03 -0.163472D-02
     32 -0.404160D-03 -0.167978D-02 -0.179772D-03  0.721728D-03  0.139714D-02
     33  0.930633D-03  0.153857D-02  0.277239D-03 -0.597851D-03 -0.120112D-02
     34 -0.184040D-02 -0.292993D-02 -0.360585D-03  0.108744D-02  0.234629D-02
     35  0.553779D-03 -0.360084D-03 -0.100964D-05  0.246210D-03  0.320428D-03
     36  0.196942D-03  0.539827D-03  0.171913D-03 -0.254356D-03 -0.425769D-03
               11            12            13            14            15 
     11  0.238162D+01
     12  0.492424D+00  0.208736D+01
     13  0.316290D-02 -0.431625D-02  0.210240D+01
     14  0.179260D-01  0.110353D-01  0.205470D+00  0.468042D+01
     15  0.728731D-02 -0.560243D-01  0.156080D+01 -0.134401D+00  0.367802D+01
     16 -0.141443D-03  0.299649D-03 -0.151508D-03  0.000000D+00 -0.311312D-03
     17  0.247524D-02 -0.948751D-03 -0.139612D-02  0.760258D-03  0.221250D-02
     18  0.365458D-02 -0.313708D-02 -0.344759D-02  0.166010D-02  0.363427D-02
     19  0.800535D-03 -0.497902D-03 -0.109039D-02  0.243841D-03  0.824930D-03
     20  0.312000D-02 -0.141376D-02 -0.222941D-02  0.781939D-03  0.311121D-02
     21 -0.843556D-05  0.102241D-03  0.470577D-03  0.399155D-03 -0.614509D-03
     22  0.202980D-02 -0.157856D-02 -0.200400D-02  0.645632D-03  0.224134D-02
     23  0.293318D-03 -0.107889D-03 -0.145596D-03  0.861299D-04  0.252798D-03
     24 -0.587410D-03  0.434008D-03  0.602967D-03 -0.120581D-03 -0.715914D-03
     25 -0.126764D-02  0.103294D-02  0.123420D-02 -0.408874D-03 -0.142127D-02
     26  0.117898D-02 -0.821175D-03 -0.105315D-02  0.380499D-03  0.123080D-02
     27 -0.126132D-02  0.973980D-03  0.128124D-02 -0.341203D-03 -0.145886D-02
     28  0.186113D-03 -0.139034D-03 -0.222340D-03  0.537057D-04  0.210455D-03
     29  0.147267D-02 -0.109513D-02 -0.144886D-02  0.408940D-03  0.168394D-02
     30  0.103474D-02 -0.820715D-03 -0.102631D-02  0.336092D-03  0.114656D-02
     31  0.114208D-02 -0.824524D-03 -0.114255D-02  0.317721D-03  0.127978D-02
     32 -0.952458D-03  0.852637D-03  0.105240D-02 -0.289879D-03 -0.114185D-02
     33  0.989664D-03 -0.721272D-03 -0.892424D-03  0.327293D-03  0.103663D-02
     34 -0.174379D-02  0.131940D-02  0.169472D-02 -0.498230D-03 -0.197386D-02
     35 -0.169681D-03  0.266798D-03  0.287225D-03 -0.699512D-04 -0.254488D-03
     36  0.398697D-03 -0.288190D-03 -0.336499D-03  0.167392D-03  0.365487D-03
               16            17            18            19            20 
     16  0.661606D+01
     17  0.340168D+00  0.883482D+01
     18  0.787563D+00  0.116816D+01  0.436370D+01
     19 -0.397696D+01  0.214905D+00 -0.996247D+00  0.939468D+01
     20  0.210712D+00 -0.401717D+01 -0.740150D+00 -0.909806D-01  0.957506D+01
     21 -0.100240D+01 -0.760830D+00 -0.336622D+00  0.621431D+00  0.476126D+00
     22 -0.868643D+00 -0.108181D+00 -0.665337D+00  0.670052D-01 -0.250711D-02
     23 -0.906107D-01 -0.260448D+01  0.468226D-01 -0.810857D-02 -0.131736D-01
     24 -0.690483D+00  0.579638D-01 -0.239885D+01 -0.734184D-02  0.398955D-03
     25 -0.181940D+01 -0.463291D+00  0.875908D+00  0.280106D-01 -0.266862D-01
     26 -0.478326D+00 -0.233694D+01 -0.500479D+00 -0.205301D-01 -0.287832D-03
     27  0.905562D+00 -0.497421D+00 -0.172000D+01  0.187100D-01 -0.136307D-01
     28 -0.244357D-01  0.671717D-02  0.160789D-01 -0.253697D+01  0.131988D+00
     29 -0.425636D-03  0.687631D-01  0.124458D+00  0.133332D+00 -0.138326D+01
     30  0.655870D-02  0.894862D-01  0.637687D-01  0.106764D+00  0.914511D+00
     31 -0.270869D-02 -0.513655D-01  0.512553D-01 -0.203840D+01 -0.764690D+00
     32 -0.359370D-01  0.491571D-01 -0.920852D-01 -0.768084D+00 -0.169216D+01
     33  0.962116D-02 -0.534683D-01  0.323414D-01  0.481892D+00 -0.589044D+00
     34  0.915248D-01  0.539959D-01 -0.750976D-01 -0.924545D+00  0.536672D+00
     35  0.496625D-01 -0.100692D-01 -0.350258D-01  0.531889D+00 -0.248511D+01
     36 -0.183339D-01 -0.190409D-01 -0.280884D-02 -0.229991D+00 -0.682746D-01
               21            22            23            24            25 
     21  0.713007D+01
     22 -0.420098D-01  0.875820D+00
     23  0.697469D-02  0.513963D-01  0.258517D+01
     24  0.254452D-02  0.770762D+00 -0.653630D-01  0.234147D+01
     25  0.526618D-01 -0.112813D+00  0.487405D-01 -0.489360D-01  0.190791D+01
     26 -0.232528D-01  0.401632D-01  0.371000D-01  0.828917D-02  0.463058D+00
     27  0.287763D-01 -0.229420D-01  0.301844D-02  0.511365D-01 -0.918640D+00
     28  0.104818D+00 -0.112630D-03 -0.228259D-02 -0.237421D-02 -0.111776D-03
     29  0.906553D+00 -0.140870D-01  0.550639D-04  0.967574D-02  0.766603D-02
     30 -0.185341D+01 -0.149357D-01  0.383950D-02  0.825159D-02  0.108299D-01
     31  0.456353D+00 -0.370063D-02 -0.465546D-02  0.961826D-02  0.320117D-02
     32 -0.559349D+00  0.982084D-02  0.152062D-02 -0.159011D-02 -0.170853D-01
     33 -0.231951D+01 -0.492354D-02  0.538353D-02 -0.568895D-02  0.222941D-01
     34 -0.192346D+00  0.407578D-01  0.426364D-02 -0.307278D-01 -0.405825D-02
     35 -0.558128D-01  0.124279D-01 -0.818741D-02 -0.761225D-02 -0.613840D-02
     36 -0.264530D+01 -0.257385D-01 -0.249272D-02  0.387422D-02  0.841411D-02
               26            27            28            29            30 
     26  0.228970D+01
     27  0.531208D+00  0.160984D+01
     28  0.114024D-03  0.392173D-02  0.255624D+01
     29 -0.657369D-02  0.124966D-01 -0.117753D+00  0.137141D+01
     30 -0.259078D-02  0.150387D-01 -0.107345D+00 -0.102067D+01  0.172795D+01
     31 -0.118452D-01  0.232993D-01  0.132779D-01  0.264459D-03  0.155651D-03
     32  0.691591D-02 -0.303676D-01  0.369546D-01 -0.434621D-01  0.146563D-01
     33 -0.208475D-01  0.262498D-01  0.169322D-01 -0.240094D-01  0.229871D-01
     34  0.615617D-02 -0.915833D-02 -0.674548D-02 -0.104022D-01 -0.298317D-02
     35  0.293409D-02  0.211267D-03 -0.568885D-01 -0.135011D-01 -0.469487D-02
     36  0.395566D-02 -0.680834D-02 -0.327754D-01 -0.137338D-01  0.130576D-01
               31            32            33            34            35 
     31  0.207015D+01
     32  0.780321D+00  0.165926D+01
     33 -0.522191D+00  0.676632D+00  0.222620D+01
     34 -0.414706D-01 -0.532921D-02 -0.518129D-02  0.847021D+00
     35  0.463171D-01  0.229584D-01 -0.406742D-03 -0.577392D+00  0.249152D+01
     36 -0.229125D-01 -0.610258D-02  0.148213D-01  0.321081D+00  0.102351D+00
               36 
     36  0.262274D+01
 ICntrl=    100127.
 Calling FoFJK, ICntrl=    100127 FMM=F ISym2X=0 I1Cent= 0 IOpClX= 1 NMat=1 NMatS=1 NMatT=0.
 FoFJK:  IHMeth= 1 ICntrl=  100127 DoSepK=T KAlg= 0 I1Cent=   0 FoldK=F
 IRaf=         1 NMat=   1 IRICut=       1 DoRegI=T DoRafI=F ISym2E= 0.
 FoFCou: FMM=F IPFlag=           0 FMFlag=      100000 FMFlg1=         800
         NFxFlg=           0 DoJE=F BraDBF=F KetDBF=F FulRan=T
         wScrn=  0.000000 ICntrl=  100527 IOpCl=  0 I1Cent=           0 NGrid=           0
         NMat0=    1 NMatS0=      1 NMatT0=    0 NMatD0=    1 NMtDS0=    0 NMtDT0=    0
 Symmetry not used in FoFCou.
 FoFCou:  KetSym=F NOpSet=  1 NOpAb=1 NOp=  1.
 FoFCou:  CnvScl= 1.00D+00 Thresh= 1.00D-10 IAcrcy=      10.
 PrismS was handed   418982941 working-precision words and  3508 shell-pairs
 FoFCou: LinMIO=F DoNuc=F BraDBF=F KetDBF=F HaveP=T PDBF=F HaveZ=T HaveW=F
         NIJTC =      10 NIJTAt=       0 NIJTCD=       0 NIJTT =      10
         IJTBeg=       1 IJTEnd=      10 KLTBeg=       1 KLTEnd=      10
         IPTBeg=       1 IPTEnd=      10 IPTBCv=       1 IPTECv=      10
         IZTBeg=       1 IZTEnd=      10 IZTBCv=       1 IZTECv=      10
         IWTBeg=      11 IWTEnd=      10 IWTBCv=      11 IWTECv=      10
         INTBeg=       1 INTEnd=       0 IFTBCv=       1 IFTECv=      10
 NCel replicated for PrismC:     1
 CoulSu:  IncDef=  1024 NBBP=        6154786 NTPThr=   100 NPartT=   32 Incr=        1024 LDynOK=F.
 CoulSu:  NPrtUS=  32 ThrOK=T IAlg=1 NPAlg=1 LenDen=           0 LWGrdD=           0 DoCopy=F.
 Enter PrismC: JobTyp=22 DoJE=F Cont=F.
 Enter PrismC: JobTyp=22 DoJE=F Cont=F.
 Enter PrismC: JobTyp=22 DoJE=F Cont=F.
 PrismC was handed    13027397 working-precision words and  3508 shell-pairs
 Enter PrismC: JobTyp=22 DoJE=F Cont=F.
 PrismC was handed    13027397 working-precision words and  3508 shell-pairs
 Enter PrismC: JobTyp=22 DoJE=F Cont=F.
 PrismC was handed    13027397 working-precision words and  3508 shell-pairs
 Enter PrismC: JobTyp=22 DoJE=F Cont=F.
 Enter PrismC: JobTyp=22 DoJE=F Cont=F.
 PrismC was handed    13027397 working-precision words and  3508 shell-pairs
 PrismC was handed    13027397 working-precision words and  3508 shell-pairs
 Enter PrismC: JobTyp=22 DoJE=F Cont=F.
 Enter PrismC: JobTyp=22 DoJE=F Cont=F.
 PrismC was handed    13027397 working-precision words and  3508 shell-pairs
 Enter PrismC: JobTyp=22 DoJE=F Cont=F.
 Enter PrismC: JobTyp=22 DoJE=F Cont=F.
 Enter PrismC: JobTyp=22 DoJE=F Cont=F.
 Enter PrismC: JobTyp=22 DoJE=F Cont=F.
 PrismC was handed    13027397 working-precision words and  3508 shell-pairs
 Enter PrismC: JobTyp=22 DoJE=F Cont=F.
 Enter PrismC: JobTyp=22 DoJE=F Cont=F.
 Enter PrismC: JobTyp=22 DoJE=F Cont=F.
 Enter PrismC: JobTyp=22 DoJE=F Cont=F.
 PrismC was handed    13027397 working-precision words and  3508 shell-pairs
 Enter PrismC: JobTyp=22 DoJE=F Cont=F.
 PrismC was handed    13027397 working-precision words and  3508 shell-pairs
 Enter PrismC: JobTyp=22 DoJE=F Cont=F.
 PrismC was handed    13027397 working-precision words and  3508 shell-pairs
 Enter PrismC: JobTyp=22 DoJE=F Cont=F.
 Enter PrismC: JobTyp=22 DoJE=F Cont=F.
 PrismC was handed    13027397 working-precision words and  3508 shell-pairs
 Enter PrismC: JobTyp=22 DoJE=F Cont=F.
 Enter PrismC: JobTyp=22 DoJE=F Cont=F.
 PrismC was handed    13027397 working-precision words and  3508 shell-pairs
 Enter PrismC: JobTyp=22 DoJE=F Cont=F.
 Enter PrismC: JobTyp=22 DoJE=F Cont=F.
 PrismC was handed    13027397 working-precision words and  3508 shell-pairs
 Enter PrismC: JobTyp=22 DoJE=F Cont=F.
 Enter PrismC: JobTyp=22 DoJE=F Cont=F.
 Enter PrismC: JobTyp=22 DoJE=F Cont=F.
 Enter PrismC: JobTyp=22 DoJE=F Cont=F.
 Enter PrismC: JobTyp=22 DoJE=F Cont=F.
 PrismC was handed    13027397 working-precision words and  3508 shell-pairs
 PrismC was handed    13027397 working-precision words and  3508 shell-pairs
 Enter PrismC: JobTyp=22 DoJE=F Cont=F.
 PrismC was handed    13027397 working-precision words and  3508 shell-pairs
 PrismC was handed    13027397 working-precision words and  3508 shell-pairs
 PrismC was handed    13027397 working-precision words and  3508 shell-pairs
 PrismC was handed    13027397 working-precision words and  3508 shell-pairs
 PrismC was handed    13027397 working-precision words and  3508 shell-pairs
 Enter PrismC: JobTyp=22 DoJE=F Cont=F.
 PrismC was handed    13027397 working-precision words and  3508 shell-pairs
 PrismC was handed    13027397 working-precision words and  3508 shell-pairs
 PrismC was handed    13027397 working-precision words and  3508 shell-pairs
 PrismC was handed    13027397 working-precision words and  3508 shell-pairs
 PrismC was handed    13027397 working-precision words and  3508 shell-pairs
 PrismC was handed    13027397 working-precision words and  3508 shell-pairs
 PrismC was handed    13027397 working-precision words and  3508 shell-pairs
 PrismC was handed    13027397 working-precision words and  3508 shell-pairs
 PrismC:  IPart=     0 DynPar=T LinDyn=F Incr=        1024 UseFst=F UseS4=T IGathr=2.
 PrismC was handed    13027397 working-precision words and  3508 shell-pairs
 PrismC was handed    13027397 working-precision words and  3508 shell-pairs
 PrismC was handed    13027397 working-precision words and  3508 shell-pairs
 PrismC was handed    13027397 working-precision words and  3508 shell-pairs
 IPart= 14 NShTot=      146980 NShNF=      146980 NShFF=           0 NBatch=        3153 AvBLen=        46.6
 IPart=  2 NShTot=      159237 NShNF=      159237 NShFF=           0 NBatch=        3360 AvBLen=        47.4
 IPart= 24 NShTot=      134161 NShNF=      134161 NShFF=           0 NBatch=        3236 AvBLen=        41.5
 IPart=  0 NShTot=      138777 NShNF=      138777 NShFF=           0 NBatch=        2920 AvBLen=        47.5
 IPart=  4 NShTot=      134965 NShNF=      134965 NShFF=           0 NBatch=        2496 AvBLen=        54.1
 IPart= 13 NShTot=      122114 NShNF=      122114 NShFF=           0 NBatch=        2381 AvBLen=        51.3
 IPart= 27 NShTot=      168159 NShNF=      168159 NShFF=           0 NBatch=        3498 AvBLen=        48.1
 IPart= 12 NShTot=      112510 NShNF=      112510 NShFF=           0 NBatch=        2339 AvBLen=        48.1
 IPart= 25 NShTot=      144578 NShNF=      144578 NShFF=           0 NBatch=        3239 AvBLen=        44.6
 IPart= 29 NShTot=      105388 NShNF=      105388 NShFF=           0 NBatch=        2273 AvBLen=        46.4
 IPart= 20 NShTot=      106389 NShNF=      106389 NShFF=           0 NBatch=        2204 AvBLen=        48.3
 IPart= 22 NShTot=      105606 NShNF=      105606 NShFF=           0 NBatch=        2367 AvBLen=        44.6
 IPart= 21 NShTot=      105432 NShNF=      105432 NShFF=           0 NBatch=        2219 AvBLen=        47.5
 IPart= 11 NShTot=       95054 NShNF=       95054 NShFF=           0 NBatch=        2262 AvBLen=        42.0
 IPart= 17 NShTot=      139870 NShNF=      139870 NShFF=           0 NBatch=        3137 AvBLen=        44.6
 IPart=  9 NShTot=      134927 NShNF=      134927 NShFF=           0 NBatch=        2850 AvBLen=        47.3
 IPart= 10 NShTot=       88834 NShNF=       88834 NShFF=           0 NBatch=        2172 AvBLen=        40.9
 IPart= 16 NShTot=      143842 NShNF=      143842 NShFF=           0 NBatch=        3055 AvBLen=        47.1
 IPart= 30 NShTot=       99495 NShNF=       99495 NShFF=           0 NBatch=        2146 AvBLen=        46.4
 IPart=  8 NShTot=       77988 NShNF=       77988 NShFF=           0 NBatch=        1971 AvBLen=        39.6
 IPart=  6 NShTot=       96910 NShNF=       96910 NShFF=           0 NBatch=        2027 AvBLen=        47.8
 IPart=  1 NShTot=      111763 NShNF=      111763 NShFF=           0 NBatch=        2430 AvBLen=        46.0
 IPart= 26 NShTot=      104481 NShNF=      104481 NShFF=           0 NBatch=        2296 AvBLen=        45.5
 IPart= 19 NShTot=      103999 NShNF=      103999 NShFF=           0 NBatch=        2177 AvBLen=        47.8
 IPart=  3 NShTot=      106177 NShNF=      106177 NShFF=           0 NBatch=        2517 AvBLen=        42.2
 IPart= 31 NShTot=      127379 NShNF=      127379 NShFF=           0 NBatch=        2781 AvBLen=        45.8
 IPart= 15 NShTot=       91065 NShNF=       91065 NShFF=           0 NBatch=        2457 AvBLen=        37.1
 IPart= 28 NShTot=       96933 NShNF=       96933 NShFF=           0 NBatch=        2264 AvBLen=        42.8
 IPart=  7 NShTot=      113063 NShNF=      113063 NShFF=           0 NBatch=        2385 AvBLen=        47.4
 IPart= 23 NShTot=       90525 NShNF=       90525 NShFF=           0 NBatch=        2137 AvBLen=        42.4
 IPart= 18 NShTot=       87481 NShNF=       87481 NShFF=           0 NBatch=        2055 AvBLen=        42.6
 IPart=  5 NShTot=       86257 NShNF=       86257 NShFF=           0 NBatch=        2156 AvBLen=        40.0
 CoulSu:  NxtVal=        6726657.
 FoFCou: FMM=F IPFlag=           0 FMFlag=      100000 FMFlg1=         800
         NFxFlg=           0 DoJE=F BraDBF=F KetDBF=F FulRan=T
         wScrn=  0.000000 ICntrl=  100127 IOpCl=  1 I1Cent=           0 NGrid=           0
         NMat0=    1 NMatS0=      0 NMatT0=    1 NMatD0=    1 NMtDS0=    0 NMtDT0=    0
         CW=    0.222036    0.777964
         WU=    0.000000   12.500000
 Symmetry not used in FoFCou.
 FoFCou:  KetSym=F NOpSet=  1 NOpAb=1 NOp=  1.
 FoFCou:  CnvScl= 1.00D+00 Thresh= 1.00D-10 IAcrcy=      10.
 PrismS was handed   418977975 working-precision words and  3508 shell-pairs
 FoFCou: LinMIO=F DoNuc=F BraDBF=F KetDBF=F HaveP=T PDBF=F HaveZ=T HaveW=F
         NIJTC =      10 NIJTAt=       0 NIJTCD=       0 NIJTT =      10
         IJTBeg=       1 IJTEnd=      10 KLTBeg=       1 KLTEnd=      10
         IPTBeg=       1 IPTEnd=      10 IPTBCv=       1 IPTECv=      10
         IZTBeg=       1 IZTEnd=      10 IZTBCv=       1 IZTECv=      10
         IWTBeg=      11 IWTEnd=      10 IWTBCv=      11 IWTECv=      10
         INTBeg=       1 INTEnd=       0 IFTBCv=       1 IFTECv=      10
 NCel replicated for PrismC:     1
 CoulSu:  IncDef=  1024 NBBP=        6154786 NTPThr=   100 NPartT=   32 Incr=        1024 LDynOK=F.
 CoulSu:  NPrtUS=  32 ThrOK=T IAlg=1 NPAlg=1 LenDen=           0 LWGrdD=           0 DoCopy=F.
 Enter PrismC: JobTyp=22 DoJE=F Cont=F.
 Linear combination for Coulomb/exchange, wScrn=  0.000000
 CW=    0.222036    0.777964
 WU=    0.000000   12.500000
 Enter PrismC: JobTyp=22 DoJE=F Cont=F.
 Linear combination for Coulomb/exchange, wScrn=  0.000000
 CW=    0.222036    0.777964
 WU=    0.000000   12.500000
 PrismC was handed    13027242 working-precision words and  3508 shell-pairs
 Enter PrismC: JobTyp=22 DoJE=F Cont=F.
 Linear combination for Coulomb/exchange, wScrn=  0.000000
 CW=    0.222036    0.777964
 WU=    0.000000   12.500000
 PrismC was handed    13027242 working-precision words and  3508 shell-pairs
 Enter PrismC: JobTyp=22 DoJE=F Cont=F.
 Linear combination for Coulomb/exchange, wScrn=  0.000000
 CW=    0.222036    0.777964
 WU=    0.000000   12.500000
 PrismC was handed    13027242 working-precision words and  3508 shell-pairs
 Enter PrismC: JobTyp=22 DoJE=F Cont=F.
 Linear combination for Coulomb/exchange, wScrn=  0.000000
 CW=    0.222036    0.777964
 WU=    0.000000   12.500000
 PrismC was handed    13027242 working-precision words and  3508 shell-pairs
 Enter PrismC: JobTyp=22 DoJE=F Cont=F.
 Linear combination for Coulomb/exchange, wScrn=  0.000000
 CW=    0.222036    0.777964
 WU=    0.000000   12.500000
 PrismC was handed    13027242 working-precision words and  3508 shell-pairs
 Enter PrismC: JobTyp=22 DoJE=F Cont=F.
 Linear combination for Coulomb/exchange, wScrn=  0.000000
 CW=    0.222036    0.777964
 WU=    0.000000   12.500000
 PrismC was handed    13027242 working-precision words and  3508 shell-pairs
 Enter PrismC: JobTyp=22 DoJE=F Cont=F.
 Linear combination for Coulomb/exchange, wScrn=  0.000000
 CW=    0.222036    0.777964
 WU=    0.000000   12.500000
 PrismC was handed    13027242 working-precision words and  3508 shell-pairs
 Enter PrismC: JobTyp=22 DoJE=F Cont=F.
 Enter PrismC: JobTyp=22 DoJE=F Cont=F.
 Enter PrismC: JobTyp=22 DoJE=F Cont=F.
 Linear combination for Coulomb/exchange, wScrn=  0.000000
 CW=    0.222036    0.777964
 WU=    0.000000   12.500000
 PrismC was handed    13027242 working-precision words and  3508 shell-pairs
 Enter PrismC: JobTyp=22 DoJE=F Cont=F.
 Linear combination for Coulomb/exchange, wScrn=  0.000000
 CW=    0.222036    0.777964
 WU=    0.000000   12.500000
 PrismC was handed    13027242 working-precision words and  3508 shell-pairs
 Enter PrismC: JobTyp=22 DoJE=F Cont=F.
 Linear combination for Coulomb/exchange, wScrn=  0.000000
 CW=    0.222036    0.777964
 WU=    0.000000   12.500000
 PrismC was handed    13027242 working-precision words and  3508 shell-pairs
 Enter PrismC: JobTyp=22 DoJE=F Cont=F.
 Linear combination for Coulomb/exchange, wScrn=  0.000000
 CW=    0.222036    0.777964
 WU=    0.000000   12.500000
 Enter PrismC: JobTyp=22 DoJE=F Cont=F.
 Linear combination for Coulomb/exchange, wScrn=  0.000000
 CW=    0.222036    0.777964
 WU=    0.000000   12.500000
 PrismC was handed    13027242 working-precision words and  3508 shell-pairs
 PrismC was handed    13027242 working-precision words and  3508 shell-pairs
 Enter PrismC: JobTyp=22 DoJE=F Cont=F.
 Linear combination for Coulomb/exchange, wScrn=  0.000000
 CW=    0.222036    0.777964
 WU=    0.000000   12.500000
 PrismC was handed    13027242 working-precision words and  3508 shell-pairs
 Enter PrismC: JobTyp=22 DoJE=F Cont=F.
 Linear combination for Coulomb/exchange, wScrn=  0.000000
 CW=    0.222036    0.777964
 WU=    0.000000   12.500000
 PrismC was handed    13027242 working-precision words and  3508 shell-pairs
 Enter PrismC: JobTyp=22 DoJE=F Cont=F.
 Linear combination for Coulomb/exchange, wScrn=  0.000000
 CW=    0.222036    0.777964
 WU=    0.000000   12.500000
 Enter PrismC: JobTyp=22 DoJE=F Cont=F.
 Linear combination for Coulomb/exchange, wScrn=  0.000000
 CW=    0.222036    0.777964
 WU=    0.000000   12.500000
 PrismC was handed    13027242 working-precision words and  3508 shell-pairs
 Enter PrismC: JobTyp=22 DoJE=F Cont=F.
 Linear combination for Coulomb/exchange, wScrn=  0.000000
 CW=    0.222036    0.777964
 WU=    0.000000   12.500000
 PrismC was handed    13027242 working-precision words and  3508 shell-pairs
 Linear combination for Coulomb/exchange, wScrn=  0.000000
 CW=    0.222036    0.777964
 WU=    0.000000   12.500000
 PrismC was handed    13027242 working-precision words and  3508 shell-pairs
 Enter PrismC: JobTyp=22 DoJE=F Cont=F.
 Linear combination for Coulomb/exchange, wScrn=  0.000000
 CW=    0.222036    0.777964
 WU=    0.000000   12.500000
 PrismC was handed    13027242 working-precision words and  3508 shell-pairs
 Enter PrismC: JobTyp=22 DoJE=F Cont=F.
 Linear combination for Coulomb/exchange, wScrn=  0.000000
 CW=    0.222036    0.777964
 WU=    0.000000   12.500000
 PrismC was handed    13027242 working-precision words and  3508 shell-pairs
 Enter PrismC: JobTyp=22 DoJE=F Cont=F.
 Linear combination for Coulomb/exchange, wScrn=  0.000000
 CW=    0.222036    0.777964
 WU=    0.000000   12.500000
 PrismC was handed    13027242 working-precision words and  3508 shell-pairs
 PrismC was handed    13027242 working-precision words and  3508 shell-pairs
 PrismC was handed    13027242 working-precision words and  3508 shell-pairs
 Enter PrismC: JobTyp=22 DoJE=F Cont=F.
 Linear combination for Coulomb/exchange, wScrn=  0.000000
 CW=    0.222036    0.777964
 WU=    0.000000   12.500000
 Enter PrismC: JobTyp=22 DoJE=F Cont=F.
 Linear combination for Coulomb/exchange, wScrn=  0.000000
 CW=    0.222036    0.777964
 WU=    0.000000   12.500000
 Linear combination for Coulomb/exchange, wScrn=  0.000000
 CW=    0.222036    0.777964
 WU=    0.000000   12.500000
 PrismC was handed    13027242 working-precision words and  3508 shell-pairs
 Enter PrismC: JobTyp=22 DoJE=F Cont=F.
 Linear combination for Coulomb/exchange, wScrn=  0.000000
 CW=    0.222036    0.777964
 WU=    0.000000   12.500000
 PrismC was handed    13027242 working-precision words and  3508 shell-pairs
 PrismC was handed    13027242 working-precision words and  3508 shell-pairs
 PrismC was handed    13027242 working-precision words and  3508 shell-pairs
 Enter PrismC: JobTyp=22 DoJE=F Cont=F.
 Linear combination for Coulomb/exchange, wScrn=  0.000000
 CW=    0.222036    0.777964
 WU=    0.000000   12.500000
 PrismC was handed    13027242 working-precision words and  3508 shell-pairs
 Enter PrismC: JobTyp=22 DoJE=F Cont=F.
 Linear combination for Coulomb/exchange, wScrn=  0.000000
 CW=    0.222036    0.777964
 WU=    0.000000   12.500000
 PrismC was handed    13027242 working-precision words and  3508 shell-pairs
 Enter PrismC: JobTyp=22 DoJE=F Cont=F.
 Linear combination for Coulomb/exchange, wScrn=  0.000000
 CW=    0.222036    0.777964
 WU=    0.000000   12.500000
 PrismC was handed    13027242 working-precision words and  3508 shell-pairs
 Enter PrismC: JobTyp=22 DoJE=F Cont=F.
 Linear combination for Coulomb/exchange, wScrn=  0.000000
 CW=    0.222036    0.777964
 WU=    0.000000   12.500000
 PrismC was handed    13027242 working-precision words and  3508 shell-pairs
 Enter PrismC: JobTyp=22 DoJE=F Cont=F.
 Linear combination for Coulomb/exchange, wScrn=  0.000000
 CW=    0.222036    0.777964
 WU=    0.000000   12.500000
 PrismC was handed    13027242 working-precision words and  3508 shell-pairs
 Enter PrismC: JobTyp=22 DoJE=F Cont=F.
 Linear combination for Coulomb/exchange, wScrn=  0.000000
 CW=    0.222036    0.777964
 WU=    0.000000   12.500000
 PrismC:  IPart=     0 DynPar=T LinDyn=F Incr=        1024 UseFst=F UseS4=T IGathr=2.
 PrismC was handed    13027242 working-precision words and  3508 shell-pairs
 IPart= 26 NShTot=      139854 NShNF=      139854 NShFF=           0 NBatch=        3596 AvBLen=        38.9
 IPart=  6 NShTot=       94772 NShNF=       94772 NShFF=           0 NBatch=        2939 AvBLen=        32.2
 IPart= 23 NShTot=      111546 NShNF=      111546 NShFF=           0 NBatch=        2997 AvBLen=        37.2
 IPart= 27 NShTot=      107416 NShNF=      107416 NShFF=           0 NBatch=        3404 AvBLen=        31.6
 IPart= 11 NShTot=      116241 NShNF=      116241 NShFF=           0 NBatch=        2858 AvBLen=        40.7
 IPart=  4 NShTot=      105246 NShNF=      105246 NShFF=           0 NBatch=        2048 AvBLen=        51.4
 IPart=  8 NShTot=      134456 NShNF=      134456 NShFF=           0 NBatch=        3367 AvBLen=        39.9
 IPart= 12 NShTot=      119860 NShNF=      119860 NShFF=           0 NBatch=        3033 AvBLen=        39.5
 IPart= 21 NShTot=      104379 NShNF=      104379 NShFF=           0 NBatch=        2635 AvBLen=        39.6
 IPart= 10 NShTot=      108312 NShNF=      108312 NShFF=           0 NBatch=        2678 AvBLen=        40.4
 IPart=  3 NShTot=      149986 NShNF=      149986 NShFF=           0 NBatch=        3631 AvBLen=        41.3
 IPart= 19 NShTot=      111286 NShNF=      111286 NShFF=           0 NBatch=        3095 AvBLen=        36.0
 IPart=  7 NShTot=      120712 NShNF=      120712 NShFF=           0 NBatch=        3474 AvBLen=        34.7
 IPart= 20 NShTot=      118157 NShNF=      118157 NShFF=           0 NBatch=        3249 AvBLen=        36.4
 IPart=  1 NShTot=      109698 NShNF=      109698 NShFF=           0 NBatch=        2734 AvBLen=        40.1
 IPart= 14 NShTot=      115660 NShNF=      115660 NShFF=           0 NBatch=        3436 AvBLen=        33.7
 IPart= 13 NShTot=      101269 NShNF=      101269 NShFF=           0 NBatch=        2699 AvBLen=        37.5
 IPart= 16 NShTot=      120585 NShNF=      120585 NShFF=           0 NBatch=        3247 AvBLen=        37.1
 IPart= 30 NShTot=      104882 NShNF=      104882 NShFF=           0 NBatch=        2666 AvBLen=        39.3
 IPart=  0 NShTot=      110719 NShNF=      110719 NShFF=           0 NBatch=        2791 AvBLen=        39.7
 IPart= 22 NShTot=      110039 NShNF=      110039 NShFF=           0 NBatch=        3073 AvBLen=        35.8
 IPart= 15 NShTot=      143811 NShNF=      143811 NShFF=           0 NBatch=        3541 AvBLen=        40.6
 IPart= 29 NShTot=      106849 NShNF=      106849 NShFF=           0 NBatch=        3262 AvBLen=        32.8
 IPart= 28 NShTot=      119809 NShNF=      119809 NShFF=           0 NBatch=        3143 AvBLen=        38.1
 IPart= 25 NShTot=      114911 NShNF=      114911 NShFF=           0 NBatch=        3030 AvBLen=        37.9
 IPart=  2 NShTot=      116630 NShNF=      116630 NShFF=           0 NBatch=        3270 AvBLen=        35.7
 IPart= 18 NShTot=      102019 NShNF=      102019 NShFF=           0 NBatch=        3326 AvBLen=        30.7
 IPart=  5 NShTot=      100471 NShNF=      100471 NShFF=           0 NBatch=        2579 AvBLen=        39.0
 IPart=  9 NShTot=      102646 NShNF=      102646 NShFF=           0 NBatch=        3096 AvBLen=        33.2
 IPart= 17 NShTot=      105200 NShNF=      105200 NShFF=           0 NBatch=        2761 AvBLen=        38.1
 IPart= 24 NShTot=      122101 NShNF=      122101 NShFF=           0 NBatch=        3144 AvBLen=        38.8
 IPart= 31 NShTot=       99508 NShNF=       99508 NShFF=           0 NBatch=        2892 AvBLen=        34.4
 CoulSu:  NxtVal=        6726657.
 ReadGW:  IGet=0 IStart=           1 Next=           1 LGW=           0.
 Remaining memory in FofDFT      399.83 Mw
 CkSvGd:  ISavGI=        -1 IRadAn=       5 IRASav=       5 ISavGd=        -1.
 CalDSu:  NPrtUS=  32 ThrOK=T IAlg=1 NPAlg=2 DoDPD=T LenP=       45150 LenD1P=             0.
 IPart=  0 IRanGd=          0 ScrnBf=T ScrnGd=T RCrit=4.00D+00 DoMicB=T.
 IPart= 26         7207 of         8778 points in      15 batches and       30 microbatches, Max-NSigAt=      12 Max-NSgAt2=      12
 IPart= 27         7549 of         8190 points in      15 batches and       69 microbatches, Max-NSigAt=      12 Max-NSgAt2=      12
 IPart=  4         6043 of         6574 points in      11 batches and       35 microbatches, Max-NSigAt=      12 Max-NSgAt2=      12
 IPart= 15         8408 of         9258 points in      16 batches and       71 microbatches, Max-NSigAt=      12 Max-NSgAt2=      12
 IPart= 19         5353 of         5926 points in      10 batches and       34 microbatches, Max-NSigAt=      12 Max-NSgAt2=      12
 IPart=  3         5458 of         6578 points in      11 batches and       18 microbatches, Max-NSigAt=      12 Max-NSgAt2=      12
 IPart= 21         9201 of        10430 points in      18 batches and       80 microbatches, Max-NSigAt=      12 Max-NSgAt2=      12
 IPart= 10         8156 of         8896 points in      16 batches and       55 microbatches, Max-NSigAt=      12 Max-NSgAt2=      12
 IPart=  9         7203 of         9570 points in      16 batches and       48 microbatches, Max-NSigAt=      12 Max-NSgAt2=      12
 IPart= 31         7773 of         8174 points in      14 batches and       61 microbatches, Max-NSigAt=      12 Max-NSgAt2=      12
 IPart= 13         7588 of        10740 points in      18 batches and       50 microbatches, Max-NSigAt=      12 Max-NSgAt2=      12
 IPart= 22         6985 of         7756 points in      13 batches and       47 microbatches, Max-NSigAt=      12 Max-NSgAt2=      12
 IPart=  1         8343 of         9458 points in      17 batches and       62 microbatches, Max-NSigAt=      12 Max-NSgAt2=      12
 IPart= 17         6646 of         6968 points in      12 batches and       28 microbatches, Max-NSigAt=      12 Max-NSgAt2=      12
 IPart=  5         9471 of         9914 points in      18 batches and       54 microbatches, Max-NSigAt=      12 Max-NSgAt2=      12
 IPart= 28         8106 of         8930 points in      15 batches and      101 microbatches, Max-NSigAt=      12 Max-NSgAt2=      12
 IPart=  7         7652 of         8146 points in      14 batches and       55 microbatches, Max-NSigAt=      12 Max-NSgAt2=      12
 IPart= 23         6632 of         7212 points in      13 batches and       39 microbatches, Max-NSigAt=      12 Max-NSgAt2=      12
 IPart= 20         8448 of         8942 points in      15 batches and       56 microbatches, Max-NSigAt=      12 Max-NSgAt2=      12
 IPart= 16         9962 of        11916 points in      20 batches and       59 microbatches, Max-NSigAt=      12 Max-NSgAt2=      12
 IPart=  8         7950 of         8292 points in      15 batches and       49 microbatches, Max-NSigAt=      12 Max-NSgAt2=      12
 IPart= 29         9334 of        10142 points in      17 batches and      103 microbatches, Max-NSigAt=      12 Max-NSgAt2=      12
 IPart=  2         7525 of         8380 points in      14 batches and       96 microbatches, Max-NSigAt=      12 Max-NSgAt2=      12
 IPart=  6         7836 of         8628 points in      15 batches and       64 microbatches, Max-NSigAt=      12 Max-NSgAt2=      12
 IPart= 11         7507 of         7910 points in      14 batches and       44 microbatches, Max-NSigAt=      12 Max-NSgAt2=      12
 IPart= 12         7789 of         9376 points in      16 batches and       41 microbatches, Max-NSigAt=      12 Max-NSgAt2=      12
 IPart= 30         9941 of        11696 points in      20 batches and       73 microbatches, Max-NSigAt=      12 Max-NSgAt2=      12
 IPart= 25         8144 of         9902 points in      17 batches and       43 microbatches, Max-NSigAt=      12 Max-NSgAt2=      12
 IPart=  0         8078 of         9070 points in      16 batches and       64 microbatches, Max-NSigAt=      12 Max-NSgAt2=      12
 IPart= 18         6470 of         7772 points in      13 batches and       24 microbatches, Max-NSigAt=      12 Max-NSgAt2=      11
 IPart= 14         7400 of         8342 points in      14 batches and       54 microbatches, Max-NSigAt=      12 Max-NSgAt2=      12
 IPart= 24         9190 of        10130 points in      17 batches and       73 microbatches, Max-NSigAt=      12 Max-NSgAt2=      12
 Polarizability after L703:
                1             2             3 
      1  0.462230D+02
      2  0.177823D+00  0.458113D+02
      3 -0.187231D+01 -0.237884D+00  0.547687D+02
 Dipole Derivatives after L703:
                 1             2             3             4             5 
      1   0.168975D+00 -0.134612D+00 -0.692565D-01 -0.270446D+00  0.283309D-01
      2  -0.130592D+00 -0.319481D+00 -0.416359D-01  0.208264D-01 -0.317349D+00
      3  -0.469061D-01 -0.561668D-01  0.862928D+00  0.816503D-01 -0.510808D-01
                 6             7             8             9            10 
      1   0.865100D-01 -0.519735D-01 -0.904141D-02 -0.857662D-03 -0.380912D-01
      2  -0.199201D-01  0.988961D-02  0.166158D+00  0.260624D-01  0.886394D-01
      3  -0.115977D+01  0.572466D-01  0.356439D-01  0.154750D-01 -0.541935D-01
                11            12            13            14            15 
      1   0.107124D+00  0.472841D-02  0.191561D+00  0.803041D-02 -0.212810D-01
      2   0.131782D+00  0.356984D-01  0.110787D-01  0.338992D+00 -0.313951D-03
      3   0.581779D-01 -0.225811D-01 -0.379735D-01  0.133080D-01  0.303878D+00
                16            17            18            19            20 
      1   0.953152D-01 -0.979797D-01 -0.313492D-01  0.430919D-01  0.257373D-01
      2  -0.948167D-01 -0.341148D+00 -0.135567D+00  0.160749D-01  0.123152D+00
      3  -0.277606D-01 -0.121986D+00  0.882735D-01  0.575697D-02 -0.180037D-01
                21            22            23            24            25 
      1   0.185334D-01 -0.808029D-01  0.263768D-01  0.386058D-01 -0.202847D-01
      2   0.286289D-01  0.175124D-01  0.133176D+00  0.429341D-01  0.566746D-01
      3  -0.122648D-01  0.674122D-01  0.384980D-01 -0.366691D-02 -0.503639D-01
                26            27            28            29            30 
      1   0.474620D-01 -0.222893D-01  0.810483D-01 -0.174903D-01  0.105079D-01
      2   0.111027D+00  0.700457D-01 -0.251207D-01 -0.577407D-01 -0.716270D-01
      3   0.771517D-01 -0.425679D-01  0.464161D-03 -0.109623D+00 -0.601208D-01
                31            32            33            34            35 
      1  -0.139760D-02  0.773109D-01 -0.245848D-01 -0.116995D+00 -0.612488D-01
      2   0.889291D-01 -0.278578D-01  0.558541D-01 -0.590954D-01  0.592898D-01
      3  -0.402273D-01  0.961403D-01  0.559334D-03  0.448947D-01  0.379408D-01
                36 
      1   0.107330D-01
      2   0.984059D-02
      3   0.298607D-01
 Hessian after L703:
                1             2             3             4             5 
      1  0.662012D+00
      2 -0.126463D+00  0.737325D-01
      3 -0.210798D-01 -0.560272D-01  0.603820D+00
      4 -0.987804D-01  0.174322D-01  0.233049D-01  0.571412D+00
      5  0.157953D-01 -0.759697D-02 -0.111184D-01 -0.528450D-01  0.152091D-01
      6 -0.246492D-01  0.699647D-02 -0.375652D+00 -0.155094D+00  0.598499D-02
      7 -0.317346D+00  0.135774D-01  0.110941D+00  0.665196D-02 -0.137550D-02
      8 -0.292321D-02 -0.958931D-02  0.746060D-02  0.153400D-03 -0.233495D-02
      9  0.939336D-01  0.470607D-02 -0.924772D-01  0.358057D-01 -0.575296D-03
     10 -0.244695D+00  0.956918D-01 -0.105638D+00  0.807739D-02 -0.644508D-03
     11  0.112966D+00 -0.546625D-01  0.587627D-01 -0.499426D-02  0.327899D-02
     12 -0.954951D-01  0.493066D-01 -0.112814D+00 -0.249401D-01  0.146197D-01
     13 -0.118975D-02 -0.238198D-03 -0.752945D-02 -0.487362D+00  0.390704D-01
     14  0.625559D-03 -0.188068D-02  0.919427D-03  0.402539D-01 -0.855492D-02
     15  0.472907D-01 -0.498116D-02 -0.228740D-01  0.120924D+00 -0.891002D-02
     16  0.000000D+00 -0.873016D-05  0.665420D-05 -0.426619D-05 -0.319711D-05
     17 -0.121187D-04 -0.372210D-04  0.346269D-04  0.197927D-05 -0.234149D-04
     18 -0.284184D-05 -0.876629D-05  0.218478D-04  0.194273D-05 -0.388453D-05
     19  0.383688D-05  0.000000D+00 -0.293113D-05 -0.396904D-05  0.000000D+00
     20 -0.171209D-05  0.000000D+00 -0.719839D-05 -0.173589D-05 -0.124281D-05
     21  0.000000D+00 -0.148164D-05  0.537162D-05  0.000000D+00  0.000000D+00
     22  0.000000D+00  0.684350D-05  0.195653D-05  0.465760D-05  0.378124D-05
     23  0.291978D-05  0.141421D-04 -0.123906D-04  0.158860D-05  0.793213D-05
     24  0.138101D-05  0.250690D-05 -0.345504D-05  0.000000D+00  0.226829D-05
     25  0.000000D+00  0.000000D+00 -0.717498D-05  0.000000D+00 -0.148305D-05
     26  0.663540D-05  0.149209D-04 -0.789255D-05 -0.210308D-05  0.113747D-04
     27  0.000000D+00  0.148979D-05 -0.494428D-05  0.000000D+00  0.000000D+00
     28  0.000000D+00 -0.113588D-05  0.289452D-05  0.000000D+00  0.000000D+00
     29 -0.156223D-05 -0.877304D-05  0.833661D-05  0.141637D-05 -0.506386D-05
     30  0.000000D+00 -0.651135D-05 -0.222651D-05  0.000000D+00 -0.478069D-05
     31  0.000000D+00  0.480890D-05 -0.154426D-04 -0.110566D-05  0.147360D-05
     32  0.291384D-05  0.583061D-05 -0.167531D-05  0.000000D+00  0.465285D-05
     33  0.000000D+00  0.715100D-05 -0.135583D-04  0.140066D-05  0.166565D-05
     34 -0.402605D-05 -0.271526D-05  0.150008D-04  0.531345D-05 -0.179451D-05
     35  0.235293D-05  0.831214D-05 -0.109093D-04  0.000000D+00  0.447815D-05
     36  0.324329D-05  0.491601D-05 -0.576987D-05 -0.253999D-05  0.343313D-05
                6             7             8             9            10 
      6  0.511342D+00
      7 -0.600017D-03  0.318613D+00
      8  0.154816D-02 -0.784117D-02  0.795761D-02
      9 -0.200418D-01 -0.117267D+00 -0.463737D-02  0.110003D+00
     10  0.474129D-02 -0.102231D-01  0.101272D-01 -0.124097D-01  0.244419D+00
     11 -0.170179D-04 -0.418626D-02  0.845653D-03 -0.496535D-03 -0.103581D+00
     12 -0.257404D-01  0.889168D-02 -0.447411D-02  0.893002D-02  0.114059D+00
     13  0.175603D+00  0.230323D-02  0.482766D-03 -0.629449D-04  0.242092D-02
     14 -0.145081D-01 -0.174845D-03  0.311997D-02  0.100307D-02 -0.159395D-02
     15 -0.899113D-01 -0.196614D-02  0.102685D-03 -0.641413D-02 -0.752336D-03
     16 -0.100224D-04  0.000000D+00  0.143002D-05  0.000000D+00  0.000000D+00
     17 -0.544748D-04  0.556483D-05  0.164083D-04  0.113250D-05  0.340416D-05
     18 -0.323601D-04  0.240346D-05  0.424320D-05  0.183211D-05  0.000000D+00
     19  0.420545D-05 -0.112813D-05 -0.228019D-05 -0.131907D-05 -0.102257D-05
     20  0.131043D-04  0.000000D+00  0.000000D+00 -0.185773D-05  0.178941D-05
     21 -0.490946D-05  0.000000D+00  0.000000D+00 -0.114314D-05  0.000000D+00
     22 -0.198658D-05  0.000000D+00  0.000000D+00  0.000000D+00  0.000000D+00
     23  0.190021D-04 -0.118468D-05 -0.485872D-05  0.000000D+00  0.000000D+00
     24  0.538048D-05  0.000000D+00 -0.114222D-05  0.000000D+00  0.000000D+00
     25  0.985399D-05  0.000000D+00  0.000000D+00  0.000000D+00  0.000000D+00
     26  0.139948D-04 -0.256806D-05 -0.760667D-05  0.000000D+00 -0.247347D-05
     27  0.748247D-05  0.000000D+00  0.000000D+00  0.000000D+00  0.000000D+00
     28 -0.466878D-05  0.000000D+00  0.000000D+00  0.000000D+00  0.000000D+00
     29 -0.167154D-04  0.000000D+00  0.413341D-05  0.208711D-05  0.000000D+00
     30  0.000000D+00  0.000000D+00  0.220687D-05  0.000000D+00  0.000000D+00
     31  0.232231D-04 -0.165732D-05 -0.217994D-05 -0.144087D-05  0.144718D-05
     32  0.350309D-05 -0.104527D-05 -0.296274D-05  0.000000D+00 -0.120062D-05
     33  0.197711D-04  0.000000D+00 -0.194547D-05  0.000000D+00  0.000000D+00
     34 -0.221335D-04  0.267593D-05  0.372603D-05  0.201256D-05  0.000000D+00
     35  0.171073D-04 -0.170691D-05 -0.379289D-05  0.000000D+00  0.000000D+00
     36  0.876265D-05 -0.152049D-05 -0.374311D-05  0.000000D+00 -0.112325D-05
               11            12            13            14            15 
     11  0.512245D-01
     12 -0.591093D-01  0.127869D+00
     13 -0.204099D-03 -0.251494D-02  0.483829D+00
     14 -0.688329D-03 -0.342983D-03 -0.391108D-01  0.800232D-02
     15  0.860153D-03  0.175532D-02 -0.165496D+00  0.129271D-01  0.117444D+00
     16  0.607942D-05  0.000000D+00  0.306348D-05  0.544594D-05  0.383345D-05
     17  0.166497D-04  0.000000D+00 -0.309282D-05  0.240753D-04  0.151926D-04
     18  0.512870D-05  0.000000D+00 -0.183938D-05  0.323385D-05  0.654816D-05
     19  0.182487D-05  0.000000D+00  0.136457D-05  0.000000D+00  0.000000D+00
     20  0.000000D+00 -0.139026D-05  0.000000D+00  0.203823D-05 -0.262327D-05
     21  0.108558D-05  0.000000D+00  0.000000D+00  0.000000D+00  0.000000D+00
     22 -0.437413D-05  0.000000D+00 -0.258534D-05 -0.617921D-05 -0.101355D-05
     23 -0.748366D-05  0.000000D+00  0.000000D+00 -0.912680D-05 -0.609218D-05
     24 -0.116175D-05  0.000000D+00  0.000000D+00 -0.261617D-05  0.000000D+00
     25 -0.144615D-05  0.000000D+00  0.000000D+00  0.175066D-05 -0.252876D-05
     26 -0.488841D-05  0.000000D+00  0.193381D-05 -0.112569D-04 -0.431369D-05
     27 -0.139557D-05  0.000000D+00  0.000000D+00  0.000000D+00 -0.157181D-05
     28  0.000000D+00  0.000000D+00  0.000000D+00  0.000000D+00  0.000000D+00
     29  0.440452D-05  0.143970D-05  0.000000D+00  0.489255D-05  0.393973D-05
     30  0.273420D-05  0.000000D+00  0.000000D+00  0.572788D-05  0.136516D-05
     31 -0.356563D-05  0.000000D+00  0.139278D-05  0.000000D+00 -0.449616D-05
     32 -0.202683D-05  0.000000D+00  0.000000D+00 -0.465511D-05 -0.107781D-05
     33 -0.536427D-05  0.000000D+00  0.000000D+00 -0.205752D-05 -0.484999D-05
     34  0.000000D+00  0.000000D+00 -0.352763D-05  0.000000D+00  0.340591D-05
     35 -0.419104D-05  0.000000D+00  0.000000D+00 -0.432970D-05 -0.376018D-05
     36 -0.100279D-05  0.000000D+00  0.182039D-05 -0.230798D-05 -0.187426D-05
               16            17            18            19            20 
     16  0.606927D+00
     17 -0.112178D+00  0.117901D+00
     18 -0.124929D-01 -0.132958D+00  0.521005D+00
     19 -0.960080D-01  0.154674D-02  0.402839D-01  0.563615D+00
     20  0.175511D-03 -0.532284D-01  0.452459D-01 -0.132468D-01  0.504207D+00
     21  0.384146D-01  0.386326D-01 -0.225462D+00  0.119146D-01 -0.213593D-01
     22 -0.320606D+00  0.298236D-01  0.861250D-01 -0.841644D-03 -0.230361D-04
     23  0.263295D-01 -0.166018D-01  0.590787D-02 -0.287071D-02  0.240165D-02
     24  0.834078D-01  0.588579D-02 -0.783555D-01  0.271185D-01 -0.102459D-02
     25 -0.191125D+00  0.815788D-01 -0.124340D+00  0.794078D-02 -0.344152D-02
     26  0.845411D-01 -0.555170D-01  0.817452D-01  0.728678D-03  0.182148D-02
     27 -0.122317D+00  0.791298D-01 -0.168982D+00 -0.197915D-01  0.114334D-01
     28  0.752595D-03  0.612184D-02  0.522757D-02 -0.448468D-01 -0.207247D-01
     29  0.258617D-02  0.957729D-02 -0.113497D-03 -0.234046D-01 -0.207557D+00
     30  0.468186D-03 -0.175411D-01 -0.257523D-01 -0.176433D-01 -0.119721D+00
     31  0.653784D-02 -0.627350D-02  0.217047D-02 -0.141573D+00  0.108863D+00
     32  0.243955D-02 -0.162477D-02  0.122716D-02  0.109938D+00 -0.178674D+00
     33 -0.211510D-01  0.206659D-01 -0.171813D-01 -0.589872D-01  0.755291D-01
     34 -0.647808D-02 -0.615463D-03  0.302674D-02 -0.288286D+00 -0.716019D-01
     35 -0.389510D-02 -0.502779D-03 -0.105463D-02 -0.726919D-01 -0.689701D-01
     36  0.336705D-01  0.618757D-02 -0.527011D-02  0.171040D-01  0.989604D-02
               21            22            23            24            25 
     21  0.482587D+00
     22 -0.182086D-02  0.332293D+00
     23  0.246522D-02 -0.293891D-01  0.110267D-01
     24 -0.236982D-02 -0.933057D-01 -0.627080D-02  0.768712D-01
     25  0.732764D-02 -0.120637D-01  0.981621D-02 -0.173375D-01  0.193161D+00
     26  0.123483D-02 -0.285164D-03  0.264717D-02  0.144914D-02 -0.869673D-01
     27 -0.104472D-01  0.767722D-02 -0.323187D-02  0.818874D-02  0.132238D+00
     28 -0.140645D-01 -0.407788D-03 -0.122998D-02 -0.433335D-04  0.183066D-03
     29 -0.106537D+00 -0.232083D-03 -0.274198D-03 -0.477288D-03  0.104884D-03
     30 -0.115472D+00  0.113748D-03  0.367363D-03 -0.731609D-03  0.462889D-03
     31 -0.582051D-01  0.703997D-03 -0.826246D-03 -0.673646D-03  0.711507D-03
     32  0.755917D-01 -0.207610D-03  0.417648D-03  0.107620D-03 -0.901870D-03
     33 -0.827832D-01  0.321671D-03 -0.101067D-02  0.140542D-02  0.251995D-02
     34  0.164336D-01  0.919877D-03 -0.183158D-02  0.833177D-03  0.119207D-02
     35  0.997160D-02  0.313648D-03  0.382211D-03  0.330268D-03 -0.188625D-03
     36 -0.460526D-01  0.889322D-03  0.177240D-02 -0.500864D-02 -0.871291D-03
               26            27            28            29            30 
     26  0.519846D-01
     27 -0.865843D-01  0.175028D+00
     28  0.713272D-03  0.796323D-04  0.463255D-01
     29 -0.954170D-03 -0.401866D-03  0.249392D-01  0.227955D+00
     30  0.712927D-03 -0.685679D-03  0.155429D-01  0.125362D+00  0.134115D+00
     31  0.563792D-03  0.164338D-02  0.189437D-02 -0.297055D-02  0.128144D-02
     32  0.599394D-04 -0.164313D-03  0.167882D-01 -0.202412D-01  0.978635D-02
     33  0.179338D-02 -0.448150D-02  0.109665D-01 -0.128585D-01  0.721440D-02
     34  0.704175D-03  0.470459D-03 -0.390108D-02 -0.102217D-02 -0.224958D-03
     35 -0.446159D-04 -0.180680D-03 -0.266077D-01 -0.850588D-02  0.103395D-02
     36 -0.352366D-03  0.138034D-02 -0.177084D-01 -0.497289D-02  0.131198D-02
               31            32            33            34            35 
     31  0.147416D+00
     32 -0.121879D+00  0.191933D+00
     33  0.649414D-01 -0.813680D-01  0.960465D-01
     34 -0.156916D-01 -0.617797D-02  0.138765D-02  0.312244D+00
     35  0.225233D-01  0.812904D-02 -0.275064D-02  0.805455D-01  0.695117D-01
     36 -0.111588D-01 -0.518111D-02 -0.220965D-03 -0.219252D-01 -0.735094D-02
               36 
     36  0.538591D-01
 FrcOut:
 IF    =    64 IFX   =   100 IFXYZ =   136
 IFFX  =   172 IFFFX =   838 IFLen =    36
 IFFLen=   666 IFFFLn=     0 IEDerv=   838
 LEDerv=  1781 IFroze=  3025 ICStrt=147350
 DipoleDeriv   = 1.68974533D-01-1.30592387D-01-4.69061155D-02
                -1.34611876D-01-3.19481151D-01-5.61668446D-02
                -6.92564711D-02-4.16358652D-02 8.62928227D-01
                -2.70445976D-01 2.08264066D-02 8.16502773D-02
                 2.83308901D-02-3.17348773D-01-5.10808416D-02
                 8.65099639D-02-1.99201126D-02-1.15977320D+00
                -5.19734901D-02 9.88961248D-03 5.72466013D-02
                -9.04141327D-03 1.66157794D-01 3.56439064D-02
                -8.57662049D-04 2.60623607D-02 1.54750035D-02
                -3.80912044D-02 8.86394398D-02-5.41935099D-02
                 1.07123869D-01 1.31782092D-01 5.81779311D-02
                 4.72840887D-03 3.56984308D-02-2.25811150D-02
                 1.91561300D-01 1.10786591D-02-3.79734592D-02
                 8.03041001D-03 3.38992138D-01 1.33079728D-02
                -2.12810167D-02-3.13950864D-04 3.03878041D-01
                 9.53152049D-02-9.48166620D-02-2.77605825D-02
                -9.79797471D-02-3.41148393D-01-1.21985681D-01
                -3.13492362D-02-1.35567297D-01 8.82734914D-02
                 4.30919016D-02 1.60748590D-02 5.75696725D-03
                 2.57372557D-02 1.23152113D-01-1.80037318D-02
                 1.85334041D-02 2.86289044D-02-1.22648473D-02
                -8.08029271D-02 1.75124060D-02 6.74121778D-02
                 2.63767536D-02 1.33176022D-01 3.84979867D-02
                 3.86058224D-02 4.29340872D-02-3.66691269D-03
                -2.02846797D-02 5.66746003D-02-5.03638708D-02
                 4.74620141D-02 1.11026920D-01 7.71517020D-02
                -2.22892873D-02 7.00457378D-02-4.25679069D-02
                 8.10482504D-02-2.51207042D-02 4.64161263D-04
                -1.74902767D-02-5.77407489D-02-1.09623469D-01
                 1.05078924D-02-7.16269511D-02-6.01207692D-02
                -1.39760255D-03 8.89291414D-02-4.02273412D-02
                 7.73108964D-02-2.78578038D-02 9.61403064D-02
                -2.45847751D-02 5.58540707D-02 5.59334058D-04
                -1.16995310D-01-5.90953720D-02 4.48946940D-02
                -6.12487749D-02 5.92897914D-02 3.79407623D-02
                 1.07329569D-02 9.84058504D-03 2.98606580D-02
 VibFq2-Diag1:  N=     36 IV=          13 MDV=   419278278 NE2=    11646618
 Full mass-weighted force constant matrix:
 Low frequencies ---  -31.9575  -12.0355   -1.0794   -0.7550   -0.0012   -0.0011
 Low frequencies ---    0.0009    0.9826   11.1847
 OrtVCM:  Ph=1 IPass= 1 DotMx1= 0.00D+00
 OrtVCM:  IS=    1 I=    1 IndO=    1 Dot= 1.00D+00 DotN= 1.00D+00 ElMax1= 5.16D-01 ElMax1N= 5.16D-01
 OrtVCM:  Ph=2 NNew=    0 IAdd=    2 IPass= 1 DotMx2= 0.00D+00
 OrtVCM:  IS=    1 I=    2 IndO=    2 Dot= 1.00D+00 DotN= 1.00D+00 ElMax1= 5.16D-01 ElMax1N= 5.16D-01
 OrtVCM:  Ph=2 NNew=    0 IAdd=    3 IPass= 1 DotMx2= 0.00D+00
 OrtVCM:  IS=    1 I=    3 IndO=    3 Dot= 1.00D+00 DotN= 1.00D+00 ElMax1= 5.16D-01 ElMax1N= 5.16D-01
 OrtVCM:  Ph=2 NNew=    0 IAdd=    4 IPass= 1 DotMx2= 2.50D-16
 OrtVCM:  IS=    1 I=    4 IndO=    4 Dot= 1.00D+00 DotN= 1.00D+00 ElMax1= 4.10D-01 ElMax1N= 4.10D-01
 OrtVCM:  Ph=2 NNew=    0 IAdd=    5 IPass= 1 DotMx2= 1.39D-16
 OrtVCM:  IS=    1 I=    5 IndO=    5 Dot= 1.00D+00 DotN= 1.00D+00 ElMax1= 5.02D-01 ElMax1N= 5.02D-01
 OrtVCM:  Ph=2 NNew=    0 IAdd=    6 IPass= 1 DotMx2= 1.12D-15
 OrtVCM:  IS=    1 I=    6 IndO=    6 Dot= 1.00D+00 DotN= 1.00D+00 ElMax1= 4.20D-01 ElMax1N= 4.20D-01
 OrtVCM:  Ph=1 IPass= 1 DotMx1= 5.16D-01
 OrtVCM:  Ph=1 IPass= 2 DotMx1= 1.48D-16
 OrtVCM:  IS=    1 I=    1 IndO=    7 Dot= 5.17D-01 DotN= 5.17D-01 ElMax1= 5.17D-01 ElMax1N= 5.17D-01
 OrtVCM:  Ph=2 NNew=    0 IAdd=    2 IPass= 1 DotMx2= 7.70D-02
 OrtVCM:  Ph=2 NNew=    0 IAdd=    2 IPass= 2 DotMx2= 4.86D-17
 OrtVCM:  IS=    1 I=    2 IndO=    8 Dot= 7.58D-01 DotN= 7.58D-01 ElMax1= 7.58D-01 ElMax1N= 7.58D-01
 OrtVCM:  Ph=2 NNew=    0 IAdd=    3 IPass= 1 DotMx2= 6.49D-02
 OrtVCM:  Ph=2 NNew=    0 IAdd=    3 IPass= 2 DotMx2= 1.39D-17
 OrtVCM:  IS=    1 I=    3 IndO=    9 Dot= 6.60D-01 DotN= 6.60D-01 ElMax1= 6.60D-01 ElMax1N= 6.60D-01
 OrtVCM:  Ph=2 NNew=    0 IAdd=    4 IPass= 1 DotMx2= 4.39D-01
 OrtVCM:  Ph=2 NNew=    0 IAdd=    4 IPass= 2 DotMx2= 1.73D-16
 OrtVCM:  IS=    1 I=    4 IndO=   10 Dot= 1.57D-01 DotN= 1.57D-01 ElMax1= 2.20D-01 ElMax1N= 2.20D-01
 OrtVCM:  Ph=2 NNew=    0 IAdd=    5 IPass= 1 DotMx2= 3.24D-01
 OrtVCM:  Ph=2 NNew=    0 IAdd=    5 IPass= 2 DotMx2= 1.87D-16
 OrtVCM:  IS=    1 I=    5 IndO=   11 Dot= 4.63D-01 DotN= 4.63D-01 ElMax1= 4.63D-01 ElMax1N= 4.63D-01
 OrtVCM:  Ph=2 NNew=    0 IAdd=    6 IPass= 1 DotMx2= 4.83D-01
 OrtVCM:  Ph=2 NNew=    0 IAdd=    6 IPass= 2 DotMx2= 1.73D-16
 OrtVCM:  IS=    1 I=    6 IndO=   12 Dot= 2.03D-01 DotN= 2.03D-01 ElMax1= 2.11D-01 ElMax1N= 2.11D-01
 OrtVCM:  Ph=2 NNew=    0 IAdd=    7 IPass= 1 DotMx2= 4.24D-01
 OrtVCM:  Ph=2 NNew=    0 IAdd=    7 IPass= 2 DotMx2= 8.33D-17
 OrtVCM:  IS=    1 I=    7 IndO=   13 Dot= 6.94D-01 DotN= 6.94D-01 ElMax1= 6.94D-01 ElMax1N= 6.94D-01
 OrtVCM:  Ph=2 NNew=    0 IAdd=    8 IPass= 1 DotMx2= 1.83D-01
 OrtVCM:  Ph=2 NNew=    0 IAdd=    8 IPass= 2 DotMx2= 9.71D-17
 OrtVCM:  IS=    1 I=    8 IndO=   14 Dot= 8.72D-01 DotN= 8.72D-01 ElMax1= 8.72D-01 ElMax1N= 8.72D-01
 OrtVCM:  Ph=2 NNew=    0 IAdd=    9 IPass= 1 DotMx2= 4.67D-01
 OrtVCM:  Ph=2 NNew=    0 IAdd=    9 IPass= 2 DotMx2= 5.55D-17
 OrtVCM:  IS=    1 I=    9 IndO=   15 Dot= 6.83D-01 DotN= 6.83D-01 ElMax1= 6.83D-01 ElMax1N= 6.83D-01
 OrtVCM:  Ph=2 NNew=    0 IAdd=   10 IPass= 1 DotMx2= 4.26D-01
 OrtVCM:  Ph=2 NNew=    0 IAdd=   10 IPass= 2 DotMx2= 1.80D-16
 OrtVCM:  IS=    1 I=   10 IndO=   16 Dot= 4.87D-01 DotN= 4.87D-01 ElMax1= 4.87D-01 ElMax1N= 4.87D-01
 OrtVCM:  Ph=2 NNew=    0 IAdd=   11 IPass= 1 DotMx2= 1.63D-01
 OrtVCM:  Ph=2 NNew=    0 IAdd=   11 IPass= 2 DotMx2= 3.47D-17
 OrtVCM:  IS=    1 I=   11 IndO=   17 Dot= 8.98D-01 DotN= 8.98D-01 ElMax1= 8.98D-01 ElMax1N= 8.98D-01
 OrtVCM:  Ph=2 NNew=    0 IAdd=   12 IPass= 1 DotMx2= 4.41D-01
 OrtVCM:  Ph=2 NNew=    0 IAdd=   12 IPass= 2 DotMx2= 5.55D-17
 OrtVCM:  IS=    1 I=   12 IndO=   18 Dot= 6.14D-01 DotN= 6.14D-01 ElMax1= 6.14D-01 ElMax1N= 6.14D-01
 OrtVCM:  Ph=2 NNew=    0 IAdd=   13 IPass= 1 DotMx2= 6.27D-01
 OrtVCM:  Ph=2 NNew=    0 IAdd=   13 IPass= 2 DotMx2= 2.15D-16
 OrtVCM:  IS=    1 I=   13 IndO=   19 Dot= 5.86D-02 DotN= 5.86D-02 ElMax1= 1.05D-01 ElMax1N= 1.05D-01
 OrtVCM:  Ph=2 NNew=    0 IAdd=   14 IPass= 1 DotMx2= 3.24D-01
 OrtVCM:  Ph=2 NNew=    0 IAdd=   14 IPass= 2 DotMx2= 1.39D-16
 OrtVCM:  IS=    1 I=   14 IndO=   20 Dot= 5.85D-01 DotN= 5.85D-01 ElMax1= 5.85D-01 ElMax1N= 5.85D-01
 OrtVCM:  Ph=2 NNew=    0 IAdd=   15 IPass= 1 DotMx2= 4.76D-01
 OrtVCM:  Ph=2 NNew=    0 IAdd=   15 IPass= 2 DotMx2= 1.11D-16
 OrtVCM:  IS=    1 I=   15 IndO=   21 Dot= 1.85D-01 DotN= 1.85D-01 ElMax1= 1.92D-01 ElMax1N= 1.92D-01
 OrtVCM:  Ph=2 NNew=    0 IAdd=   16 IPass= 1 DotMx2= 1.67D-01
 OrtVCM:  Ph=2 NNew=    0 IAdd=   16 IPass= 2 DotMx2= 8.33D-17
 OrtVCM:  IS=    1 I=   16 IndO=   22 Dot= 3.04D-01 DotN= 3.04D-01 ElMax1= 3.04D-01 ElMax1N= 3.04D-01
 OrtVCM:  Ph=2 NNew=    0 IAdd=   17 IPass= 1 DotMx2= 4.47D-01
 OrtVCM:  Ph=2 NNew=    0 IAdd=   17 IPass= 2 DotMx2= 1.25D-16
 OrtVCM:  IS=    1 I=   17 IndO=   23 Dot= 2.76D-01 DotN= 2.76D-01 ElMax1= 2.77D-01 ElMax1N= 2.77D-01
 OrtVCM:  Ph=2 NNew=    0 IAdd=   18 IPass= 1 DotMx2= 1.75D-01
 OrtVCM:  Ph=2 NNew=    0 IAdd=   18 IPass= 2 DotMx2= 5.20D-17
 OrtVCM:  IS=    1 I=   18 IndO=   24 Dot= 5.31D-01 DotN= 5.31D-01 ElMax1= 5.31D-01 ElMax1N= 5.31D-01
 OrtVCM:  Ph=2 NNew=    0 IAdd=   19 IPass= 1 DotMx2= 2.77D-01
 OrtVCM:  Ph=2 NNew=    0 IAdd=   19 IPass= 2 DotMx2= 9.37D-17
 OrtVCM:  IS=    1 I=   19 IndO=   25 Dot= 2.68D-01 DotN= 2.68D-01 ElMax1= 2.68D-01 ElMax1N= 2.68D-01
 OrtVCM:  Ph=2 NNew=    0 IAdd=   20 IPass= 1 DotMx2= 4.10D-01
 OrtVCM:  Ph=2 NNew=    0 IAdd=   20 IPass= 2 DotMx2= 9.71D-17
 OrtVCM:  IS=    1 I=   20 IndO=   26 Dot= 2.63D-01 DotN= 2.63D-01 ElMax1= 2.63D-01 ElMax1N= 2.63D-01
 OrtVCM:  Ph=2 NNew=    0 IAdd=   21 IPass= 1 DotMx2= 4.94D-01
 OrtVCM:  Ph=2 NNew=    0 IAdd=   21 IPass= 2 DotMx2= 7.63D-17
 OrtVCM:  IS=    1 I=   21 IndO=   27 Dot= 2.91D-01 DotN= 2.91D-01 ElMax1= 2.91D-01 ElMax1N= 2.91D-01
 OrtVCM:  Ph=2 NNew=    0 IAdd=   22 IPass= 1 DotMx2= 4.30D-01
 OrtVCM:  Ph=2 NNew=    0 IAdd=   22 IPass= 2 DotMx2= 1.39D-16
 OrtVCM:  IS=    1 I=   22 IndO=   28 Dot= 6.54D-01 DotN= 6.54D-01 ElMax1= 6.54D-01 ElMax1N= 6.54D-01
 OrtVCM:  Ph=2 NNew=    0 IAdd=   23 IPass= 1 DotMx2= 5.28D-01
 OrtVCM:  Ph=2 NNew=    0 IAdd=   23 IPass= 2 DotMx2= 1.32D-16
 OrtVCM:  IS=    1 I=   23 IndO=   29 Dot= 3.90D-01 DotN= 3.90D-01 ElMax1= 3.90D-01 ElMax1N= 3.90D-01
 OrtVCM:  Ph=2 NNew=    0 IAdd=   24 IPass= 1 DotMx2= 3.36D-01
 OrtVCM:  Ph=2 NNew=    0 IAdd=   24 IPass= 2 DotMx2= 5.55D-17
 OrtVCM:  IS=    1 I=   24 IndO=   30 Dot= 6.02D-01 DotN= 6.02D-01 ElMax1= 6.02D-01 ElMax1N= 6.02D-01
 OrtVCM:  Ph=2 NNew=    0 IAdd=   25 IPass= 1 DotMx2= 5.13D-01
 OrtVCM:  Ph=2 NNew=    0 IAdd=   25 IPass= 2 DotMx2= 2.08D-16
 OrtVCM:  IS=    1 I=   25 IndO=   31 Dot= 1.82D-01 DotN= 1.82D-01 ElMax1= 2.48D-01 ElMax1N= 2.48D-01
 OrtVCM:  Ph=2 NNew=    0 IAdd=   26 IPass= 1 DotMx2= 5.14D-01
 OrtVCM:  Ph=2 NNew=    0 IAdd=   26 IPass= 2 DotMx2= 1.34D-16
 OrtVCM:  IS=    1 I=   26 IndO=   32 Dot= 2.26D-01 DotN= 2.26D-01 ElMax1= 2.28D-01 ElMax1N= 2.28D-01
 OrtVCM:  Ph=2 NNew=    0 IAdd=   27 IPass= 1 DotMx2= 3.70D-01
 OrtVCM:  Ph=2 NNew=    0 IAdd=   27 IPass= 2 DotMx2= 1.11D-16
 OrtVCM:  IS=    1 I=   27 IndO=   33 Dot= 5.82D-01 DotN= 5.82D-01 ElMax1= 5.82D-01 ElMax1N= 5.82D-01
 OrtVCM:  Ph=2 NNew=    0 IAdd=   28 IPass= 1 DotMx2= 4.45D-01
 OrtVCM:  Ph=2 NNew=    0 IAdd=   28 IPass= 2 DotMx2= 1.25D-16
 OrtVCM:  IS=    1 I=   28 IndO=   34 Dot= 3.31D-01 DotN= 3.31D-01 ElMax1= 3.31D-01 ElMax1N= 3.31D-01
 OrtVCM:  Ph=2 NNew=    0 IAdd=   29 IPass= 1 DotMx2= 4.80D-01
 OrtVCM:  Ph=2 NNew=    0 IAdd=   29 IPass= 2 DotMx2= 2.50D-16
 OrtVCM:  IS=    1 I=   29 IndO=   35 Dot= 6.14D-01 DotN= 6.14D-01 ElMax1= 6.14D-01 ElMax1N= 6.14D-01
 OrtVCM:  Ph=2 NNew=    0 IAdd=   30 IPass= 1 DotMx2= 5.68D-01
 OrtVCM:  Ph=2 NNew=    0 IAdd=   30 IPass= 2 DotMx2= 1.54D-16
 OrtVCM:  IS=    1 I=   30 IndO=    0 Dot= 6.16D-30 DotN= 6.16D-30 ElMax1= 1.36D-15 ElMax1N= 1.36D-15
 SchOr2:  IPass= 1 Test2A= 1.00D-01 IOff=     0 NDo=    30 NNew=    29
 OrtVCM:  Ph=1 IPass= 1 DotMx1= 4.69D-01
 OrtVCM:  Ph=1 IPass= 2 DotMx1= 2.71D-16
 OrtVCM:  IS=    1 I=    1 IndO=   36 Dot= 4.48D-01 DotN= 4.48D-01 ElMax1= 4.48D-01 ElMax1N= 4.48D-01
 SchOr2:  IPass= 1 Test2A= 1.00D-01 IOff=    30 NDo=     1 NNew=     1
 VibFq2-Diag2:  N=     30 IV=          13 MDV=   419278278 NE2=    13975942
 ******    2 imaginary frequencies (negative Signs) ****** 
 Dipole derivatives wrt mode   1:  1.76192D-01 -3.88686D-01  1.21835D-01
 Vibrational polarizability contributions from mode   1       0.8250432       4.0151215       0.3944969
 Vibrational hyperpolarizability contributions from mode   1       0.0000000      -0.0000000       0.0000000
 Dipole derivatives wrt mode   2:  3.27207D-01  1.73729D-01 -1.50051D-01
 Vibrational polarizability contributions from mode   2      20.6430137       5.8193082       4.3411817
 Vibrational hyperpolarizability contributions from mode   2       0.0000000       0.0000000      -0.0000000
 Dipole derivatives wrt mode   3:  1.99272D-02  3.15753D-02 -3.63499D-03
 Vibrational polarizability contributions from mode   3      21.7971146      54.7273575       0.7252942
 Vibrational hyperpolarizability contributions from mode   3       0.0000000       0.0000000      -0.0000000
 Dipole derivatives wrt mode   4: -2.76127D-01 -3.72423D-01 -1.77508D+00
 Vibrational polarizability contributions from mode   4      13.3696145      24.3205208     552.5079102
 Vibrational hyperpolarizability contributions from mode   4      -0.0000000      -0.0000000      -0.0000000
 Dipole derivatives wrt mode   5:  4.81281D-01  1.49075D+00  1.04722D-02
 Vibrational polarizability contributions from mode   5      10.3046220      98.8652696       0.0048788
 Vibrational hyperpolarizability contributions from mode   5       0.0000000       0.0000000       0.0000000
 Dipole derivatives wrt mode   6: -1.92543D+00 -5.42977D+00 -3.43622D-01
 Vibrational polarizability contributions from mode   6      43.9808624     349.7623523       1.4007831
 Vibrational hyperpolarizability contributions from mode   6      -0.0000000      -0.0000000      -0.0000000
 Dipole derivatives wrt mode   7:  5.35176D-03 -1.07364D-01 -4.88235D-03
 Vibrational polarizability contributions from mode   7       0.0000775       0.0311946       0.0000645
 Vibrational hyperpolarizability contributions from mode   7       0.0000000      -0.0000000      -0.0000000
 Dipole derivatives wrt mode   8:  1.08269D+00 -5.76062D+00  2.09092D-01
 Vibrational polarizability contributions from mode   8       0.1819599       5.1512087       0.0067865
 Vibrational hyperpolarizability contributions from mode   8       0.0000000      -0.0000000       0.0000000
 Dipole derivatives wrt mode   9: -1.45143D+00 -7.19839D+00 -2.39813D+00
 Vibrational polarizability contributions from mode   9       0.2434422       5.9878679       0.6645824
 Vibrational hyperpolarizability contributions from mode   9      -0.0000000      -0.0000000      -0.0000000
 Dipole derivatives wrt mode  10:  1.58724D+00  1.05324D+01  1.51742D+00
 Vibrational polarizability contributions from mode  10       0.2335366      10.2830493       0.2134410
 Vibrational hyperpolarizability contributions from mode  10       0.0000000       0.0000000       0.0000000
 Dipole derivatives wrt mode  11:  1.26291D+00 -3.39510D-01  2.58183D-01
 Vibrational polarizability contributions from mode  11       0.0640136       0.0046263       0.0026754
 Vibrational hyperpolarizability contributions from mode  11       0.0000000      -0.0000000       0.0000000
 Dipole derivatives wrt mode  12:  1.68298D-01  6.78656D-02 -7.63961D-01
 Vibrational polarizability contributions from mode  12       0.0007920       0.0001288       0.0163188
 Vibrational hyperpolarizability contributions from mode  12       0.0000000       0.0000000      -0.0000000
 Dipole derivatives wrt mode  13:  4.54517D-01 -2.21466D-01 -6.84840D+00
 Vibrational polarizability contributions from mode  13       0.0048835       0.0011594       1.1086855
 Vibrational hyperpolarizability contributions from mode  13       0.0000000      -0.0000000      -0.0000000
 Dipole derivatives wrt mode  14: -7.97996D-02 -1.14722D-01  2.42070D-01
 Vibrational polarizability contributions from mode  14       0.0001480       0.0003059       0.0013618
 Vibrational hyperpolarizability contributions from mode  14      -0.0000000      -0.0000000       0.0000000
 Dipole derivatives wrt mode  15:  1.42785D+00 -3.80006D-01  2.94612D-01
 Vibrational polarizability contributions from mode  15       0.0381990       0.0027056       0.0016262
 Vibrational hyperpolarizability contributions from mode  15       0.0000000      -0.0000000       0.0000000
 Dipole derivatives wrt mode  16: -1.61246D-01 -1.74887D-01  1.06908D+01
 Vibrational polarizability contributions from mode  16       0.0004600       0.0005411       2.0220038
 Vibrational hyperpolarizability contributions from mode  16      -0.0000000      -0.0000000       0.0000000
 Dipole derivatives wrt mode  17: -2.33821D+00  6.52325D-01 -4.65877D+00
 Vibrational polarizability contributions from mode  17       0.0786976       0.0061252       0.3124193
 Vibrational hyperpolarizability contributions from mode  17      -0.0000000       0.0000000      -0.0000000
 Dipole derivatives wrt mode  18:  2.44424D-01 -2.66357D-01 -1.57220D+00
 Vibrational polarizability contributions from mode  18       0.0008142       0.0009669       0.0336870
 Vibrational hyperpolarizability contributions from mode  18       0.0000000      -0.0000000      -0.0000000
 Dipole derivatives wrt mode  19: -2.35155D-01 -1.53938D+00 -9.04432D-01
 Vibrational polarizability contributions from mode  19       0.0006873       0.0294546       0.0101675
 Vibrational hyperpolarizability contributions from mode  19      -0.0000000      -0.0000000      -0.0000000
 Dipole derivatives wrt mode  20:  2.39756D+00 -6.66295D-01  4.93241D-01
 Vibrational polarizability contributions from mode  20       0.0699774       0.0054045       0.0029617
 Vibrational hyperpolarizability contributions from mode  20       0.0000000      -0.0000000       0.0000000
 Dipole derivatives wrt mode  21:  4.33732D-01  1.75644D+00  2.68523D-01
 Vibrational polarizability contributions from mode  21       0.0022814       0.0374126       0.0008744
 Vibrational hyperpolarizability contributions from mode  21       0.0000000       0.0000000       0.0000000
 Dipole derivatives wrt mode  22: -2.40864D-01  6.59023D-01  3.08759D+00
 Vibrational polarizability contributions from mode  22       0.0007005       0.0052442       0.1151113
 Vibrational hyperpolarizability contributions from mode  22      -0.0000000       0.0000000       0.0000000
 Dipole derivatives wrt mode  23:  3.60490D-01 -2.01247D+00 -4.51489D+00
 Vibrational polarizability contributions from mode  23       0.0003929       0.0122451       0.0616307
 Vibrational hyperpolarizability contributions from mode  23       0.0000000      -0.0000000      -0.0000000
 Dipole derivatives wrt mode  24:  1.39141D+00  3.83778D+00 -1.90629D+00
 Vibrational polarizability contributions from mode  24       0.0055323       0.0420883       0.0103844
 Vibrational hyperpolarizability contributions from mode  24       0.0000000       0.0000000      -0.0000000
 Dipole derivatives wrt mode  25:  4.05641D+00 -1.09416D+00  8.17061D-01
 Vibrational polarizability contributions from mode  25       0.0456281       0.0033198       0.0018512
 Vibrational hyperpolarizability contributions from mode  25       0.0000000      -0.0000000       0.0000000
 Dipole derivatives wrt mode  26:  8.48255D-01 -1.02812D+00  4.16843D+00
 Vibrational polarizability contributions from mode  26       0.0019540       0.0028706       0.0471866
 Vibrational hyperpolarizability contributions from mode  26       0.0000000      -0.0000000       0.0000000
 Dipole derivatives wrt mode  27: -1.02906D+00 -1.04496D+00  3.51051D+00
 Vibrational polarizability contributions from mode  27       0.0028478       0.0029365       0.0331416
 Vibrational hyperpolarizability contributions from mode  27      -0.0000000      -0.0000000       0.0000000
 Dipole derivatives wrt mode  28:  3.43259D+00 -9.21229D-01  6.97401D-01
 Vibrational polarizability contributions from mode  28       0.0297224       0.0021408       0.0012269
 Vibrational hyperpolarizability contributions from mode  28       0.0000000      -0.0000000       0.0000000
 Dipole derivatives wrt mode  29:  3.00231D+00 -7.69225D-01 -1.28442D-01
 Vibrational polarizability contributions from mode  29       0.0223986       0.0014703       0.0000410
 Vibrational hyperpolarizability contributions from mode  29       0.0000000      -0.0000000      -0.0000000
 Dipole derivatives wrt mode  30: -6.07588D+00  5.29265D-01  5.33341D+00
 Vibrational polarizability contributions from mode  30       0.0648246       0.0004919       0.0499496
 Vibrational hyperpolarizability contributions from mode  30      -0.0000000       0.0000000       0.0000000
 Diagonal vibrational polarizability:
      112.0142420     559.1248887     564.0927241
 NorSel:  MapVib=      1      2      3      4      5      6      7      8      9     10
 NorSel:  MapVib=     11     12     13     14     15     16     17     18     19     20
 NorSel:  MapVib=     21     22     23     24     25     26     27     28     29     30
 Harmonic frequencies (cm**-1), IR intensities (KM/Mole), Raman scattering
 activities (A**4/AMU), depolarization ratios for plane and unpolarized
 incident light, reduced masses (AMU), force constants (mDyne/A),
 and normal coordinates:
                      1                      2                      3
                      A                      A                      A
 Frequencies --    -31.8211               -11.8142                 0.7002
 Red. masses --      1.3551                 1.4542                 4.9278
 Frc consts  --      0.0008                 0.0001                 0.0000
 IR Inten    --  0.1970                 0.1598                 0.1407E-02
  Atom  AN      X      Y      Z        X      Y      Z        X      Y      Z
     1   6     0.00  -0.01   0.01     0.02  -0.01  -0.01     0.05   0.24   0.14
     2   8     0.00  -0.01   0.01    -0.00   0.00  -0.01     0.05   0.23   0.14
     3   1    -0.00   0.00   0.01     0.03   0.00   0.01     0.05   0.23   0.14
     4   1    -0.00  -0.01   0.01     0.03  -0.02  -0.03     0.05   0.24   0.14
     5   1     0.00  -0.01   0.01    -0.01  -0.00  -0.03     0.05   0.24   0.14
     6   6     0.01   0.13   0.01    -0.05  -0.13  -0.02    -0.05  -0.26  -0.15
     7   6    -0.01  -0.11  -0.04     0.03   0.12   0.05    -0.05  -0.24  -0.15
     8   1    -0.03  -0.12  -0.05    -0.12  -0.51  -0.14    -0.06  -0.28  -0.16
     9   1     0.11   0.56   0.16    -0.00   0.05   0.03    -0.05  -0.24  -0.15
    10   1     0.31  -0.31   0.18     0.48   0.13  -0.04    -0.02  -0.24  -0.15
    11   1    -0.25  -0.43  -0.27    -0.22  -0.10   0.02    -0.07  -0.26  -0.15
    12   1    -0.11   0.21  -0.07    -0.09   0.55   0.22    -0.06  -0.21  -0.14
                      4                      5                      6
                      A                      A                      A
 Frequencies --     12.3884                24.5951                47.6279
 Red. masses --      2.4312                 3.2730                 1.0532
 Frc consts  --      0.0002                 0.0012                 0.0014
 IR Inten    --   3.366                  2.454                  33.31    
  Atom  AN      X      Y      Z        X      Y      Z        X      Y      Z
     1   6     0.18  -0.11   0.01     0.10   0.30  -0.02     0.05   0.03  -0.00
     2   8    -0.15   0.09   0.01    -0.10  -0.25  -0.02    -0.01   0.00  -0.00
     3   1     0.29  -0.11   0.26     0.17   0.21   0.12     0.07   0.64   0.04
     4   1     0.29  -0.24  -0.26     0.29   0.74   0.02    -0.18  -0.48  -0.03
     5   1    -0.24   0.08  -0.22    -0.12  -0.15  -0.12    -0.07  -0.55  -0.04
     6   6     0.14  -0.02   0.03     0.04  -0.02   0.03    -0.02   0.00  -0.00
     7   6    -0.14   0.03  -0.03    -0.05  -0.00   0.01     0.01  -0.01   0.01
     8   1     0.20  -0.10   0.22     0.06  -0.05   0.09    -0.03   0.02  -0.02
     9   1     0.29   0.01  -0.11     0.10   0.00  -0.01    -0.04  -0.00   0.01
    10   1    -0.20   0.03  -0.03    -0.06  -0.00   0.01     0.00  -0.01   0.01
    11   1    -0.27  -0.00   0.10    -0.09  -0.02   0.05     0.03   0.01  -0.01
    12   1    -0.17   0.09  -0.22    -0.06   0.03  -0.05     0.02  -0.03   0.02
                      7                      8                      9
                      A                      A                      A
 Frequencies --     99.7204               416.3714               482.5758
 Red. masses --      1.0099                 1.1407                 1.2142
 Frc consts  --      0.0059                 0.1165                 0.1666
 IR Inten    --  0.1158E-01              34.40                  59.67    
  Atom  AN      X      Y      Z        X      Y      Z        X      Y      Z
     1   6    -0.00  -0.00   0.00    -0.03  -0.06  -0.01     0.00   0.00   0.00
     2   8    -0.00  -0.00   0.00     0.01   0.07  -0.00    -0.00  -0.00   0.00
     3   1    -0.00   0.00   0.00     0.01  -0.15   0.05    -0.00  -0.01  -0.00
     4   1    -0.00  -0.00   0.00     0.22   0.54   0.04    -0.00  -0.01  -0.00
     5   1    -0.00  -0.00   0.00    -0.06  -0.78   0.01    -0.00  -0.00  -0.00
     6   6     0.01   0.01   0.00     0.00   0.00   0.00     0.03   0.13   0.03
     7   6    -0.01  -0.01  -0.00    -0.00   0.00  -0.00    -0.00  -0.01   0.00
     8   1     0.10   0.56   0.17    -0.00  -0.00  -0.00    -0.12  -0.64  -0.22
     9   1    -0.13  -0.54  -0.17    -0.00  -0.00  -0.00    -0.13  -0.62  -0.22
    10   1     0.33  -0.11   0.08    -0.00  -0.00   0.00    -0.06  -0.11   0.15
    11   1    -0.20  -0.23  -0.10    -0.00  -0.00  -0.00    -0.00  -0.05  -0.08
    12   1    -0.08   0.29   0.03    -0.00  -0.00  -0.00     0.00  -0.06  -0.08
                     10                     11                     12
                      A                      A                      A
 Frequencies --    538.8065               818.8446               981.0553
 Red. masses --      1.2158                 1.0505                 1.3296
 Frc consts  --      0.2080                 0.4150                 0.7540
 IR Inten    --   115.8                  1.777                 0.6166    
  Atom  AN      X      Y      Z        X      Y      Z        X      Y      Z
     1   6    -0.02  -0.13  -0.02     0.00  -0.00   0.00    -0.00  -0.00  -0.00
     2   8     0.00   0.00  -0.00    -0.00   0.00   0.00     0.00  -0.00   0.00
     3   1     0.06   0.78   0.13     0.00  -0.00   0.00    -0.00   0.00  -0.00
     4   1     0.14   0.44   0.13     0.00   0.00  -0.00    -0.00   0.00   0.00
     5   1     0.03   0.35   0.01    -0.00   0.00  -0.00    -0.00   0.00  -0.00
     6   6     0.00   0.00   0.00    -0.05   0.01  -0.01    -0.01  -0.08  -0.04
     7   6    -0.00  -0.00   0.00    -0.04   0.01  -0.01     0.02   0.13   0.05
     8   1    -0.00  -0.01  -0.00     0.11  -0.16   0.48     0.01   0.07  -0.03
     9   1    -0.00  -0.01  -0.00     0.34   0.04  -0.39     0.04   0.06  -0.02
    10   1    -0.00  -0.00   0.00     0.20  -0.05   0.04    -0.22  -0.30   0.68
    11   1     0.00  -0.00  -0.00     0.28   0.08  -0.35    -0.04  -0.18  -0.39
    12   1    -0.00  -0.00  -0.00     0.06  -0.17   0.42     0.08  -0.21  -0.36
                     13                     14                     15
                      A                      A                      A
 Frequencies --   1066.9687              1076.1035              1198.4617
 Red. masses --      1.0813                 3.2082                 1.4726
 Frc consts  --      0.7253                 2.1888                 1.2462
 IR Inten    --   47.16                 0.7813E-01              2.270    
  Atom  AN      X      Y      Z        X      Y      Z        X      Y      Z
     1   6     0.06  -0.02   0.00    -0.00   0.00  -0.00    -0.00   0.00  -0.00
     2   8    -0.01   0.01   0.04     0.00  -0.00  -0.00     0.00  -0.00   0.00
     3   1    -0.18  -0.00  -0.54     0.00   0.00   0.00    -0.00   0.00   0.00
     4   1    -0.18   0.09   0.49     0.00  -0.00  -0.00    -0.00   0.00  -0.00
     5   1    -0.24   0.01  -0.58     0.00  -0.00   0.00     0.00  -0.00   0.00
     6   6    -0.00  -0.00   0.00    -0.08  -0.07   0.31     0.13  -0.03   0.03
     7   6     0.00   0.00  -0.00     0.08   0.08  -0.29    -0.15   0.04  -0.03
     8   1    -0.00  -0.00   0.00    -0.07  -0.12   0.41    -0.02   0.11  -0.45
     9   1    -0.00   0.00   0.00    -0.16  -0.10   0.40    -0.23  -0.04   0.40
    10   1     0.00   0.00  -0.00     0.04   0.02  -0.17     0.29  -0.08   0.06
    11   1     0.00   0.00  -0.00     0.13   0.05  -0.41     0.24   0.15  -0.37
    12   1     0.00   0.00  -0.00     0.07   0.07  -0.43    -0.02  -0.21   0.42
                     16                     17                     18
                      A                      A                      A
 Frequencies --   1233.3442              1367.3160              1405.2190
 Red. masses --      4.8222                 1.2820                 1.1925
 Frc consts  --      4.3218                 1.4122                 1.3874
 IR Inten    --   114.3                  27.60                  2.603    
  Atom  AN      X      Y      Z        X      Y      Z        X      Y      Z
     1   6     0.04  -0.01   0.40    -0.11   0.02   0.06     0.00  -0.00   0.00
     2   8    -0.03   0.01  -0.37     0.09  -0.01   0.00    -0.00   0.00  -0.00
     3   1    -0.01  -0.08   0.33     0.04   0.01   0.41     0.00   0.00   0.00
     4   1    -0.15  -0.02   0.74     0.09  -0.05  -0.33    -0.00   0.00   0.00
     5   1     0.13  -0.01  -0.01    -0.22   0.03  -0.80     0.00   0.00   0.00
     6   6     0.00   0.00   0.00    -0.00  -0.00  -0.00    -0.00   0.00   0.02
     7   6    -0.00  -0.00  -0.00     0.00  -0.00   0.00    -0.03  -0.01   0.12
     8   1    -0.00  -0.00  -0.00     0.00   0.00   0.00    -0.04   0.04  -0.13
     9   1    -0.00  -0.00   0.00    -0.00   0.00   0.00     0.10   0.00  -0.10
    10   1    -0.00  -0.00   0.00     0.00   0.00  -0.00     0.19   0.35  -0.48
    11   1     0.00   0.00   0.00    -0.00  -0.00  -0.00     0.16  -0.17  -0.47
    12   1    -0.00   0.00   0.00     0.00  -0.00  -0.00    -0.04  -0.11  -0.51
                     19                     20                     21
                      A                      A                      A
 Frequencies --   1471.4173              1486.8148              1489.6758
 Red. masses --      1.1044                 1.0338                 1.1356
 Frc consts  --      1.4088                 1.3465                 1.4848
 IR Inten    --   3.243                  6.436                  3.345    
  Atom  AN      X      Y      Z        X      Y      Z        X      Y      Z
     1   6     0.00  -0.00  -0.00    -0.00   0.00   0.00    -0.00   0.00  -0.00
     2   8    -0.00   0.00  -0.00     0.00  -0.00   0.00     0.00   0.00   0.00
     3   1     0.00  -0.00   0.00     0.00   0.00   0.00     0.00  -0.00   0.00
     4   1    -0.00   0.00   0.00     0.00  -0.00  -0.00    -0.00  -0.00   0.00
     5   1     0.00   0.00   0.00    -0.00   0.00  -0.00    -0.00  -0.00  -0.00
     6   6     0.02   0.02  -0.08    -0.02   0.01  -0.00     0.02   0.01  -0.08
     7   6     0.01   0.04   0.02    -0.04   0.01  -0.01    -0.02  -0.05   0.05
     8   1     0.17  -0.19   0.46    -0.01  -0.03   0.04     0.15  -0.14   0.36
     9   1    -0.40  -0.03   0.35     0.02   0.03  -0.04    -0.32  -0.02   0.27
    10   1     0.07   0.14  -0.17     0.64  -0.18   0.13    -0.05  -0.09   0.12
    11   1    -0.33  -0.27  -0.02     0.04   0.29   0.42     0.47   0.28  -0.11
    12   1     0.14  -0.40   0.08     0.04  -0.32  -0.40    -0.20   0.46  -0.24
                     22                     23                     24
                      A                      A                      A
 Frequencies --   1492.8865              2983.4268              3068.7854
 Red. masses --      1.1739                 1.0562                 1.0740
 Frc consts  --      1.5414                 5.5390                 5.9593
 IR Inten    --   10.03                  24.56                  20.30    
  Atom  AN      X      Y      Z        X      Y      Z        X      Y      Z
     1   6    -0.00  -0.00   0.12    -0.00  -0.00   0.00     0.00  -0.00   0.00
     2   8    -0.01  -0.01  -0.02    -0.00  -0.00  -0.00     0.00  -0.00   0.00
     3   1    -0.32   0.17  -0.61     0.00   0.00   0.00     0.00  -0.00  -0.00
     4   1     0.41   0.00  -0.56     0.00   0.00   0.00    -0.00   0.00  -0.00
     5   1     0.02  -0.00   0.04     0.00   0.00   0.00    -0.00   0.00  -0.00
     6   6     0.00   0.00  -0.00     0.00   0.00  -0.00    -0.00   0.00   0.00
     7   6     0.00   0.00   0.00    -0.00  -0.04  -0.05     0.02   0.07  -0.01
     8   1     0.00  -0.00   0.00     0.00  -0.00  -0.00    -0.00   0.00   0.00
     9   1    -0.00  -0.00   0.00    -0.00   0.00  -0.00     0.00  -0.00   0.00
    10   1     0.00   0.00  -0.00     0.10   0.78   0.53    -0.03  -0.22  -0.17
    11   1    -0.00  -0.00  -0.00     0.12  -0.17   0.07     0.41  -0.47   0.27
    12   1     0.00  -0.00  -0.00    -0.20  -0.08   0.00    -0.65  -0.18   0.05
                     25                     26                     27
                      A                      A                      A
 Frequencies --   3115.2425              3147.9615              3163.3679
 Red. masses --      1.1025                 1.0467                 1.0511
 Frc consts  --      6.3039                 6.1111                 6.1970
 IR Inten    --   18.32                  19.15                  14.47    
  Atom  AN      X      Y      Z        X      Y      Z        X      Y      Z
     1   6    -0.00   0.00  -0.00     0.01  -0.02   0.05     0.00  -0.00   0.00
     2   8    -0.00   0.00  -0.00    -0.00  -0.00  -0.00    -0.00   0.00  -0.00
     3   1    -0.00  -0.00   0.00     0.53  -0.02  -0.23     0.00  -0.00  -0.00
     4   1     0.00  -0.00   0.00    -0.65   0.29  -0.39    -0.00   0.00  -0.00
     5   1    -0.00   0.00   0.00     0.00   0.00  -0.00     0.00  -0.00  -0.00
     6   6    -0.01   0.00  -0.00    -0.00   0.00  -0.00    -0.02  -0.02   0.06
     7   6     0.09  -0.02   0.02     0.00  -0.00   0.00     0.00   0.00  -0.00
     8   1     0.05   0.00  -0.01    -0.00  -0.00   0.00     0.67  -0.06  -0.21
     9   1     0.03  -0.02   0.03     0.00  -0.00   0.00    -0.48   0.26  -0.44
    10   1     0.02  -0.01   0.00     0.00   0.00   0.00    -0.00  -0.01  -0.00
    11   1    -0.40   0.50  -0.27    -0.00   0.00  -0.00     0.00  -0.00   0.00
    12   1    -0.67  -0.21   0.06     0.00  -0.00  -0.00    -0.00   0.00   0.00
                     28                     29                     30
                      A                      A                      A
 Frequencies --   3266.2267              3290.8791              3914.7644
 Red. masses --      1.1190                 1.1245                 1.0665
 Frc consts  --      7.0334                 7.1753                 9.6303
 IR Inten    --   13.12                  9.622                  65.64    
  Atom  AN      X      Y      Z        X      Y      Z        X      Y      Z
     1   6    -0.00   0.00   0.00     0.10  -0.02  -0.01     0.00  -0.00   0.00
     2   8     0.00  -0.00  -0.00    -0.00   0.00   0.00     0.06  -0.00  -0.02
     3   1     0.00  -0.00  -0.00    -0.75   0.00   0.33    -0.01  -0.00   0.01
     4   1     0.00  -0.00   0.00    -0.45   0.21  -0.27    -0.01   0.00   0.00
     5   1    -0.00  -0.00   0.00     0.02   0.00   0.00    -0.93   0.08   0.35
     6   6     0.10  -0.03   0.02     0.00  -0.00   0.00    -0.00   0.00   0.00
     7   6     0.01  -0.00   0.00     0.00  -0.00   0.00    -0.00  -0.00   0.00
     8   1    -0.66   0.05   0.22    -0.00   0.00   0.00     0.00  -0.00  -0.00
     9   1    -0.47   0.26  -0.45    -0.00   0.00  -0.00    -0.00  -0.00   0.00
    10   1     0.00  -0.00   0.00     0.00   0.00   0.00     0.00   0.00   0.00
    11   1    -0.03   0.03  -0.02    -0.00   0.00  -0.00    -0.00  -0.00  -0.00
    12   1    -0.05  -0.01   0.01    -0.00  -0.00   0.00     0.00  -0.00  -0.00

 -------------------
 - Thermochemistry -
 -------------------
 Temperature   298.150 Kelvin.  Pressure   1.00000 Atm.
 Atom     1 has atomic number  6 and mass  12.00000
 Atom     2 has atomic number  8 and mass  15.99491
 Atom     3 has atomic number  1 and mass   1.00783
 Atom     4 has atomic number  1 and mass   1.00783
 Atom     5 has atomic number  1 and mass   1.00783
 Atom     6 has atomic number  6 and mass  12.00000
 Atom     7 has atomic number  6 and mass  12.00000
 Atom     8 has atomic number  1 and mass   1.00783
 Atom     9 has atomic number  1 and mass   1.00783
 Atom    10 has atomic number  1 and mass   1.00783
 Atom    11 has atomic number  1 and mass   1.00783
 Atom    12 has atomic number  1 and mass   1.00783
 Molecular mass:    60.05751 amu.
 Principal axes and moments of inertia in atomic units:
                           1         2         3
     Eigenvalues --   134.890575955.293806047.79024
           X            0.16616  -0.25300   0.95309
           Y            0.84347  -0.46424  -0.27028
           Z            0.51084   0.84881   0.13626
 This molecule is an asymmetric top.
 Rotational symmetry number  1.
 Rotational temperatures (Kelvin)      0.64210     0.01454     0.01432
 Rotational constants (GHZ):          13.37930     0.30305     0.29841
    2 imaginary frequencies ignored.
 Zero-point vibrational energy     255172.7 (Joules/Mol)
                                   60.98774 (Kcal/Mol)
 Warning -- explicit consideration of   8 degrees of freedom as
           vibrations may cause significant error
 Vibrational temperatures:      1.01    17.82    35.39    68.53   143.48
          (Kelvin)            599.06   694.32   775.22  1178.13  1411.52
                             1535.13  1548.27  1724.32  1774.50  1967.26
                             2021.79  2117.04  2139.19  2143.31  2147.93
                             4292.48  4415.29  4482.13  4529.21  4551.38
                             4699.37  4734.84  5632.47
 
 Zero-point correction=                           0.097190 (Hartree/Particle)
 Thermal correction to Energy=                    0.105311
 Thermal correction to Enthalpy=                  0.106255
 Thermal correction to Gibbs Free Energy=         0.054656
 Sum of electronic and zero-point Energies=           -194.132308
 Sum of electronic and thermal Energies=              -194.124187
 Sum of electronic and thermal Enthalpies=            -194.123243
 Sum of electronic and thermal Free Energies=         -194.174841
 
                     E (Thermal)             CV                S
                      KCal/Mol        Cal/Mol-Kelvin    Cal/Mol-Kelvin
 Total                   66.083             22.293            108.598
 Electronic               0.000              0.000              2.183
 Translational            0.889              2.981             38.198
 Rotational               0.889              2.981             29.964
 Vibrational             64.306             16.332             38.252
 Vibration     1          0.592              1.987             13.295
 Vibration     2          0.593              1.987              7.586
 Vibration     3          0.593              1.985              6.224
 Vibration     4          0.595              1.978              4.914
 Vibration     5          0.604              1.949              3.460
 Vibration     6          0.780              1.435              0.904
 Vibration     7          0.839              1.289              0.703
 Vibration     8          0.894              1.164              0.568
                       Q            Log10(Q)             Ln(Q)
 Total Bot       0.724146D-25        -25.140174        -57.887390
 Total V=0       0.366521D+20         19.564099         45.048002
 Vib (Bot)       0.167229D-38        -38.776689        -89.286626
 Vib (Bot)    1  0.295957D+03          2.471229          5.690216
 Vib (Bot)    2  0.167248D+02          1.223361          2.816893
 Vib (Bot)    3  0.842050D+01          0.925338          2.130669
 Vib (Bot)    4  0.434135D+01          0.637625          1.468185
 Vib (Bot)    5  0.205814D+01          0.313476          0.721804
 Vib (Bot)    6  0.422880D+00         -0.373783         -0.860667
 Vib (Bot)    7  0.345804D+00         -0.461170         -1.061882
 Vib (Bot)    8  0.294380D+00         -0.531092         -1.222885
 Vib (V=0)       0.846417D+06          5.927584         13.648767
 Vib (V=0)    1  0.296458D+03          2.471963          5.691905
 Vib (V=0)    2  0.172323D+02          1.236343          2.846784
 Vib (V=0)    3  0.893533D+01          0.951111          2.190013
 Vib (V=0)    4  0.487005D+01          0.687533          1.583104
 Vib (V=0)    5  0.261801D+01          0.417971          0.962413
 Vib (V=0)    6  0.115485D+01          0.062525          0.143970
 Vib (V=0)    7  0.110793D+01          0.044513          0.102495
 Vib (V=0)    8  0.108022D+01          0.033514          0.077168
 Electronic      0.300000D+01          0.477121          1.098612
 Translational   0.182939D+08          7.262306         16.722078
 Rotational      0.789018D+06          5.897087         13.578545
 -------------------------------------------------------------------
 Center     Atomic                   Forces (Hartrees/Bohr)
 Number     Number              X              Y              Z
 -------------------------------------------------------------------
      1        6          -0.000023646   -0.000052898    0.000043439
      2        8           0.000012242   -0.000005224   -0.000017177
      3        1           0.000000617    0.000033365    0.000008945
      4        1           0.000001610    0.000013270   -0.000007852
      5        1           0.000011744    0.000012363   -0.000026900
      6        6          -0.000017482   -0.000008495    0.000054465
      7        6           0.000011191    0.000017779   -0.000027667
      8        1          -0.000003487   -0.000002088   -0.000023992
      9        1           0.000009806   -0.000000351   -0.000014552
     10        1           0.000000428   -0.000004912    0.000007065
     11        1          -0.000000368   -0.000005267    0.000002185
     12        1          -0.000002656    0.000002460    0.000002041
 -------------------------------------------------------------------
 Cartesian Forces:  Max     0.000054465 RMS     0.000019536
 From PutF, contents of force:
   1   -0.4407638245D-04
   2   -0.3072555898D-05
   3    0.7543053379D-05
   4   -0.1923478508D-04
   5   -0.1715606265D-04
   6    0.9793625350D-05
   7   -0.3915821709D-04
   8    0.2263428017D-04
   9    0.1955790710D-04
  10   -0.4239189901D-05
  11   -0.2584534061D-05
  12   -0.1060130960D-06
  13   -0.4388861716D-05
  14   -0.1999479998D-05
  15   -0.4617943474D-04
  16   -0.3533684565D-04
  17   -0.1673951944D-04
  18   -0.3379056415D-05
  19   -0.3090782902D-05
  20   -0.2324721239D-05
  21   -0.6263252714D-05
  22   -0.6357451588D-05
  23   -0.2294290523D-04
  24    0.1128256318D-04
  25    0.3000536102D-04
  26   -0.2255693481D-04
  27   -0.1847669650D-04
  28    0.1157485935D-04
  29    0.1376290914D-04
  30    0.1470618278D-05
 -----------------------------------------------------------------------------------------------
                       Internal Coordinate Forces (Hartree/Bohr or radian)
  Cent   Atom   N1       Length/X         N2         Alpha/Y        N3         Beta/Z          J
 -----------------------------------------------------------------------------------------------
      1  C 
      2  O        1  -0.000044(     1)
      3  H        1  -0.000003(     2)      2  -0.000017(    12)
      4  H        1   0.000008(     3)      2   0.000010(    13)      3   0.000023(    22)     0
      5  H        2  -0.000019(     4)      1  -0.000039(    14)      3  -0.000023(    23)     0
      6  C        1   0.000001(     5)      2   0.000014(    15)      3   0.000012(    24)     0
      7  C        6   0.000020(     6)      1  -0.000023(    16)      2   0.000011(    25)     0
      8  H        6  -0.000004(     7)      7  -0.000046(    17)      1   0.000030(    26)     0
      9  H        6  -0.000003(     8)      7  -0.000035(    18)      8  -0.000002(    27)     0
     10  H        7  -0.000000(     9)      6  -0.000017(    19)      8  -0.000018(    28)     0
     11  H        7  -0.000004(    10)      6  -0.000003(    20)     10  -0.000006(    29)     0
     12  H        7  -0.000002(    11)      6  -0.000003(    21)     10  -0.000006(    30)     0
 -----------------------------------------------------------------------------------------------
 Internal  Forces:  Max     0.000046179 RMS     0.000019784
 Force constants in Cartesian coordinates: 
                1             2             3             4             5 
      1  0.662012D+00
      2 -0.126463D+00  0.737325D-01
      3 -0.210798D-01 -0.560272D-01  0.603820D+00
      4 -0.987804D-01  0.174322D-01  0.233049D-01  0.571412D+00
      5  0.157953D-01 -0.759697D-02 -0.111184D-01 -0.528450D-01  0.152091D-01
      6 -0.246492D-01  0.699647D-02 -0.375652D+00 -0.155094D+00  0.598499D-02
      7 -0.317346D+00  0.135774D-01  0.110941D+00  0.665196D-02 -0.137550D-02
      8 -0.292321D-02 -0.958931D-02  0.746060D-02  0.153400D-03 -0.233495D-02
      9  0.939336D-01  0.470607D-02 -0.924772D-01  0.358057D-01 -0.575296D-03
     10 -0.244695D+00  0.956918D-01 -0.105638D+00  0.807739D-02 -0.644508D-03
     11  0.112966D+00 -0.546625D-01  0.587627D-01 -0.499426D-02  0.327899D-02
     12 -0.954951D-01  0.493066D-01 -0.112814D+00 -0.249401D-01  0.146197D-01
     13 -0.118975D-02 -0.238198D-03 -0.752945D-02 -0.487362D+00  0.390704D-01
     14  0.625559D-03 -0.188068D-02  0.919427D-03  0.402539D-01 -0.855492D-02
     15  0.472907D-01 -0.498116D-02 -0.228740D-01  0.120924D+00 -0.891002D-02
     16  0.000000D+00 -0.873016D-05  0.665420D-05 -0.426619D-05 -0.319711D-05
     17 -0.121187D-04 -0.372210D-04  0.346269D-04  0.197927D-05 -0.234149D-04
     18 -0.284184D-05 -0.876629D-05  0.218478D-04  0.194273D-05 -0.388453D-05
     19  0.383688D-05  0.000000D+00 -0.293113D-05 -0.396904D-05  0.000000D+00
     20 -0.171209D-05  0.000000D+00 -0.719839D-05 -0.173589D-05 -0.124281D-05
     21  0.000000D+00 -0.148164D-05  0.537162D-05  0.000000D+00  0.000000D+00
     22  0.000000D+00  0.684350D-05  0.195653D-05  0.465760D-05  0.378124D-05
     23  0.291978D-05  0.141421D-04 -0.123906D-04  0.158860D-05  0.793213D-05
     24  0.138101D-05  0.250690D-05 -0.345504D-05  0.000000D+00  0.226829D-05
     25  0.000000D+00  0.000000D+00 -0.717498D-05  0.000000D+00 -0.148305D-05
     26  0.663540D-05  0.149209D-04 -0.789255D-05 -0.210308D-05  0.113747D-04
     27  0.000000D+00  0.148979D-05 -0.494428D-05  0.000000D+00  0.000000D+00
     28  0.000000D+00 -0.113588D-05  0.289452D-05  0.000000D+00  0.000000D+00
     29 -0.156223D-05 -0.877304D-05  0.833661D-05  0.141637D-05 -0.506386D-05
     30  0.000000D+00 -0.651135D-05 -0.222651D-05  0.000000D+00 -0.478069D-05
     31  0.000000D+00  0.480890D-05 -0.154426D-04 -0.110566D-05  0.147360D-05
     32  0.291384D-05  0.583061D-05 -0.167531D-05  0.000000D+00  0.465285D-05
     33  0.000000D+00  0.715100D-05 -0.135583D-04  0.140066D-05  0.166565D-05
     34 -0.402605D-05 -0.271526D-05  0.150008D-04  0.531345D-05 -0.179451D-05
     35  0.235293D-05  0.831214D-05 -0.109093D-04  0.000000D+00  0.447815D-05
     36  0.324329D-05  0.491601D-05 -0.576987D-05 -0.253999D-05  0.343313D-05
                6             7             8             9            10 
      6  0.511342D+00
      7 -0.600017D-03  0.318613D+00
      8  0.154816D-02 -0.784117D-02  0.795761D-02
      9 -0.200418D-01 -0.117267D+00 -0.463737D-02  0.110003D+00
     10  0.474129D-02 -0.102231D-01  0.101272D-01 -0.124097D-01  0.244419D+00
     11 -0.170179D-04 -0.418626D-02  0.845653D-03 -0.496535D-03 -0.103581D+00
     12 -0.257404D-01  0.889168D-02 -0.447411D-02  0.893002D-02  0.114059D+00
     13  0.175603D+00  0.230323D-02  0.482766D-03 -0.629449D-04  0.242092D-02
     14 -0.145081D-01 -0.174845D-03  0.311997D-02  0.100307D-02 -0.159395D-02
     15 -0.899113D-01 -0.196614D-02  0.102685D-03 -0.641413D-02 -0.752336D-03
     16 -0.100224D-04  0.000000D+00  0.143002D-05  0.000000D+00  0.000000D+00
     17 -0.544748D-04  0.556483D-05  0.164083D-04  0.113250D-05  0.340416D-05
     18 -0.323601D-04  0.240346D-05  0.424320D-05  0.183211D-05  0.000000D+00
     19  0.420545D-05 -0.112813D-05 -0.228019D-05 -0.131907D-05 -0.102257D-05
     20  0.131043D-04  0.000000D+00  0.000000D+00 -0.185773D-05  0.178941D-05
     21 -0.490946D-05  0.000000D+00  0.000000D+00 -0.114314D-05  0.000000D+00
     22 -0.198658D-05  0.000000D+00  0.000000D+00  0.000000D+00  0.000000D+00
     23  0.190021D-04 -0.118468D-05 -0.485872D-05  0.000000D+00  0.000000D+00
     24  0.538048D-05  0.000000D+00 -0.114222D-05  0.000000D+00  0.000000D+00
     25  0.985399D-05  0.000000D+00  0.000000D+00  0.000000D+00  0.000000D+00
     26  0.139948D-04 -0.256806D-05 -0.760667D-05  0.000000D+00 -0.247347D-05
     27  0.748247D-05  0.000000D+00  0.000000D+00  0.000000D+00  0.000000D+00
     28 -0.466878D-05  0.000000D+00  0.000000D+00  0.000000D+00  0.000000D+00
     29 -0.167154D-04  0.000000D+00  0.413341D-05  0.208711D-05  0.000000D+00
     30  0.000000D+00  0.000000D+00  0.220687D-05  0.000000D+00  0.000000D+00
     31  0.232231D-04 -0.165732D-05 -0.217994D-05 -0.144087D-05  0.144718D-05
     32  0.350309D-05 -0.104527D-05 -0.296274D-05  0.000000D+00 -0.120062D-05
     33  0.197711D-04  0.000000D+00 -0.194547D-05  0.000000D+00  0.000000D+00
     34 -0.221335D-04  0.267593D-05  0.372603D-05  0.201256D-05  0.000000D+00
     35  0.171073D-04 -0.170691D-05 -0.379289D-05  0.000000D+00  0.000000D+00
     36  0.876265D-05 -0.152049D-05 -0.374311D-05  0.000000D+00 -0.112325D-05
               11            12            13            14            15 
     11  0.512245D-01
     12 -0.591093D-01  0.127869D+00
     13 -0.204099D-03 -0.251494D-02  0.483829D+00
     14 -0.688329D-03 -0.342983D-03 -0.391108D-01  0.800232D-02
     15  0.860153D-03  0.175532D-02 -0.165496D+00  0.129271D-01  0.117444D+00
     16  0.607942D-05  0.000000D+00  0.306348D-05  0.544594D-05  0.383345D-05
     17  0.166497D-04  0.000000D+00 -0.309282D-05  0.240753D-04  0.151926D-04
     18  0.512870D-05  0.000000D+00 -0.183938D-05  0.323385D-05  0.654816D-05
     19  0.182487D-05  0.000000D+00  0.136457D-05  0.000000D+00  0.000000D+00
     20  0.000000D+00 -0.139026D-05  0.000000D+00  0.203823D-05 -0.262327D-05
     21  0.108558D-05  0.000000D+00  0.000000D+00  0.000000D+00  0.000000D+00
     22 -0.437413D-05  0.000000D+00 -0.258534D-05 -0.617921D-05 -0.101355D-05
     23 -0.748366D-05  0.000000D+00  0.000000D+00 -0.912680D-05 -0.609218D-05
     24 -0.116175D-05  0.000000D+00  0.000000D+00 -0.261617D-05  0.000000D+00
     25 -0.144615D-05  0.000000D+00  0.000000D+00  0.175066D-05 -0.252876D-05
     26 -0.488841D-05  0.000000D+00  0.193381D-05 -0.112569D-04 -0.431369D-05
     27 -0.139557D-05  0.000000D+00  0.000000D+00  0.000000D+00 -0.157181D-05
     28  0.000000D+00  0.000000D+00  0.000000D+00  0.000000D+00  0.000000D+00
     29  0.440452D-05  0.143970D-05  0.000000D+00  0.489255D-05  0.393973D-05
     30  0.273420D-05  0.000000D+00  0.000000D+00  0.572788D-05  0.136516D-05
     31 -0.356563D-05  0.000000D+00  0.139278D-05  0.000000D+00 -0.449616D-05
     32 -0.202683D-05  0.000000D+00  0.000000D+00 -0.465511D-05 -0.107781D-05
     33 -0.536427D-05  0.000000D+00  0.000000D+00 -0.205752D-05 -0.484999D-05
     34  0.000000D+00  0.000000D+00 -0.352763D-05  0.000000D+00  0.340591D-05
     35 -0.419104D-05  0.000000D+00  0.000000D+00 -0.432970D-05 -0.376018D-05
     36 -0.100279D-05  0.000000D+00  0.182039D-05 -0.230798D-05 -0.187426D-05
               16            17            18            19            20 
     16  0.606927D+00
     17 -0.112178D+00  0.117901D+00
     18 -0.124929D-01 -0.132958D+00  0.521005D+00
     19 -0.960080D-01  0.154674D-02  0.402839D-01  0.563615D+00
     20  0.175511D-03 -0.532284D-01  0.452459D-01 -0.132468D-01  0.504207D+00
     21  0.384146D-01  0.386326D-01 -0.225462D+00  0.119146D-01 -0.213593D-01
     22 -0.320606D+00  0.298236D-01  0.861250D-01 -0.841644D-03 -0.230361D-04
     23  0.263295D-01 -0.166018D-01  0.590787D-02 -0.287071D-02  0.240165D-02
     24  0.834078D-01  0.588579D-02 -0.783555D-01  0.271185D-01 -0.102459D-02
     25 -0.191125D+00  0.815788D-01 -0.124340D+00  0.794078D-02 -0.344152D-02
     26  0.845411D-01 -0.555170D-01  0.817452D-01  0.728678D-03  0.182148D-02
     27 -0.122317D+00  0.791298D-01 -0.168982D+00 -0.197915D-01  0.114334D-01
     28  0.752595D-03  0.612184D-02  0.522757D-02 -0.448468D-01 -0.207247D-01
     29  0.258617D-02  0.957729D-02 -0.113497D-03 -0.234046D-01 -0.207557D+00
     30  0.468186D-03 -0.175411D-01 -0.257523D-01 -0.176433D-01 -0.119721D+00
     31  0.653784D-02 -0.627350D-02  0.217047D-02 -0.141573D+00  0.108863D+00
     32  0.243955D-02 -0.162477D-02  0.122716D-02  0.109938D+00 -0.178674D+00
     33 -0.211510D-01  0.206659D-01 -0.171813D-01 -0.589872D-01  0.755291D-01
     34 -0.647808D-02 -0.615463D-03  0.302674D-02 -0.288286D+00 -0.716019D-01
     35 -0.389510D-02 -0.502779D-03 -0.105463D-02 -0.726919D-01 -0.689701D-01
     36  0.336705D-01  0.618757D-02 -0.527011D-02  0.171040D-01  0.989604D-02
               21            22            23            24            25 
     21  0.482587D+00
     22 -0.182086D-02  0.332293D+00
     23  0.246522D-02 -0.293891D-01  0.110267D-01
     24 -0.236982D-02 -0.933057D-01 -0.627080D-02  0.768712D-01
     25  0.732764D-02 -0.120637D-01  0.981621D-02 -0.173375D-01  0.193161D+00
     26  0.123483D-02 -0.285164D-03  0.264717D-02  0.144914D-02 -0.869673D-01
     27 -0.104472D-01  0.767722D-02 -0.323187D-02  0.818874D-02  0.132238D+00
     28 -0.140645D-01 -0.407788D-03 -0.122998D-02 -0.433335D-04  0.183066D-03
     29 -0.106537D+00 -0.232083D-03 -0.274198D-03 -0.477288D-03  0.104884D-03
     30 -0.115472D+00  0.113748D-03  0.367363D-03 -0.731609D-03  0.462889D-03
     31 -0.582051D-01  0.703997D-03 -0.826246D-03 -0.673646D-03  0.711507D-03
     32  0.755917D-01 -0.207610D-03  0.417648D-03  0.107620D-03 -0.901870D-03
     33 -0.827832D-01  0.321671D-03 -0.101067D-02  0.140542D-02  0.251995D-02
     34  0.164336D-01  0.919877D-03 -0.183158D-02  0.833177D-03  0.119207D-02
     35  0.997160D-02  0.313648D-03  0.382211D-03  0.330268D-03 -0.188625D-03
     36 -0.460526D-01  0.889322D-03  0.177240D-02 -0.500864D-02 -0.871291D-03
               26            27            28            29            30 
     26  0.519846D-01
     27 -0.865843D-01  0.175028D+00
     28  0.713272D-03  0.796323D-04  0.463255D-01
     29 -0.954170D-03 -0.401866D-03  0.249392D-01  0.227955D+00
     30  0.712927D-03 -0.685679D-03  0.155429D-01  0.125362D+00  0.134115D+00
     31  0.563792D-03  0.164338D-02  0.189437D-02 -0.297055D-02  0.128144D-02
     32  0.599394D-04 -0.164313D-03  0.167882D-01 -0.202412D-01  0.978635D-02
     33  0.179338D-02 -0.448150D-02  0.109665D-01 -0.128585D-01  0.721440D-02
     34  0.704175D-03  0.470459D-03 -0.390108D-02 -0.102217D-02 -0.224958D-03
     35 -0.446159D-04 -0.180680D-03 -0.266077D-01 -0.850588D-02  0.103395D-02
     36 -0.352366D-03  0.138034D-02 -0.177084D-01 -0.497289D-02  0.131198D-02
               31            32            33            34            35 
     31  0.147416D+00
     32 -0.121879D+00  0.191933D+00
     33  0.649414D-01 -0.813680D-01  0.960465D-01
     34 -0.156916D-01 -0.617797D-02  0.138765D-02  0.312244D+00
     35  0.225233D-01  0.812904D-02 -0.275064D-02  0.805455D-01  0.695117D-01
     36 -0.111588D-01 -0.518111D-02 -0.220965D-03 -0.219252D-01 -0.735094D-02
               36 
     36  0.538591D-01
 FCInt: Cartesian first derivatives: 
                 1             2             3             4             5 
      1  -0.236460D-04  0.122423D-04  0.000000D+00  0.161025D-05  0.117436D-04
      2  -0.528983D-04 -0.522426D-05  0.333648D-04  0.132702D-04  0.123626D-04
      3   0.434386D-04 -0.171765D-04  0.894460D-05 -0.785200D-05 -0.268999D-04
                 6             7             8             9            10 
      1  -0.174816D-04  0.111912D-04 -0.348678D-05  0.980606D-05  0.000000D+00
      2  -0.849497D-05  0.177786D-04 -0.208826D-05  0.000000D+00 -0.491221D-05
      3   0.544653D-04 -0.276667D-04 -0.239922D-04 -0.145525D-04  0.706485D-05
                11            12 
      1   0.000000D+00 -0.265650D-05
      2  -0.526694D-05  0.245961D-05
      3   0.218509D-05  0.204125D-05
 FCInt: Cartesian force constants: 
                1             2             3             4             5 
      1  0.662012D+00
      2 -0.126463D+00  0.737325D-01
      3 -0.210798D-01 -0.560272D-01  0.603820D+00
      4 -0.987804D-01  0.174322D-01  0.233049D-01  0.571412D+00
      5  0.157953D-01 -0.759697D-02 -0.111184D-01 -0.528450D-01  0.152091D-01
      6 -0.246492D-01  0.699647D-02 -0.375652D+00 -0.155094D+00  0.598499D-02
      7 -0.317346D+00  0.135774D-01  0.110941D+00  0.665196D-02 -0.137550D-02
      8 -0.292321D-02 -0.958931D-02  0.746060D-02  0.153400D-03 -0.233495D-02
      9  0.939336D-01  0.470607D-02 -0.924772D-01  0.358057D-01 -0.575296D-03
     10 -0.244695D+00  0.956918D-01 -0.105638D+00  0.807739D-02 -0.644508D-03
     11  0.112966D+00 -0.546625D-01  0.587627D-01 -0.499426D-02  0.327899D-02
     12 -0.954951D-01  0.493066D-01 -0.112814D+00 -0.249401D-01  0.146197D-01
     13 -0.118975D-02 -0.238198D-03 -0.752945D-02 -0.487362D+00  0.390704D-01
     14  0.625559D-03 -0.188068D-02  0.919427D-03  0.402539D-01 -0.855492D-02
     15  0.472907D-01 -0.498116D-02 -0.228740D-01  0.120924D+00 -0.891002D-02
     16  0.000000D+00 -0.873016D-05  0.665420D-05 -0.426619D-05 -0.319711D-05
     17 -0.121187D-04 -0.372210D-04  0.346269D-04  0.197927D-05 -0.234149D-04
     18 -0.284184D-05 -0.876629D-05  0.218478D-04  0.194273D-05 -0.388453D-05
     19  0.383688D-05  0.000000D+00 -0.293113D-05 -0.396904D-05  0.000000D+00
     20 -0.171209D-05  0.000000D+00 -0.719839D-05 -0.173589D-05 -0.124281D-05
     21  0.000000D+00 -0.148164D-05  0.537162D-05  0.000000D+00  0.000000D+00
     22  0.000000D+00  0.684350D-05  0.195653D-05  0.465760D-05  0.378124D-05
     23  0.291978D-05  0.141421D-04 -0.123906D-04  0.158860D-05  0.793213D-05
     24  0.138101D-05  0.250690D-05 -0.345504D-05  0.000000D+00  0.226829D-05
     25  0.000000D+00  0.000000D+00 -0.717498D-05  0.000000D+00 -0.148305D-05
     26  0.663540D-05  0.149209D-04 -0.789255D-05 -0.210308D-05  0.113747D-04
     27  0.000000D+00  0.148979D-05 -0.494428D-05  0.000000D+00  0.000000D+00
     28  0.000000D+00 -0.113588D-05  0.289452D-05  0.000000D+00  0.000000D+00
     29 -0.156223D-05 -0.877304D-05  0.833661D-05  0.141637D-05 -0.506386D-05
     30  0.000000D+00 -0.651135D-05 -0.222651D-05  0.000000D+00 -0.478069D-05
     31  0.000000D+00  0.480890D-05 -0.154426D-04 -0.110566D-05  0.147360D-05
     32  0.291384D-05  0.583061D-05 -0.167531D-05  0.000000D+00  0.465285D-05
     33  0.000000D+00  0.715100D-05 -0.135583D-04  0.140066D-05  0.166565D-05
     34 -0.402605D-05 -0.271526D-05  0.150008D-04  0.531345D-05 -0.179451D-05
     35  0.235293D-05  0.831214D-05 -0.109093D-04  0.000000D+00  0.447815D-05
     36  0.324329D-05  0.491601D-05 -0.576987D-05 -0.253999D-05  0.343313D-05
                6             7             8             9            10 
      6  0.511342D+00
      7 -0.600017D-03  0.318613D+00
      8  0.154816D-02 -0.784117D-02  0.795761D-02
      9 -0.200418D-01 -0.117267D+00 -0.463737D-02  0.110003D+00
     10  0.474129D-02 -0.102231D-01  0.101272D-01 -0.124097D-01  0.244419D+00
     11 -0.170179D-04 -0.418626D-02  0.845653D-03 -0.496535D-03 -0.103581D+00
     12 -0.257404D-01  0.889168D-02 -0.447411D-02  0.893002D-02  0.114059D+00
     13  0.175603D+00  0.230323D-02  0.482766D-03 -0.629449D-04  0.242092D-02
     14 -0.145081D-01 -0.174845D-03  0.311997D-02  0.100307D-02 -0.159395D-02
     15 -0.899113D-01 -0.196614D-02  0.102685D-03 -0.641413D-02 -0.752336D-03
     16 -0.100224D-04  0.000000D+00  0.143002D-05  0.000000D+00  0.000000D+00
     17 -0.544748D-04  0.556483D-05  0.164083D-04  0.113250D-05  0.340416D-05
     18 -0.323601D-04  0.240346D-05  0.424320D-05  0.183211D-05  0.000000D+00
     19  0.420545D-05 -0.112813D-05 -0.228019D-05 -0.131907D-05 -0.102257D-05
     20  0.131043D-04  0.000000D+00  0.000000D+00 -0.185773D-05  0.178941D-05
     21 -0.490946D-05  0.000000D+00  0.000000D+00 -0.114314D-05  0.000000D+00
     22 -0.198658D-05  0.000000D+00  0.000000D+00  0.000000D+00  0.000000D+00
     23  0.190021D-04 -0.118468D-05 -0.485872D-05  0.000000D+00  0.000000D+00
     24  0.538048D-05  0.000000D+00 -0.114222D-05  0.000000D+00  0.000000D+00
     25  0.985399D-05  0.000000D+00  0.000000D+00  0.000000D+00  0.000000D+00
     26  0.139948D-04 -0.256806D-05 -0.760667D-05  0.000000D+00 -0.247347D-05
     27  0.748247D-05  0.000000D+00  0.000000D+00  0.000000D+00  0.000000D+00
     28 -0.466878D-05  0.000000D+00  0.000000D+00  0.000000D+00  0.000000D+00
     29 -0.167154D-04  0.000000D+00  0.413341D-05  0.208711D-05  0.000000D+00
     30  0.000000D+00  0.000000D+00  0.220687D-05  0.000000D+00  0.000000D+00
     31  0.232231D-04 -0.165732D-05 -0.217994D-05 -0.144087D-05  0.144718D-05
     32  0.350309D-05 -0.104527D-05 -0.296274D-05  0.000000D+00 -0.120062D-05
     33  0.197711D-04  0.000000D+00 -0.194547D-05  0.000000D+00  0.000000D+00
     34 -0.221335D-04  0.267593D-05  0.372603D-05  0.201256D-05  0.000000D+00
     35  0.171073D-04 -0.170691D-05 -0.379289D-05  0.000000D+00  0.000000D+00
     36  0.876265D-05 -0.152049D-05 -0.374311D-05  0.000000D+00 -0.112325D-05
               11            12            13            14            15 
     11  0.512245D-01
     12 -0.591093D-01  0.127869D+00
     13 -0.204099D-03 -0.251494D-02  0.483829D+00
     14 -0.688329D-03 -0.342983D-03 -0.391108D-01  0.800232D-02
     15  0.860153D-03  0.175532D-02 -0.165496D+00  0.129271D-01  0.117444D+00
     16  0.607942D-05  0.000000D+00  0.306348D-05  0.544594D-05  0.383345D-05
     17  0.166497D-04  0.000000D+00 -0.309282D-05  0.240753D-04  0.151926D-04
     18  0.512870D-05  0.000000D+00 -0.183938D-05  0.323385D-05  0.654816D-05
     19  0.182487D-05  0.000000D+00  0.136457D-05  0.000000D+00  0.000000D+00
     20  0.000000D+00 -0.139026D-05  0.000000D+00  0.203823D-05 -0.262327D-05
     21  0.108558D-05  0.000000D+00  0.000000D+00  0.000000D+00  0.000000D+00
     22 -0.437413D-05  0.000000D+00 -0.258534D-05 -0.617921D-05 -0.101355D-05
     23 -0.748366D-05  0.000000D+00  0.000000D+00 -0.912680D-05 -0.609218D-05
     24 -0.116175D-05  0.000000D+00  0.000000D+00 -0.261617D-05  0.000000D+00
     25 -0.144615D-05  0.000000D+00  0.000000D+00  0.175066D-05 -0.252876D-05
     26 -0.488841D-05  0.000000D+00  0.193381D-05 -0.112569D-04 -0.431369D-05
     27 -0.139557D-05  0.000000D+00  0.000000D+00  0.000000D+00 -0.157181D-05
     28  0.000000D+00  0.000000D+00  0.000000D+00  0.000000D+00  0.000000D+00
     29  0.440452D-05  0.143970D-05  0.000000D+00  0.489255D-05  0.393973D-05
     30  0.273420D-05  0.000000D+00  0.000000D+00  0.572788D-05  0.136516D-05
     31 -0.356563D-05  0.000000D+00  0.139278D-05  0.000000D+00 -0.449616D-05
     32 -0.202683D-05  0.000000D+00  0.000000D+00 -0.465511D-05 -0.107781D-05
     33 -0.536427D-05  0.000000D+00  0.000000D+00 -0.205752D-05 -0.484999D-05
     34  0.000000D+00  0.000000D+00 -0.352763D-05  0.000000D+00  0.340591D-05
     35 -0.419104D-05  0.000000D+00  0.000000D+00 -0.432970D-05 -0.376018D-05
     36 -0.100279D-05  0.000000D+00  0.182039D-05 -0.230798D-05 -0.187426D-05
               16            17            18            19            20 
     16  0.606927D+00
     17 -0.112178D+00  0.117901D+00
     18 -0.124929D-01 -0.132958D+00  0.521005D+00
     19 -0.960080D-01  0.154674D-02  0.402839D-01  0.563615D+00
     20  0.175511D-03 -0.532284D-01  0.452459D-01 -0.132468D-01  0.504207D+00
     21  0.384146D-01  0.386326D-01 -0.225462D+00  0.119146D-01 -0.213593D-01
     22 -0.320606D+00  0.298236D-01  0.861250D-01 -0.841644D-03 -0.230361D-04
     23  0.263295D-01 -0.166018D-01  0.590787D-02 -0.287071D-02  0.240165D-02
     24  0.834078D-01  0.588579D-02 -0.783555D-01  0.271185D-01 -0.102459D-02
     25 -0.191125D+00  0.815788D-01 -0.124340D+00  0.794078D-02 -0.344152D-02
     26  0.845411D-01 -0.555170D-01  0.817452D-01  0.728678D-03  0.182148D-02
     27 -0.122317D+00  0.791298D-01 -0.168982D+00 -0.197915D-01  0.114334D-01
     28  0.752595D-03  0.612184D-02  0.522757D-02 -0.448468D-01 -0.207247D-01
     29  0.258617D-02  0.957729D-02 -0.113497D-03 -0.234046D-01 -0.207557D+00
     30  0.468186D-03 -0.175411D-01 -0.257523D-01 -0.176433D-01 -0.119721D+00
     31  0.653784D-02 -0.627350D-02  0.217047D-02 -0.141573D+00  0.108863D+00
     32  0.243955D-02 -0.162477D-02  0.122716D-02  0.109938D+00 -0.178674D+00
     33 -0.211510D-01  0.206659D-01 -0.171813D-01 -0.589872D-01  0.755291D-01
     34 -0.647808D-02 -0.615463D-03  0.302674D-02 -0.288286D+00 -0.716019D-01
     35 -0.389510D-02 -0.502779D-03 -0.105463D-02 -0.726919D-01 -0.689701D-01
     36  0.336705D-01  0.618757D-02 -0.527011D-02  0.171040D-01  0.989604D-02
               21            22            23            24            25 
     21  0.482587D+00
     22 -0.182086D-02  0.332293D+00
     23  0.246522D-02 -0.293891D-01  0.110267D-01
     24 -0.236982D-02 -0.933057D-01 -0.627080D-02  0.768712D-01
     25  0.732764D-02 -0.120637D-01  0.981621D-02 -0.173375D-01  0.193161D+00
     26  0.123483D-02 -0.285164D-03  0.264717D-02  0.144914D-02 -0.869673D-01
     27 -0.104472D-01  0.767722D-02 -0.323187D-02  0.818874D-02  0.132238D+00
     28 -0.140645D-01 -0.407788D-03 -0.122998D-02 -0.433335D-04  0.183066D-03
     29 -0.106537D+00 -0.232083D-03 -0.274198D-03 -0.477288D-03  0.104884D-03
     30 -0.115472D+00  0.113748D-03  0.367363D-03 -0.731609D-03  0.462889D-03
     31 -0.582051D-01  0.703997D-03 -0.826246D-03 -0.673646D-03  0.711507D-03
     32  0.755917D-01 -0.207610D-03  0.417648D-03  0.107620D-03 -0.901870D-03
     33 -0.827832D-01  0.321671D-03 -0.101067D-02  0.140542D-02  0.251995D-02
     34  0.164336D-01  0.919877D-03 -0.183158D-02  0.833177D-03  0.119207D-02
     35  0.997160D-02  0.313648D-03  0.382211D-03  0.330268D-03 -0.188625D-03
     36 -0.460526D-01  0.889322D-03  0.177240D-02 -0.500864D-02 -0.871291D-03
               26            27            28            29            30 
     26  0.519846D-01
     27 -0.865843D-01  0.175028D+00
     28  0.713272D-03  0.796323D-04  0.463255D-01
     29 -0.954170D-03 -0.401866D-03  0.249392D-01  0.227955D+00
     30  0.712927D-03 -0.685679D-03  0.155429D-01  0.125362D+00  0.134115D+00
     31  0.563792D-03  0.164338D-02  0.189437D-02 -0.297055D-02  0.128144D-02
     32  0.599394D-04 -0.164313D-03  0.167882D-01 -0.202412D-01  0.978635D-02
     33  0.179338D-02 -0.448150D-02  0.109665D-01 -0.128585D-01  0.721440D-02
     34  0.704175D-03  0.470459D-03 -0.390108D-02 -0.102217D-02 -0.224958D-03
     35 -0.446159D-04 -0.180680D-03 -0.266077D-01 -0.850588D-02  0.103395D-02
     36 -0.352366D-03  0.138034D-02 -0.177084D-01 -0.497289D-02  0.131198D-02
               31            32            33            34            35 
     31  0.147416D+00
     32 -0.121879D+00  0.191933D+00
     33  0.649414D-01 -0.813680D-01  0.960465D-01
     34 -0.156916D-01 -0.617797D-02  0.138765D-02  0.312244D+00
     35  0.225233D-01  0.812904D-02 -0.275064D-02  0.805455D-01  0.695117D-01
     36 -0.111588D-01 -0.518111D-02 -0.220965D-03 -0.219252D-01 -0.735094D-02
               36 
     36  0.538591D-01
 Internal force constants: 
                1             2             3             4             5 
      1  0.448964D+00
      2  0.841087D-02  0.371248D+00
      3  0.882037D-02 -0.159361D-03  0.360089D+00
      4 -0.221152D-03 -0.176282D-02  0.826542D-03  0.550460D+00
      5  0.197527D-05  0.000000D+00  0.000000D+00  0.000000D+00  0.000000D+00
      6 -0.150202D-04  0.101884D-05  0.104887D-05  0.242013D-05  0.000000D+00
      7  0.510826D-05  0.000000D+00  0.000000D+00 -0.190588D-05  0.000000D+00
      8  0.513577D-05  0.000000D+00 -0.133615D-05  0.000000D+00 -0.151391D-05
      9  0.103755D-04  0.000000D+00 -0.133240D-05 -0.238874D-05  0.117256D-05
     10 -0.151622D-04  0.000000D+00  0.225345D-05  0.106635D-05  0.000000D+00
     11 -0.145905D-04  0.132488D-05  0.000000D+00  0.379402D-05  0.000000D+00
     12  0.513570D-01  0.208730D-02 -0.115916D-01  0.616517D-02  0.000000D+00
     13  0.460659D-01 -0.103254D-01 -0.128819D-02 -0.778717D-02  0.000000D+00
     14  0.531166D-01  0.271514D-02 -0.416240D-03  0.167832D-01 -0.149103D-05
     15 -0.440110D-04  0.269654D-05  0.316568D-05  0.400776D-05  0.000000D+00
     16 -0.363761D-04  0.224495D-05  0.253274D-05  0.614409D-05 -0.124967D-05
     17  0.000000D+00  0.000000D+00  0.000000D+00  0.000000D+00  0.000000D+00
     18 -0.144346D-05  0.000000D+00  0.000000D+00  0.000000D+00  0.000000D+00
     19 -0.175355D-04  0.000000D+00  0.000000D+00  0.234092D-05  0.000000D+00
     20 -0.786562D-05  0.000000D+00  0.204744D-05  0.000000D+00  0.000000D+00
     21 -0.718551D-05  0.199479D-05 -0.119578D-05  0.366731D-05 -0.266167D-05
     22  0.443105D-02 -0.914827D-02 -0.120642D-01 -0.133955D-02 -0.247286D-05
     23  0.130860D-02  0.673144D-03 -0.187073D-02 -0.100753D-02  0.350742D-05
     24  0.596277D-05 -0.481149D-05  0.505051D-05 -0.680742D-05  0.392004D-05
     25 -0.182479D-05  0.000000D+00  0.147407D-05 -0.177580D-05  0.110853D-05
     26  0.000000D+00 -0.205076D-05  0.400404D-05 -0.432647D-05  0.347182D-05
     27  0.218414D-04 -0.351804D-05  0.000000D+00 -0.722415D-05  0.465176D-05
     28  0.000000D+00  0.000000D+00 -0.103600D-05  0.000000D+00  0.000000D+00
     29  0.350298D-04 -0.262872D-05 -0.357116D-05 -0.649030D-05  0.191419D-05
     30 -0.358818D-04  0.327531D-05  0.253042D-05  0.704326D-05 -0.277455D-05
                6             7             8             9            10 
      6  0.321146D+00
      7  0.315127D-02  0.364646D+00
      8  0.312557D-02  0.103202D-02  0.364738D+00
      9  0.153362D-01  0.102688D-03  0.985696D-04  0.318036D+00
     10  0.692733D-02  0.700508D-03 -0.553563D-03  0.349206D-02  0.338277D+00
     11  0.687790D-02 -0.553110D-03  0.700615D-03  0.348510D-02  0.193801D-02
     12 -0.230521D-05  0.267537D-05  0.000000D+00  0.439043D-05 -0.196091D-05
     13 -0.136067D-05 -0.150632D-05  0.208310D-05  0.521966D-05 -0.428127D-05
     14  0.520285D-05  0.179295D-05 -0.266088D-05 -0.625224D-05  0.660847D-05
     15  0.464204D-04 -0.180652D-04  0.230983D-04  0.110951D-03 -0.569343D-04
     16 -0.635053D-04  0.433021D-04 -0.728666D-05 -0.102979D-03  0.465695D-04
     17  0.269157D-01 -0.254452D-02 -0.168030D-01  0.155370D-02 -0.119550D-02
     18  0.269496D-01 -0.168461D-01 -0.238487D-02  0.157614D-02  0.396008D-02
     19  0.371490D-01  0.753735D-03  0.770094D-03 -0.525438D-02 -0.947456D-02
     20  0.356389D-01 -0.110392D-02  0.474825D-02 -0.922565D-02 -0.433889D-02
     21  0.356476D-01  0.478072D-02 -0.111538D-02 -0.922075D-02 -0.805734D-02
     22  0.244184D-05  0.550108D-05  0.130186D-05 -0.823043D-05  0.297700D-05
     23  0.378262D-05 -0.786795D-05 -0.821708D-05  0.122481D-04  0.348848D-05
     24  0.102354D-04  0.108139D-03  0.666816D-04  0.795726D-05  0.126700D-05
     25  0.114490D-04  0.138701D-03  0.554268D-04 -0.134570D-04 -0.217235D-05
     26 -0.160242D-04 -0.963914D-04 -0.613440D-04 -0.133488D-04 -0.222608D-05
     27 -0.244736D-02  0.247571D-02  0.317844D-02  0.612650D-03 -0.229579D-02
     28  0.194541D-04 -0.741906D-03  0.741778D-03  0.271267D-04 -0.408144D-02
     29 -0.676527D-02 -0.767488D-03 -0.419499D-03  0.170192D-01 -0.511760D-03
     30  0.676159D-02  0.414646D-03  0.769454D-03 -0.170062D-01  0.130139D-01
               11            12            13            14            15 
     11  0.338401D+00
     12 -0.490803D-05  0.237997D+00
     13  0.000000D+00  0.692364D-01  0.237635D+00
     14  0.198361D-05  0.220595D-01 -0.293927D-02  0.176709D+00
     15 -0.478452D-05 -0.505474D-05 -0.501850D-05  0.101191D-04 -0.173291D-02
     16 -0.867628D-05 -0.713568D-05 -0.387761D-05  0.114587D-04  0.157528D-02
     17  0.396544D-02  0.167141D-05  0.000000D+00  0.132448D-05  0.112272D-04
     18 -0.121407D-02  0.139528D-05  0.190293D-05  0.272249D-05 -0.881306D-05
     19 -0.944217D-02 -0.372459D-05 -0.206010D-05  0.327211D-05  0.240903D-04
     20 -0.806351D-02  0.243400D-05 -0.225705D-05  0.836496D-05 -0.944746D-04
     21 -0.437935D-02 -0.166852D-05  0.239907D-05  0.210320D-05 -0.133135D-03
     22 -0.105939D-05  0.313803D-01  0.311541D-01  0.243053D-02  0.688198D-05
     23  0.291405D-05  0.316265D-02 -0.337899D-04  0.171845D-02  0.204840D-04
     24  0.399720D-04  0.775964D-05 -0.805470D-05  0.939593D-05 -0.240224D-03
     25  0.384277D-04  0.115163D-05 -0.197447D-05  0.309884D-05  0.272637D-03
     26 -0.249705D-04  0.646773D-05 -0.623400D-05  0.785717D-05  0.681830D-03
     27  0.179303D-02  0.552304D-05  0.157087D-05 -0.124212D-04  0.394438D-03
     28  0.409782D-02 -0.186327D-05  0.224836D-05 -0.185314D-05 -0.146895D-03
     29 -0.130104D-01  0.691152D-05  0.765685D-05 -0.146268D-04 -0.810784D-04
     30  0.571302D-03 -0.945450D-05 -0.480136D-05  0.128859D-04 -0.313528D-04
               16            17            18            19            20 
     16 -0.152078D-02
     17 -0.254871D-04  0.214359D+00
     18 -0.324284D-04  0.949183D-01  0.214774D+00
     19 -0.385967D-04  0.173367D-02  0.184424D-02  0.205448D+00
     20  0.715102D-04 -0.642050D-02  0.194155D-01  0.341988D-01  0.221087D+00
     21  0.122303D-03  0.194923D-01 -0.642730D-02  0.341954D-01  0.295411D-01
     22  0.596173D-05 -0.120575D-05  0.000000D+00  0.000000D+00  0.104101D-04
     23  0.596855D-05  0.639792D-05  0.589396D-05  0.728512D-05 -0.664499D-05
     24  0.238440D-03 -0.106051D-03  0.458455D-04  0.602627D-04 -0.128224D-03
     25 -0.239367D-03 -0.124125D-03  0.437787D-03  0.132240D-04 -0.128358D-03
     26 -0.612441D-03  0.995454D-04  0.795824D-04 -0.593160D-04  0.970020D-04
     27 -0.340031D-03 -0.986761D-02 -0.133233D-01 -0.279480D-02 -0.172512D-02
     28  0.678171D-04  0.346188D-02 -0.348714D-02  0.181457D-04 -0.209752D-02
     29  0.946918D-04  0.123908D-02 -0.274280D-02 -0.531040D-01 -0.421398D-03
     30 -0.255275D-05  0.270614D-02 -0.123084D-02  0.530984D-01 -0.555573D-01
               21            22            23            24            25 
     21  0.221278D+00
     22  0.369794D-05  0.208999D-01
     23 -0.649968D-05  0.375454D-02  0.139006D-01
     24  0.337358D-04  0.130271D-04 -0.703452D-05 -0.108658D-03
     25  0.401680D-04  0.259134D-05  0.000000D+00  0.134410D-03  0.396936D-03
     26  0.154137D-04  0.885606D-05  0.000000D+00  0.144974D-03 -0.844828D-04
     27  0.266824D-03 -0.175438D-04  0.297422D-04  0.237504D-03  0.456523D-04
     28  0.201625D-02 -0.212578D-05  0.000000D+00 -0.305265D-03  0.299955D-04
     29  0.555495D-01 -0.160518D-04  0.137234D-04 -0.532792D-04 -0.550924D-04
     30  0.338945D-03  0.133375D-04 -0.133950D-04 -0.132114D-04 -0.363544D-04
               26            27            28            29            30 
     26 -0.358148D-03
     27 -0.287373D-03  0.119816D-01
     28  0.369425D-03  0.111316D-02  0.192674D-02
     29  0.106185D-03  0.314406D-02  0.455954D-02  0.165308D+00
     30 -0.179793D-04  0.155049D-02  0.475445D-02 -0.775291D-01  0.165459D+00
 Frcnst in PutFF: 
                1             2             3             4             5 
      1  0.448964D+00
      2  0.841087D-02  0.371248D+00
      3  0.882037D-02 -0.159361D-03  0.360089D+00
      4 -0.221152D-03 -0.176282D-02  0.826542D-03  0.550460D+00
      5  0.513570D-01  0.208730D-02 -0.115916D-01  0.616517D-02  0.237997D+00
      6  0.460659D-01 -0.103254D-01 -0.128819D-02 -0.778717D-02  0.692364D-01
      7  0.531166D-01  0.271514D-02 -0.416240D-03  0.167832D-01  0.220595D-01
      8  0.443105D-02 -0.914827D-02 -0.120642D-01 -0.133955D-02  0.313803D-01
      9 -0.150202D-04  0.101884D-05  0.104887D-05  0.242013D-05 -0.230521D-05
     10  0.510826D-05  0.000000D+00  0.000000D+00 -0.190588D-05  0.267537D-05
     11  0.513577D-05  0.000000D+00 -0.133615D-05  0.000000D+00  0.000000D+00
     12  0.103755D-04  0.000000D+00 -0.133240D-05 -0.238874D-05  0.439043D-05
     13 -0.151622D-04  0.000000D+00  0.225345D-05  0.106635D-05 -0.196091D-05
     14 -0.145905D-04  0.132488D-05  0.000000D+00  0.379402D-05 -0.490803D-05
     15  0.000000D+00  0.000000D+00  0.000000D+00  0.000000D+00  0.167141D-05
     16 -0.144346D-05  0.000000D+00  0.000000D+00  0.000000D+00  0.139528D-05
     17 -0.175355D-04  0.000000D+00  0.000000D+00  0.234092D-05 -0.372459D-05
     18 -0.786562D-05  0.000000D+00  0.204744D-05  0.000000D+00  0.243400D-05
     19 -0.718551D-05  0.199479D-05 -0.119578D-05  0.366731D-05 -0.166852D-05
     20  0.218414D-04 -0.351804D-05  0.000000D+00 -0.722415D-05  0.552304D-05
     21  0.350298D-04 -0.262872D-05 -0.357116D-05 -0.649030D-05  0.691152D-05
     22 -0.358818D-04  0.327531D-05  0.253042D-05  0.704326D-05 -0.945450D-05
     23 -0.363761D-04  0.224495D-05  0.253274D-05  0.614409D-05 -0.713568D-05
     24 -0.182479D-05  0.000000D+00  0.147407D-05 -0.177580D-05  0.115163D-05
     25  0.000000D+00 -0.205076D-05  0.400404D-05 -0.432647D-05  0.646773D-05
     26  0.130860D-02  0.673144D-03 -0.187073D-02 -0.100753D-02  0.316265D-02
     27  0.000000D+00  0.000000D+00 -0.103600D-05  0.000000D+00 -0.186327D-05
     28  0.596277D-05 -0.481149D-05  0.505051D-05 -0.680742D-05  0.775964D-05
     29 -0.440110D-04  0.269654D-05  0.316568D-05  0.400776D-05 -0.505474D-05
     30  0.197527D-05  0.000000D+00  0.000000D+00  0.000000D+00  0.000000D+00
                6             7             8             9            10 
      6  0.237635D+00
      7 -0.293927D-02  0.176709D+00
      8  0.311541D-01  0.243053D-02  0.208999D-01
      9 -0.136067D-05  0.520285D-05  0.244184D-05  0.321146D+00
     10 -0.150632D-05  0.179295D-05  0.550108D-05  0.315127D-02  0.364646D+00
     11  0.208310D-05 -0.266088D-05  0.130186D-05  0.312557D-02  0.103202D-02
     12  0.521966D-05 -0.625224D-05 -0.823043D-05  0.153362D-01  0.102688D-03
     13 -0.428127D-05  0.660847D-05  0.297700D-05  0.692733D-02  0.700508D-03
     14  0.000000D+00  0.198361D-05 -0.105939D-05  0.687790D-02 -0.553110D-03
     15  0.000000D+00  0.132448D-05 -0.120575D-05  0.269157D-01 -0.254452D-02
     16  0.190293D-05  0.272249D-05  0.000000D+00  0.269496D-01 -0.168461D-01
     17 -0.206010D-05  0.327211D-05  0.000000D+00  0.371490D-01  0.753735D-03
     18 -0.225705D-05  0.836496D-05  0.104101D-04  0.356389D-01 -0.110392D-02
     19  0.239907D-05  0.210320D-05  0.369794D-05  0.356476D-01  0.478072D-02
     20  0.157087D-05 -0.124212D-04 -0.175438D-04 -0.244736D-02  0.247571D-02
     21  0.765685D-05 -0.146268D-04 -0.160518D-04 -0.676527D-02 -0.767488D-03
     22 -0.480136D-05  0.128859D-04  0.133375D-04  0.676159D-02  0.414646D-03
     23 -0.387761D-05  0.114587D-04  0.596173D-05 -0.635053D-04  0.433021D-04
     24 -0.197447D-05  0.309884D-05  0.259134D-05  0.114490D-04  0.138701D-03
     25 -0.623400D-05  0.785717D-05  0.885606D-05 -0.160242D-04 -0.963914D-04
     26 -0.337899D-04  0.171845D-02  0.375454D-02  0.378262D-05 -0.786795D-05
     27  0.224836D-05 -0.185314D-05 -0.212578D-05  0.194541D-04 -0.741906D-03
     28 -0.805470D-05  0.939593D-05  0.130271D-04  0.102354D-04  0.108139D-03
     29 -0.501850D-05  0.101191D-04  0.688198D-05  0.464204D-04 -0.180652D-04
     30  0.000000D+00 -0.149103D-05 -0.247286D-05  0.000000D+00  0.000000D+00
               11            12            13            14            15 
     11  0.364738D+00
     12  0.985696D-04  0.318036D+00
     13 -0.553563D-03  0.349206D-02  0.338277D+00
     14  0.700615D-03  0.348510D-02  0.193801D-02  0.338401D+00
     15 -0.168030D-01  0.155370D-02 -0.119550D-02  0.396544D-02  0.214359D+00
     16 -0.238487D-02  0.157614D-02  0.396008D-02 -0.121407D-02  0.949183D-01
     17  0.770094D-03 -0.525438D-02 -0.947456D-02 -0.944217D-02  0.173367D-02
     18  0.474825D-02 -0.922565D-02 -0.433889D-02 -0.806351D-02 -0.642050D-02
     19 -0.111538D-02 -0.922075D-02 -0.805734D-02 -0.437935D-02  0.194923D-01
     20  0.317844D-02  0.612650D-03 -0.229579D-02  0.179303D-02 -0.986761D-02
     21 -0.419499D-03  0.170192D-01 -0.511760D-03 -0.130104D-01  0.123908D-02
     22  0.769454D-03 -0.170062D-01  0.130139D-01  0.571302D-03  0.270614D-02
     23 -0.728666D-05 -0.102979D-03  0.465695D-04 -0.867628D-05 -0.254871D-04
     24  0.554268D-04 -0.134570D-04 -0.217235D-05  0.384277D-04 -0.124125D-03
     25 -0.613440D-04 -0.133488D-04 -0.222608D-05 -0.249705D-04  0.995454D-04
     26 -0.821708D-05  0.122481D-04  0.348848D-05  0.291405D-05  0.639792D-05
     27  0.741778D-03  0.271267D-04 -0.408144D-02  0.409782D-02  0.346188D-02
     28  0.666816D-04  0.795726D-05  0.126700D-05  0.399720D-04 -0.106051D-03
     29  0.230983D-04  0.110951D-03 -0.569343D-04 -0.478452D-05  0.112272D-04
     30 -0.151391D-05  0.117256D-05  0.000000D+00  0.000000D+00  0.000000D+00
               16            17            18            19            20 
     16  0.214774D+00
     17  0.184424D-02  0.205448D+00
     18  0.194155D-01  0.341988D-01  0.221087D+00
     19 -0.642730D-02  0.341954D-01  0.295411D-01  0.221278D+00
     20 -0.133233D-01 -0.279480D-02 -0.172512D-02  0.266824D-03  0.119816D-01
     21 -0.274280D-02 -0.531040D-01 -0.421398D-03  0.555495D-01  0.314406D-02
     22 -0.123084D-02  0.530984D-01 -0.555573D-01  0.338945D-03  0.155049D-02
     23 -0.324284D-04 -0.385967D-04  0.715102D-04  0.122303D-03 -0.340031D-03
     24  0.437787D-03  0.132240D-04 -0.128358D-03  0.401680D-04  0.456523D-04
     25  0.795824D-04 -0.593160D-04  0.970020D-04  0.154137D-04 -0.287373D-03
     26  0.589396D-05  0.728512D-05 -0.664499D-05 -0.649968D-05  0.297422D-04
     27 -0.348714D-02  0.181457D-04 -0.209752D-02  0.201625D-02  0.111316D-02
     28  0.458455D-04  0.602627D-04 -0.128224D-03  0.337358D-04  0.237504D-03
     29 -0.881306D-05  0.240903D-04 -0.944746D-04 -0.133135D-03  0.394438D-03
     30  0.000000D+00  0.000000D+00  0.000000D+00 -0.266167D-05  0.465176D-05
               21            22            23            24            25 
     21  0.165308D+00
     22 -0.775291D-01  0.165459D+00
     23  0.946918D-04 -0.255275D-05 -0.152078D-02
     24 -0.550924D-04 -0.363544D-04 -0.239367D-03  0.396936D-03
     25  0.106185D-03 -0.179793D-04 -0.612441D-03 -0.844828D-04 -0.358148D-03
     26  0.137234D-04 -0.133950D-04  0.596855D-05  0.000000D+00  0.000000D+00
     27  0.455954D-02  0.475445D-02  0.678171D-04  0.299955D-04  0.369425D-03
     28 -0.532792D-04 -0.132114D-04  0.238440D-03  0.134410D-03  0.144974D-03
     29 -0.810784D-04 -0.313528D-04  0.157528D-02  0.272637D-03  0.681830D-03
     30  0.191419D-05 -0.277455D-05 -0.124967D-05  0.110853D-05  0.347182D-05
               26            27            28            29            30 
     26  0.139006D-01
     27  0.000000D+00  0.192674D-02
     28 -0.703452D-05 -0.305265D-03 -0.108658D-03
     29  0.204840D-04 -0.146895D-03 -0.240224D-03 -0.173291D-02
     30  0.350742D-05  0.000000D+00  0.392004D-05  0.000000D+00  0.000000D+00
 Force constants in internal coordinates: 
                1             2             3             4             5 
      1  0.448964D+00
      2  0.841087D-02  0.371248D+00
      3  0.882037D-02 -0.159361D-03  0.360089D+00
      4 -0.221152D-03 -0.176282D-02  0.826542D-03  0.550460D+00
      5  0.197527D-05  0.000000D+00  0.000000D+00  0.000000D+00  0.000000D+00
      6 -0.150202D-04  0.101884D-05  0.104887D-05  0.242013D-05  0.000000D+00
      7  0.510826D-05  0.000000D+00  0.000000D+00 -0.190588D-05  0.000000D+00
      8  0.513577D-05  0.000000D+00 -0.133615D-05  0.000000D+00 -0.151391D-05
      9  0.103755D-04  0.000000D+00 -0.133240D-05 -0.238874D-05  0.117256D-05
     10 -0.151622D-04  0.000000D+00  0.225345D-05  0.106635D-05  0.000000D+00
     11 -0.145905D-04  0.132488D-05  0.000000D+00  0.379402D-05  0.000000D+00
     12  0.513570D-01  0.208730D-02 -0.115916D-01  0.616517D-02  0.000000D+00
     13  0.460659D-01 -0.103254D-01 -0.128819D-02 -0.778717D-02  0.000000D+00
     14  0.531166D-01  0.271514D-02 -0.416240D-03  0.167832D-01 -0.149103D-05
     15 -0.440110D-04  0.269654D-05  0.316568D-05  0.400776D-05  0.000000D+00
     16 -0.363761D-04  0.224495D-05  0.253274D-05  0.614409D-05 -0.124967D-05
     17  0.000000D+00  0.000000D+00  0.000000D+00  0.000000D+00  0.000000D+00
     18 -0.144346D-05  0.000000D+00  0.000000D+00  0.000000D+00  0.000000D+00
     19 -0.175355D-04  0.000000D+00  0.000000D+00  0.234092D-05  0.000000D+00
     20 -0.786562D-05  0.000000D+00  0.204744D-05  0.000000D+00  0.000000D+00
     21 -0.718551D-05  0.199479D-05 -0.119578D-05  0.366731D-05 -0.266167D-05
     22  0.443105D-02 -0.914827D-02 -0.120642D-01 -0.133955D-02 -0.247286D-05
     23  0.130860D-02  0.673144D-03 -0.187073D-02 -0.100753D-02  0.350742D-05
     24  0.596277D-05 -0.481149D-05  0.505051D-05 -0.680742D-05  0.392004D-05
     25 -0.182479D-05  0.000000D+00  0.147407D-05 -0.177580D-05  0.110853D-05
     26  0.000000D+00 -0.205076D-05  0.400404D-05 -0.432647D-05  0.347182D-05
     27  0.218414D-04 -0.351804D-05  0.000000D+00 -0.722415D-05  0.465176D-05
     28  0.000000D+00  0.000000D+00 -0.103600D-05  0.000000D+00  0.000000D+00
     29  0.350298D-04 -0.262872D-05 -0.357116D-05 -0.649030D-05  0.191419D-05
     30 -0.358818D-04  0.327531D-05  0.253042D-05  0.704326D-05 -0.277455D-05
                6             7             8             9            10 
      6  0.321146D+00
      7  0.315127D-02  0.364646D+00
      8  0.312557D-02  0.103202D-02  0.364738D+00
      9  0.153362D-01  0.102688D-03  0.985696D-04  0.318036D+00
     10  0.692733D-02  0.700508D-03 -0.553563D-03  0.349206D-02  0.338277D+00
     11  0.687790D-02 -0.553110D-03  0.700615D-03  0.348510D-02  0.193801D-02
     12 -0.230521D-05  0.267537D-05  0.000000D+00  0.439043D-05 -0.196091D-05
     13 -0.136067D-05 -0.150632D-05  0.208310D-05  0.521966D-05 -0.428127D-05
     14  0.520285D-05  0.179295D-05 -0.266088D-05 -0.625224D-05  0.660847D-05
     15  0.464204D-04 -0.180652D-04  0.230983D-04  0.110951D-03 -0.569343D-04
     16 -0.635053D-04  0.433021D-04 -0.728666D-05 -0.102979D-03  0.465695D-04
     17  0.269157D-01 -0.254452D-02 -0.168030D-01  0.155370D-02 -0.119550D-02
     18  0.269496D-01 -0.168461D-01 -0.238487D-02  0.157614D-02  0.396008D-02
     19  0.371490D-01  0.753735D-03  0.770094D-03 -0.525438D-02 -0.947456D-02
     20  0.356389D-01 -0.110392D-02  0.474825D-02 -0.922565D-02 -0.433889D-02
     21  0.356476D-01  0.478072D-02 -0.111538D-02 -0.922075D-02 -0.805734D-02
     22  0.244184D-05  0.550108D-05  0.130186D-05 -0.823043D-05  0.297700D-05
     23  0.378262D-05 -0.786795D-05 -0.821708D-05  0.122481D-04  0.348848D-05
     24  0.102354D-04  0.108139D-03  0.666816D-04  0.795726D-05  0.126700D-05
     25  0.114490D-04  0.138701D-03  0.554268D-04 -0.134570D-04 -0.217235D-05
     26 -0.160242D-04 -0.963914D-04 -0.613440D-04 -0.133488D-04 -0.222608D-05
     27 -0.244736D-02  0.247571D-02  0.317844D-02  0.612650D-03 -0.229579D-02
     28  0.194541D-04 -0.741906D-03  0.741778D-03  0.271267D-04 -0.408144D-02
     29 -0.676527D-02 -0.767488D-03 -0.419499D-03  0.170192D-01 -0.511760D-03
     30  0.676159D-02  0.414646D-03  0.769454D-03 -0.170062D-01  0.130139D-01
               11            12            13            14            15 
     11  0.338401D+00
     12 -0.490803D-05  0.237997D+00
     13  0.000000D+00  0.692364D-01  0.237635D+00
     14  0.198361D-05  0.220595D-01 -0.293927D-02  0.176709D+00
     15 -0.478452D-05 -0.505474D-05 -0.501850D-05  0.101191D-04 -0.173291D-02
     16 -0.867628D-05 -0.713568D-05 -0.387761D-05  0.114587D-04  0.157528D-02
     17  0.396544D-02  0.167141D-05  0.000000D+00  0.132448D-05  0.112272D-04
     18 -0.121407D-02  0.139528D-05  0.190293D-05  0.272249D-05 -0.881306D-05
     19 -0.944217D-02 -0.372459D-05 -0.206010D-05  0.327211D-05  0.240903D-04
     20 -0.806351D-02  0.243400D-05 -0.225705D-05  0.836496D-05 -0.944746D-04
     21 -0.437935D-02 -0.166852D-05  0.239907D-05  0.210320D-05 -0.133135D-03
     22 -0.105939D-05  0.313803D-01  0.311541D-01  0.243053D-02  0.688198D-05
     23  0.291405D-05  0.316265D-02 -0.337899D-04  0.171845D-02  0.204840D-04
     24  0.399720D-04  0.775964D-05 -0.805470D-05  0.939593D-05 -0.240224D-03
     25  0.384277D-04  0.115163D-05 -0.197447D-05  0.309884D-05  0.272637D-03
     26 -0.249705D-04  0.646773D-05 -0.623400D-05  0.785717D-05  0.681830D-03
     27  0.179303D-02  0.552304D-05  0.157087D-05 -0.124212D-04  0.394438D-03
     28  0.409782D-02 -0.186327D-05  0.224836D-05 -0.185314D-05 -0.146895D-03
     29 -0.130104D-01  0.691152D-05  0.765685D-05 -0.146268D-04 -0.810784D-04
     30  0.571302D-03 -0.945450D-05 -0.480136D-05  0.128859D-04 -0.313528D-04
               16            17            18            19            20 
     16 -0.152078D-02
     17 -0.254871D-04  0.214359D+00
     18 -0.324284D-04  0.949183D-01  0.214774D+00
     19 -0.385967D-04  0.173367D-02  0.184424D-02  0.205448D+00
     20  0.715102D-04 -0.642050D-02  0.194155D-01  0.341988D-01  0.221087D+00
     21  0.122303D-03  0.194923D-01 -0.642730D-02  0.341954D-01  0.295411D-01
     22  0.596173D-05 -0.120575D-05  0.000000D+00  0.000000D+00  0.104101D-04
     23  0.596855D-05  0.639792D-05  0.589396D-05  0.728512D-05 -0.664499D-05
     24  0.238440D-03 -0.106051D-03  0.458455D-04  0.602627D-04 -0.128224D-03
     25 -0.239367D-03 -0.124125D-03  0.437787D-03  0.132240D-04 -0.128358D-03
     26 -0.612441D-03  0.995454D-04  0.795824D-04 -0.593160D-04  0.970020D-04
     27 -0.340031D-03 -0.986761D-02 -0.133233D-01 -0.279480D-02 -0.172512D-02
     28  0.678171D-04  0.346188D-02 -0.348714D-02  0.181457D-04 -0.209752D-02
     29  0.946918D-04  0.123908D-02 -0.274280D-02 -0.531040D-01 -0.421398D-03
     30 -0.255275D-05  0.270614D-02 -0.123084D-02  0.530984D-01 -0.555573D-01
               21            22            23            24            25 
     21  0.221278D+00
     22  0.369794D-05  0.208999D-01
     23 -0.649968D-05  0.375454D-02  0.139006D-01
     24  0.337358D-04  0.130271D-04 -0.703452D-05 -0.108658D-03
     25  0.401680D-04  0.259134D-05  0.000000D+00  0.134410D-03  0.396936D-03
     26  0.154137D-04  0.885606D-05  0.000000D+00  0.144974D-03 -0.844828D-04
     27  0.266824D-03 -0.175438D-04  0.297422D-04  0.237504D-03  0.456523D-04
     28  0.201625D-02 -0.212578D-05  0.000000D+00 -0.305265D-03  0.299955D-04
     29  0.555495D-01 -0.160518D-04  0.137234D-04 -0.532792D-04 -0.550924D-04
     30  0.338945D-03  0.133375D-04 -0.133950D-04 -0.132114D-04 -0.363544D-04
               26            27            28            29            30 
     26 -0.358148D-03
     27 -0.287373D-03  0.119816D-01
     28  0.369425D-03  0.111316D-02  0.192674D-02
     29  0.106185D-03  0.314406D-02  0.455954D-02  0.165308D+00
     30 -0.179793D-04  0.155049D-02  0.475445D-02 -0.775291D-01  0.165459D+00
 Final forces over variables, Energy=-1.94229498D+02:
 -4.40763824D-05-3.07255590D-06 7.54305338D-06-1.92347851D-05
 -1.71560627D-05 9.79362535D-06-3.91582171D-05 2.26342802D-05
  1.95579071D-05-4.23918990D-06-2.58453406D-06-1.06013096D-07
 -4.38886172D-06-1.99948000D-06-4.61794347D-05-3.53368456D-05
 -1.67395194D-05-3.37905641D-06-3.09078290D-06-2.32472124D-06
 -6.26325271D-06-6.35745159D-06-2.29429052D-05 1.12825632D-05
  3.00053610D-05-2.25569348D-05-1.84766965D-05 1.15748593D-05
  1.37629091D-05 1.47061828D-06

 GradGradGradGradGradGradGradGradGradGradGradGradGradGradGradGradGradGrad
 Berny optimization.
 Search for a local minimum.
 Step number   1 out of a maximum of    2
 All quantities printed in internal units (Hartrees-Bohrs-Radians)
 Second derivative matrix not updated -- analytic derivatives used.
 ITU=  0
     Eigenvalues ---   -0.00360  -0.00026  -0.00007  -0.00003   0.00045
     Eigenvalues ---    0.00118   0.01039   0.01084   0.01706   0.06272
     Eigenvalues ---    0.10766   0.11345   0.15061   0.18284   0.22202
     Eigenvalues ---    0.22448   0.28208   0.28705   0.29584   0.33373
     Eigenvalues ---    0.33725   0.34818   0.36272   0.36487   0.37010
     Eigenvalues ---    0.37279   0.38768   0.48782   0.551591000.00000
 Eigenvalue     1 is  -3.60D-03 should be greater than     0.000000 Eigenvector:
                         ANG1      ANG2       DH3       DH1       DH2
   1                    0.69065  -0.64209  -0.28588   0.11576  -0.09566
                          D24       D23       A22       D26       D25
   1                    0.06656  -0.04463  -0.00297  -0.00161  -0.00148
 Eigenvalue     2 is  -2.64D-04 should be greater than     0.000000 Eigenvector:
                          DH3       DH1       D24      ANG2      ANG1
   1                    0.64682  -0.61958  -0.30011  -0.28087   0.15070
                          DH2       D23       D26       D25       A22
   1                    0.06487   0.03410   0.01657   0.01627   0.00877
 Eigenvalue     3 is  -6.64D-05 should be greater than     0.000000 Eigenvector:
                          DH1      ANG2      ANG1       DH3       DH2
   1                    0.57558  -0.53534  -0.43178   0.42837  -0.11029
                          D24       D23       D4        D3        A23
   1                   -0.00483  -0.00173   0.00136  -0.00063  -0.00043
 Eigenvalue     4 is  -3.10D-05 should be greater than     0.000000 Eigenvector:
                         ANG1       DH3      ANG2       DH1       DH2
   1                    0.55349   0.51220   0.46681   0.44331  -0.12983
                          D24       D3        D23       D4        D25
   1                    0.00155  -0.00112  -0.00111  -0.00047  -0.00026
 Quadratic step=6.428D-01 exceeds max=3.000D-01 adjusted using Lamda=-5.092D-05.
 Angle between NR and scaled steps=  13.66 degrees.
 Angle between quadratic step and forces=  69.62 degrees.
 Linear search not attempted -- first point.
 Variable       Old X    -DE/DX   Delta X   Delta X   Delta X     New X
                                 (Linear)    (Quad)   (Total)
    R1        2.56556  -0.00004   0.00000  -0.00005  -0.00005   2.56551
    R2        2.03682  -0.00000   0.00000   0.00004   0.00004   2.03687
    R3        2.04393   0.00001   0.00000   0.00006   0.00006   2.04399
    R4        1.80907  -0.00002   0.00000  -0.00002  -0.00002   1.80904
    A2        1.98946  -0.00002   0.00000  -0.00024  -0.00024   1.98922
    A3        2.07794   0.00001   0.00000  -0.00011  -0.00011   2.07783
    A4        1.91809  -0.00004   0.00000  -0.00020  -0.00020   1.91789
    D3        3.58720   0.00002   0.00000   0.00183   0.00183   3.58903
   R21        2.80047   0.00002   0.00000   0.00010   0.00010   2.80057
   R22        2.04154  -0.00000   0.00000  -0.00010  -0.00010   2.04144
   R23        2.04148  -0.00000   0.00000   0.00008   0.00008   2.04156
   R24        2.07620  -0.00000   0.00000  -0.00002  -0.00002   2.07618
   R25        2.06164  -0.00000   0.00000  -0.00046  -0.00046   2.06118
   R26        2.06151  -0.00000   0.00000   0.00044   0.00044   2.06195
   A22        2.10976  -0.00005   0.00000   0.00082   0.00082   2.11058
   A23        2.10999  -0.00004   0.00000  -0.00109  -0.00109   2.10891
   A24        1.94866  -0.00002   0.00000  -0.00011  -0.00011   1.94855
   A25        1.95083  -0.00000   0.00000   0.00035   0.00035   1.95118
   A26        1.95080  -0.00000   0.00000  -0.00031  -0.00031   1.95049
   D23        3.00473  -0.00000   0.00000   0.00163   0.00163   3.00636
   D25        2.08032  -0.00001   0.00000   0.00178   0.00178   2.08210
   D26        4.20263  -0.00001   0.00000   0.00194   0.00194   4.20457
   ANG2       1.72081  -0.00002   0.00000  -0.04913  -0.04913   1.67167
   DH2        3.34432   0.00001   0.00000  -0.01151  -0.01151   3.33281
   DH3        1.67066   0.00003   0.00000   0.24238   0.24238   1.91305
    D4        3.06169  -0.00002   0.00000  -0.00196  -0.00196   3.05973
   D24        4.78360  -0.00002   0.00000  -0.03347  -0.03347   4.75014
   DH1        1.78623   0.00001   0.00000   0.16292   0.16292   1.94915
   ANG1       1.96522   0.00001   0.00000   0.03503   0.03503   2.00025
    BB       18.89726   0.00000   0.00000   0.00000   0.00000  18.89726
         Item               Value     Threshold  Converged?
 Maximum Force            0.000046     0.000450     YES
 RMS     Force            0.000020     0.000300     YES
 Maximum Displacement     0.242383     0.001800     NO 
 RMS     Displacement     0.054835     0.001200     NO 
 Predicted change in Energy=-1.400990D-05
 GradGradGradGradGradGradGradGradGradGradGradGradGradGradGradGradGradGrad


 Test job not archived.
 1\1\GINC-NODE-5-9\Freq\UwB97XD\Jun-CC-pVTZ\C3H8O1(3)\ROOT\12-Jun-2024\
 1\\# uwb97xd/jun-cc-pvtz # int=ultrafine nosym freq iop(7/33=1) #guess
 =read geom=allcheck\\geom 0\\0,3\C\O,1,R1\H,1,R2,2,A2\H,1,R3,2,A3,3,D3
 ,0\H,2,R4,1,A4,3,D4,0\C,1,BB,2,ANG1,3,DH1,0\C,6,R21,1,ANG2,2,DH2,0\H,6
 ,R22,7,A22,1,DH3,0\H,6,R23,7,A23,8,D23,0\H,7,R24,6,A24,8,D24,0\H,7,R25
 ,6,A25,10,D25,0\H,7,R26,6,A26,10,D26,0\\R1=1.35763493\R2=1.07784103\R3
 =1.0816024\R4=0.95731599\A2=113.98768077\A3=119.05718272\A4=109.898271
 64\D3=205.53120234\R21=1.48194599\R22=1.08033768\R23=1.08030688\R24=1.
 09867733\R25=1.0909711\R26=1.09090313\A22=120.88040166\A23=120.8937645
 1\A24=111.65010377\A25=111.77426718\A26=111.77268707\D23=172.15845708\
 D25=119.19373248\D26=240.7929815\ANG2=98.5949746\DH2=191.61532682\DH3=
 95.72200523\D4=175.42198095\D24=274.08028084\DH1=102.34343329\ANG1=112
 .59879724\BB=10.\\Version=EM64L-G09RevD.01\HF=-194.2294979\S2=2.008768
 \S2-1=0.\S2A=2.000047\RMSD=1.572e-09\RMSF=1.954e-05\ZeroPoint=0.097190
 2\Thermal=0.1053106\Dipole=-0.5276536,0.1773214,-0.1500921\DipoleDeriv
 =0.1689745,-0.1305924,-0.0469061,-0.1346119,-0.3194812,-0.0561668,-0.0
 692565,-0.0416359,0.8629282,-0.270446,0.0208264,0.0816503,0.0283309,-0
 .3173488,-0.0510808,0.08651,-0.0199201,-1.1597732,-0.0519735,0.0098896
 ,0.0572466,-0.0090414,0.1661578,0.0356439,-0.0008577,0.0260624,0.01547
 5,-0.0380912,0.0886394,-0.0541935,0.1071239,0.1317821,0.0581779,0.0047
 284,0.0356984,-0.0225811,0.1915613,0.0110787,-0.0379735,0.0080304,0.33
 89921,0.013308,-0.021281,-0.000314,0.303878,0.0953152,-0.0948167,-0.02
 77606,-0.0979797,-0.3411484,-0.1219857,-0.0313492,-0.1355673,0.0882735
 ,0.0430919,0.0160749,0.005757,0.0257373,0.1231521,-0.0180037,0.0185334
 ,0.0286289,-0.0122648,-0.0808029,0.0175124,0.0674122,0.0263768,0.13317
 6,0.038498,0.0386058,0.0429341,-0.0036669,-0.0202847,0.0566746,-0.0503
 639,0.047462,0.1110269,0.0771517,-0.0222893,0.0700457,-0.0425679,0.081
 0483,-0.0251207,0.0004642,-0.0174903,-0.0577407,-0.1096235,0.0105079,-
 0.071627,-0.0601208,-0.0013976,0.0889291,-0.0402273,0.0773109,-0.02785
 78,0.0961403,-0.0245848,0.0558541,0.0005593,-0.1169953,-0.0590954,0.04
 48947,-0.0612488,0.0592898,0.0379408,0.010733,0.0098406,0.0298607\Pola
 r=46.2229695,0.177823,45.8113476,-1.8723075,-0.2378841,54.7686867\PG=C
 01 [X(C3H8O1)]\NImag=2\\0.66201151,-0.12646267,0.07373247,-0.02107980,
 -0.05602725,0.60382004,-0.09878037,0.01743217,0.02330486,0.57141214,0.
 01579526,-0.00759697,-0.01111835,-0.05284502,0.01520914,-0.02464915,0.
 00699647,-0.37565218,-0.15509394,0.00598499,0.51134218,-0.31734575,0.0
 1357745,0.11094146,0.00665196,-0.00137550,-0.00060002,0.31861305,-0.00
 292321,-0.00958931,0.00746060,0.00015340,-0.00233495,0.00154816,-0.007
 84117,0.00795761,0.09393356,0.00470607,-0.09247723,0.03580566,-0.00057
 530,-0.02004178,-0.11726681,-0.00463737,0.11000324,-0.24469464,0.09569
 180,-0.10563801,0.00807739,-0.00064451,0.00474129,-0.01022310,0.010127
 17,-0.01240971,0.24441918,0.11296563,-0.05466248,0.05876268,-0.0049942
 6,0.00327899,-0.00001702,-0.00418626,0.00084565,-0.00049653,-0.1035805
 6,0.05122448,-0.09549513,0.04930656,-0.11281391,-0.02494006,0.01461970
 ,-0.02574037,0.00889168,-0.00447411,0.00893002,0.11405851,-0.05910930,
 0.12786896,-0.00118975,-0.00023820,-0.00752945,-0.48736227,0.03907045,
 0.17560335,0.00230323,0.00048277,-0.00006294,0.00242092,-0.00020410,-0
 .00251494,0.48382872,0.00062556,-0.00188068,0.00091943,0.04025388,-0.0
 0855492,-0.01450813,-0.00017484,0.00311997,0.00100307,-0.00159395,-0.0
 0068833,-0.00034298,-0.03911075,0.00800232,0.04729068,-0.00498116,-0.0
 2287399,0.12092389,-0.00891002,-0.08991133,-0.00196614,0.00010268,-0.0
 0641413,-0.00075234,0.00086015,0.00175532,-0.16549619,0.01292708,0.117
 44447,0.00000013,-0.00000873,0.00000665,-0.00000427,-0.00000320,-0.000
 01002,-0.00000031,0.00000143,-0.00000039,0.00000004,0.00000608,-0.0000
 0010,0.00000306,0.00000545,0.00000383,0.60692744,-0.00001212,-0.000037
 22,0.00003463,0.00000198,-0.00002341,-0.00005447,0.00000556,0.00001641
 ,0.00000113,0.00000340,0.00001665,0.00000093,-0.00000309,0.00002408,0.
 00001519,-0.11217781,0.11790097,-0.00000284,-0.00000877,0.00002185,0.0
 0000194,-0.00000388,-0.00003236,0.00000240,0.00000424,0.00000183,-0.00
 000092,0.00000513,0.00000079,-0.00000184,0.00000323,0.00000655,-0.0124
 9288,-0.13295795,0.52100510,0.00000384,-0.00000040,-0.00000293,-0.0000
 0397,0.00000085,0.00000421,-0.00000113,-0.00000228,-0.00000132,-0.0000
 0102,0.00000182,0.00000081,0.00000136,0.00000019,0.00000013,-0.0960080
 2,0.00154674,0.04028395,0.56361540,-0.00000171,-0.00000023,-0.00000720
 ,-0.00000174,-0.00000124,0.00001310,0.00000062,-0.00000029,-0.00000186
 ,0.00000179,-0.00000077,-0.00000139,0.00000071,0.00000204,-0.00000262,
 0.00017551,-0.05322841,0.04524590,-0.01324681,0.50420688,-0.00000064,-
 0.00000148,0.00000537,-0.00000059,-0.00000042,-0.00000491,0.00000075,0
 .00000070,-0.00000114,0.00000066,0.00000109,-0.00000043,-0.00000020,0.
 00000022,0.00000091,0.03841463,0.03863264,-0.22546204,0.01191461,-0.02
 135933,0.48258680,-0.00000073,0.00000684,0.00000196,0.00000466,0.00000
 378,-0.00000199,0.00000069,-0.00000035,0.00000089,-0.00000038,-0.00000
 437,-0.00000027,-0.00000259,-0.00000618,-0.00000101,-0.32060579,0.0298
 2364,0.08612497,-0.00084164,-0.00002304,-0.00182086,0.33229337,0.00000
 292,0.00001414,-0.00001239,0.00000159,0.00000793,0.00001900,-0.0000011
 8,-0.00000486,0.00000027,-0.00000100,-0.00000748,-0.00000029,-0.000000
 44,-0.00000913,-0.00000609,0.02632954,-0.01660183,0.00590787,-0.002870
 71,0.00240165,0.00246522,-0.02938912,0.01102675,0.00000138,0.00000251,
 -0.00000346,-0.00000033,0.00000227,0.00000538,-0.00000058,-0.00000114,
 -0.00000066,-0.00000012,-0.00000116,-0.00000016,0.00000022,-0.00000262
 ,-0.00000087,0.08340784,0.00588579,-0.07835547,0.02711851,-0.00102459,
 -0.00236982,-0.09330565,-0.00627080,0.07687116,-0.00000059,0.00000078,
 -0.00000717,0.00000006,-0.00000148,0.00000985,0.,-0.00000020,-0.000000
 08,0.00000064,-0.00000145,0.00000011,-0.00000040,0.00000175,-0.0000025
 3,-0.19112465,0.08157881,-0.12433956,0.00794078,-0.00344152,0.00732764
 ,-0.01206367,0.00981621,-0.01733747,0.19316118,0.00000664,0.00001492,-
 0.00000789,-0.00000210,0.00001137,0.00001399,-0.00000257,-0.00000761,-
 0.00000050,-0.00000247,-0.00000489,-0.00000011,0.00000193,-0.00001126,
 -0.00000431,0.08454111,-0.05551698,0.08174519,0.00072868,0.00182148,0.
 00123483,-0.00028516,0.00264717,0.00144914,-0.08696728,0.05198464,-0.0
 0000052,0.00000149,-0.00000494,0.00000036,0.00000070,0.00000748,-0.000
 00030,-0.00000028,-0.00000044,0.00000073,-0.00000140,-0.00000055,0.000
 00020,-0.00000067,-0.00000157,-0.12231733,0.07912977,-0.16898248,-0.01
 979149,0.01143339,-0.01044716,0.00767722,-0.00323187,0.00818874,0.1322
 3766,-0.08658428,0.17502777,-0.00000031,-0.00000114,0.00000289,0.00000
 046,-0.00000032,-0.00000467,0.00000035,0.00000090,0.00000056,-0.000000
 19,0.00000045,0.00000011,-0.00000015,0.00000002,0.00000075,0.00075260,
 0.00612184,0.00522757,-0.04484678,-0.02072472,-0.01406454,-0.00040779,
 -0.00122998,-0.00004333,0.00018307,0.00071327,0.00007963,0.04632546,-0
 .00000156,-0.00000877,0.00000834,0.00000142,-0.00000506,-0.00001672,0.
 00000064,0.00000413,0.00000209,-0.00000043,0.00000440,0.00000144,-0.00
 000093,0.00000489,0.00000394,0.00258617,0.00957729,-0.00011350,-0.0234
 0457,-0.20755657,-0.10653677,-0.00023208,-0.00027420,-0.00047729,0.000
 10488,-0.00095417,-0.00040187,0.02493918,0.22795515,-0.00000074,-0.000
 00651,-0.00000223,-0.00000065,-0.00000478,-0.00000064,-0.00000035,0.00
 000221,0.00000078,0.00000032,0.00000273,0.00000070,0.00000049,0.000005
 73,0.00000137,0.00046819,-0.01754112,-0.02575233,-0.01764330,-0.119720
 53,-0.11547176,0.00011375,0.00036736,-0.00073161,0.00046289,0.00071293
 ,-0.00068568,0.01554292,0.12536168,0.13411502,0.00000068,0.00000481,-0
 .00001544,-0.00000111,0.00000147,0.00002322,-0.00000166,-0.00000218,-0
 .00000144,0.00000145,-0.00000357,-0.00000095,0.00000139,-0.00000070,-0
 .00000450,0.00653784,-0.00627350,0.00217047,-0.14157326,0.10886279,-0.
 05820511,0.00070400,-0.00082625,-0.00067365,0.00071151,0.00056379,0.00
 164338,0.00189437,-0.00297055,0.00128144,0.14741639,0.00000291,0.00000
 583,-0.00000168,-0.00000090,0.00000465,0.00000350,-0.00000105,-0.00000
 296,-0.00000010,-0.00000120,-0.00000203,-0.00000004,0.00000095,-0.0000
 0466,-0.00000108,0.00243955,-0.00162477,0.00122716,0.10993837,-0.17867
 439,0.07559171,-0.00020761,0.00041765,0.00010762,-0.00090187,0.0000599
 4,-0.00016431,0.01678821,-0.02024122,0.00978635,-0.12187940,0.19193292
 ,-0.00000004,0.00000715,-0.00001356,0.00000140,0.00000167,0.00001977,-
 0.00000057,-0.00000195,-0.00000021,0.00000071,-0.00000536,-0.00000053,
 -0.00000053,-0.00000206,-0.00000485,-0.02115096,0.02066589,-0.01718134
 ,-0.05898720,0.07552908,-0.08278318,0.00032167,-0.00101067,0.00140542,
 0.00251995,0.00179338,-0.00448150,0.01096652,-0.01285846,0.00721440,0.
 06494138,-0.08136802,0.09604654,-0.00000403,-0.00000272,0.00001500,0.0
 0000531,-0.00000179,-0.00002213,0.00000268,0.00000373,0.00000201,-0.00
 000028,0.00000058,0.00000024,-0.00000353,-0.00000042,0.00000341,-0.006
 47808,-0.00061546,0.00302674,-0.28828555,-0.07160189,0.01643364,0.0009
 1988,-0.00183158,0.00083318,0.00119207,0.00070418,0.00047046,-0.003901
 08,-0.00102217,-0.00022496,-0.01569160,-0.00617797,0.00138765,0.312244
 19,0.00000235,0.00000831,-0.00001091,-0.00000040,0.00000448,0.00001711
 ,-0.00000171,-0.00000379,-0.00000097,-0.00000005,-0.00000419,-0.000000
 40,0.00000070,-0.00000433,-0.00000376,-0.00389510,-0.00050278,-0.00105
 463,-0.07269187,-0.06897013,0.00997160,0.00031365,0.00038221,0.0003302
 7,-0.00018863,-0.00004462,-0.00018068,-0.02660773,-0.00850588,0.001033
 95,0.02252327,0.00812904,-0.00275064,0.08054553,0.06951168,0.00000324,
 0.00000492,-0.00000577,-0.00000254,0.00000343,0.00000876,-0.00000152,-
 0.00000374,-0.00000029,-0.00000112,-0.00000100,0.00000016,0.00000182,-
 0.00000231,-0.00000187,0.03367054,0.00618757,-0.00527011,0.01710403,0.
 00989604,-0.04605264,0.00088932,0.00177240,-0.00500864,-0.00087129,-0.
 00035237,0.00138034,-0.01770842,-0.00497289,0.00131198,-0.01115882,-0.
 00518111,-0.00022097,-0.02192523,-0.00735094,0.05385905\\0.00002365,0.
 00005290,-0.00004344,-0.00001224,0.00000522,0.00001718,-0.00000062,-0.
 00003336,-0.00000894,-0.00000161,-0.00001327,0.00000785,-0.00001174,-0
 .00001236,0.00002690,0.00001748,0.00000849,-0.00005447,-0.00001119,-0.
 00001778,0.00002767,0.00000349,0.00000209,0.00002399,-0.00000981,0.000
 00035,0.00001455,-0.00000043,0.00000491,-0.00000706,0.00000037,0.00000
 527,-0.00000219,0.00000266,-0.00000246,-0.00000204\\\@


 NEVER LOSE YOUR IGNORANCE, IT CAN'T BE REPLACED.
   -- ANDY CAPP
 Job cpu time:       0 days  0 hours 42 minutes 36.5 seconds.
 File lengths (MBytes):  RWF=    182 Int=      0 D2E=      0 Chk=     10 Scr=      1
 Normal termination of Gaussian 09 at Wed Jun 12 17:11:58 2024.
