 Entering Gaussian System, Link 0=g09
 Input=geom.com
 Output=geom.log
 Initial command:
 /software/cinetica/g09d1/g09d01/d01/build-node-6-2-59348/src/main/l1.exe "/scratch/mdt/203493/Gau-29692.inp" -scrdir="/scratch/mdt/203493/"
 Entering Link 1 = /software/cinetica/g09d1/g09d01/d01/build-node-6-2-59348/src/main/l1.exe PID=     29693.
  
 Copyright (c) 1988,1990,1992,1993,1995,1998,2003,2009,2013,
            Gaussian, Inc.  All Rights Reserved.
  
 This is part of the Gaussian(R) 09 program.  It is based on
 the Gaussian(R) 03 system (copyright 2003, Gaussian, Inc.),
 the Gaussian(R) 98 system (copyright 1998, Gaussian, Inc.),
 the Gaussian(R) 94 system (copyright 1995, Gaussian, Inc.),
 the Gaussian 92(TM) system (copyright 1992, Gaussian, Inc.),
 the Gaussian 90(TM) system (copyright 1990, Gaussian, Inc.),
 the Gaussian 88(TM) system (copyright 1988, Gaussian, Inc.),
 the Gaussian 86(TM) system (copyright 1986, Carnegie Mellon
 University), and the Gaussian 82(TM) system (copyright 1983,
 Carnegie Mellon University). Gaussian is a federally registered
 trademark of Gaussian, Inc.
  
 This software contains proprietary and confidential information,
 including trade secrets, belonging to Gaussian, Inc.
  
 This software is provided under written license and may be
 used, copied, transmitted, or stored only in accord with that
 written license.
  
 The following legend is applicable only to US Government
 contracts under FAR:
  
                    RESTRICTED RIGHTS LEGEND
  
 Use, reproduction and disclosure by the US Government is
 subject to restrictions as set forth in subparagraphs (a)
 and (c) of the Commercial Computer Software - Restricted
 Rights clause in FAR 52.227-19.
  
 Gaussian, Inc.
 340 Quinnipiac St., Bldg. 40, Wallingford CT 06492
  
  
 ---------------------------------------------------------------
 Warning -- This program may not be used in any manner that
 competes with the business of Gaussian, Inc. or will provide
 assistance to any competitor of Gaussian, Inc.  The licensee
 of this program is prohibited from giving any competitor of
 Gaussian, Inc. access to this program.  By using this program,
 the user acknowledges that Gaussian, Inc. is engaged in the
 business of creating and licensing software in the field of
 computational chemistry and represents and warrants to the
 licensee that it is not a competitor of Gaussian, Inc. and that
 it will not use this program in any manner prohibited above.
 ---------------------------------------------------------------
  

 Cite this work as:
 Gaussian 09, Revision D.01,
 M. J. Frisch, G. W. Trucks, H. B. Schlegel, G. E. Scuseria, 
 M. A. Robb, J. R. Cheeseman, G. Scalmani, V. Barone, B. Mennucci, 
 G. A. Petersson, H. Nakatsuji, M. Caricato, X. Li, H. P. Hratchian, 
 A. F. Izmaylov, J. Bloino, G. Zheng, J. L. Sonnenberg, M. Hada, 
 M. Ehara, K. Toyota, R. Fukuda, J. Hasegawa, M. Ishida, T. Nakajima, 
 Y. Honda, O. Kitao, H. Nakai, T. Vreven, J. A. Montgomery, Jr., 
 J. E. Peralta, F. Ogliaro, M. Bearpark, J. J. Heyd, E. Brothers, 
 K. N. Kudin, V. N. Staroverov, T. Keith, R. Kobayashi, J. Normand, 
 K. Raghavachari, A. Rendell, J. C. Burant, S. S. Iyengar, J. Tomasi, 
 M. Cossi, N. Rega, J. M. Millam, M. Klene, J. E. Knox, J. B. Cross, 
 V. Bakken, C. Adamo, J. Jaramillo, R. Gomperts, R. E. Stratmann, 
 O. Yazyev, A. J. Austin, R. Cammi, C. Pomelli, J. W. Ochterski, 
 R. L. Martin, K. Morokuma, V. G. Zakrzewski, G. A. Voth, 
 P. Salvador, J. J. Dannenberg, S. Dapprich, A. D. Daniels, 
 O. Farkas, J. B. Foresman, J. V. Ortiz, J. Cioslowski, 
 and D. J. Fox, Gaussian, Inc., Wallingford CT, 2013.
 
 ******************************************
 Gaussian 09:  EM64L-G09RevD.01 24-Apr-2013
                13-Jun-2024 
 ******************************************
 %mem=400MW
 %chk=tmp
 %NProcShared= 32
 Will use up to   32 processors via shared memory.
 ----------------------------------------------------------------------
 # uwb97xd/jun-cc-pvtz opt=(noeig,intern,maxcyc=50) # int=ultrafine nos
 ym iop(7/33=1) guess=(mix,always)
 ----------------------------------------------------------------------
 1/6=50,10=7,11=1,14=-1,18=40,26=4,38=1/1,3;
 2/12=2,15=1,17=6,18=5,29=3,40=1/2;
 3/5=16,6=1,7=60,11=2,16=1,25=1,30=1,71=1,74=-58,75=-5,116=2/1,2,3;
 4/13=-1/1;
 5/5=2,38=5/2;
 6/7=2,8=2,9=2,10=2,28=1/1;
 7/29=1,30=1,33=1/1,2,3,16;
 1/6=50,10=7,11=1,14=-1,18=40,26=4/3(2);
 2/15=1,29=3/2;
 99//99;
 2/15=1,29=3/2;
 3/5=16,6=1,7=60,11=2,16=1,25=1,30=1,71=1,74=-58,75=-5,116=2/1,2,3;
 4/13=-1/1;
 5/5=2,38=5/2;
 7/30=1,33=1/1,2,3,16;
 1/6=50,11=1,14=-1,18=40,26=4/3(-5);
 2/15=1,29=3/2;
 6/7=2,8=2,9=2,10=2,19=2,28=1/1;
 99/9=1/99;
 ------
 geom 0
 ------
 Symbolic Z-matrix:
 Charge =  0 Multiplicity = 1
 C1
 O2                   C1   R1
 H3                   C1   R2       O2   A2
 H4                   C1   R3       O2   A3       H3   D3       0
 H5                   O2   R4       C1   A4       H3   D4       0
 C21                  C1   BB       O2   ANG1     H3   DH1      0
 C22                  C21  R21      C1   ANG2     O2   DH2      0
 H23                  C21  R22      C22  A22      C1   DH3      0
 H24                  C21  R23      C22  A23      H23  D23      0
 H25                  C22  R24      C21  A24      H23  D24      0
 H26                  C22  R25      C21  A25      H25  D25      0
 H27                  C22  R26      C21  A26      H25  D26      0
       Variables:
  R1                    1.3571                   
  R2                    1.0789                   
  R3                    1.083                    
  R4                    0.9572                   
  A2                  113.0519                   
  A3                  118.1965                   
  A4                  109.7289                   
  D3                  214.2576                   
  R21                   1.4881                   
  R22                   1.0817                   
  R23                   1.081                    
  R24                   1.098                    
  R25                   1.091                    
  R26                   1.0906                   
  A22                 119.1013                   
  A23                 119.3686                   
  A24                 111.6374                   
  A25                 111.6891                   
  A26                 111.6157                   
  D23                 152.8954                   
  D25                 119.4063                   
  D26                 240.5093                   
  ANG2                102.8979                   
  DH2                 188.9395                   
  DH3                 105.0548                   
  D4                  175.8147                   
  D24                 284.7077                   
  DH1                 105.9035                   
  ANG1                112.8992                   
       Constants:
  BB                    2.8                      
 

 GradGradGradGradGradGradGradGradGradGradGradGradGradGradGradGradGradGrad
 Berny optimization.
 Initialization pass.
                       ----------------------------
                       !    Initial Parameters    !
                       ! (Angstroms and Degrees)  !
 ----------------------                            ----------------------
 !      Name          Value   Derivative information (Atomic Units)     !
 ------------------------------------------------------------------------
 !       R1          1.3571   estimate D2E/DX2                          !
 !       R2          1.0789   estimate D2E/DX2                          !
 !       R3          1.083    estimate D2E/DX2                          !
 !       R4          0.9572   estimate D2E/DX2                          !
 !       A2        113.0519   estimate D2E/DX2                          !
 !       A3        118.1965   estimate D2E/DX2                          !
 !       A4        109.7289   estimate D2E/DX2                          !
 !       D3        214.2576   estimate D2E/DX2                          !
 !       R21         1.4881   estimate D2E/DX2                          !
 !       R22         1.0817   estimate D2E/DX2                          !
 !       R23         1.081    estimate D2E/DX2                          !
 !       R24         1.098    estimate D2E/DX2                          !
 !       R25         1.091    estimate D2E/DX2                          !
 !       R26         1.0906   estimate D2E/DX2                          !
 !       A22       119.1013   estimate D2E/DX2                          !
 !       A23       119.3686   estimate D2E/DX2                          !
 !       A24       111.6374   estimate D2E/DX2                          !
 !       A25       111.6891   estimate D2E/DX2                          !
 !       A26       111.6157   estimate D2E/DX2                          !
 !       D23       152.8954   estimate D2E/DX2                          !
 !       D25       119.4063   estimate D2E/DX2                          !
 !       D26       240.5093   estimate D2E/DX2                          !
 !      ANG2       102.8979   estimate D2E/DX2                          !
 !       DH2       188.9395   estimate D2E/DX2                          !
 !       DH3       105.0548   estimate D2E/DX2                          !
 !       D4        175.8147   estimate D2E/DX2                          !
 !       D24       284.7077   estimate D2E/DX2                          !
 !       DH1       105.9035   estimate D2E/DX2                          !
 !      ANG1       112.8992   estimate D2E/DX2                          !
 !       BB          2.8      Frozen                                    !
 ------------------------------------------------------------------------
 Trust Radius=3.00D-01 FncErr=1.00D-07 GrdErr=1.00D-06
 Number of steps in this run=     50 maximum allowed number of steps=    100.
 GradGradGradGradGradGradGradGradGradGradGradGradGradGradGradGradGradGrad

 ---------------------------------------------------------------------------------------------------
                            Z-MATRIX (ANGSTROMS AND DEGREES)
   CD    Cent   Atom    N1       Length/X        N2       Alpha/Y        N3        Beta/Z          J
 ---------------------------------------------------------------------------------------------------
      1      1  C 
      2      2  O        1   1.357100(     1)
      3      3  H        1   1.078900(     2)      2  113.052(    12)
      4      4  H        1   1.083000(     3)      2  118.197(    13)      3  214.258(    22)      0
      5      5  H        2   0.957200(     4)      1  109.729(    14)      3  175.815(    23)      0
      6      6  C        1   2.800000(     5)      2  112.899(    15)      3  105.903(    24)      0
      7      7  C        6   1.488100(     6)      1  102.898(    16)      2  188.940(    25)      0
      8      8  H        6   1.081700(     7)      7  119.101(    17)      1  105.055(    26)      0
      9      9  H        6   1.081000(     8)      7  119.369(    18)      8  152.895(    27)      0
     10     10  H        7   1.098000(     9)      6  111.637(    19)      8  284.708(    28)      0
     11     11  H        7   1.091000(    10)      6  111.689(    20)     10  119.406(    29)      0
     12     12  H        7   1.090600(    11)      6  111.616(    21)     10  240.509(    30)      0
 ---------------------------------------------------------------------------------------------------
                         Z-Matrix orientation:                         
 ---------------------------------------------------------------------
 Center     Atomic      Atomic             Coordinates (Angstroms)
 Number     Number       Type             X           Y           Z
 ---------------------------------------------------------------------
      1          6           0        0.000000    0.000000    0.000000
      2          8           0        0.000000    0.000000    1.357100
      3          1           0        0.992750    0.000000   -0.422459
      4          1           0       -0.788895    0.537292   -0.511714
      5          1           0       -0.898610    0.065758    1.680222
      6          6           0       -0.706784   -2.480609   -1.089511
      7          6           0       -0.421069   -2.300420   -2.538766
      8          1           0       -1.734148   -2.474106   -0.751052
      9          1           0       -0.008124   -3.031967   -0.475964
     10          1           0       -0.646730   -3.209325   -3.111979
     11          1           0       -1.021692   -1.499024   -2.971545
     12          1           0        0.629870   -2.068511   -2.715267
 ---------------------------------------------------------------------
                    Distance matrix (angstroms):
                    1          2          3          4          5
     1  C    0.000000
     2  O    1.357100   0.000000
     3  H    1.078900   2.037740   0.000000
     4  H    1.083000   2.098453   1.863037   0.000000
     5  H    1.906560   0.957200   2.828929   2.244764   0.000000
     6  C    2.800000   3.555119   3.080064   3.073812   3.767254
     7  C    3.451748   4.543898   3.430682   3.506686   4.860731
     8  H    3.113286   3.684125   3.696640   3.165329   3.613879
     9  H    3.069109   3.543023   3.193342   3.653832   3.877886
    10  H    4.516906   5.539919   4.496797   4.562755   5.809889
    11  H    3.481524   4.693410   3.578112   3.201804   4.909443
    12  H    3.471044   4.610818   3.109242   3.695774   5.119734
                    6          7          8          9         10
     6  C    0.000000
     7  C    1.488100   0.000000
     8  H    1.081700   2.224920   0.000000
     9  H    1.081000   2.227294   1.834678   0.000000
    10  H    2.150584   1.098000   2.701297   2.718060   0.000000
    11  H    2.145863   1.091000   2.527641   3.099219   1.756545
    12  H    2.144657   1.090600   3.100199   2.519873   1.757426
                   11         12
    11  H    0.000000
    12  H    1.765687   0.000000
 Symmetry turned off by external request.
 Stoichiometry    C3H8O
 Framework group  C1[X(C3H8O)]
 Deg. of freedom    30
 Full point group                 C1      NOp   1
 Rotational constants (GHZ):     18.3441216      2.3583061      2.1942568
 Standard basis: Jun-CC-pVTZ (5D, 7F)
   268 basis functions,   384 primitive gaussians,   300 cartesian basis functions
    17 alpha electrons       17 beta electrons
       nuclear repulsion energy       114.5262020980 Hartrees.
 NAtoms=   12 NActive=   12 NUniq=   12 SFac= 1.00D+00 NAtFMM=   60 NAOKFM=F Big=F
 Integral buffers will be    131072 words long.
 Raffenetti 2 integral format.
 Two-electron integral symmetry is turned off.
 Nuclear repulsion after empirical dispersion term =      114.5222729199 Hartrees.
 One-electron integrals computed using PRISM.
 NBasis=   268 RedAO= T EigKep=  1.07D-04  NBF=   268
 NBsUse=   268 1.00D-06 EigRej= -1.00D+00 NBFU=   268
 ExpMin= 3.57D-02 ExpMax= 1.53D+04 ExpMxC= 5.22D+02 IAcc=3 IRadAn=         5 AccDes= 0.00D+00
 Harris functional with IExCor= 4639 and IRadAn=       5 diagonalized for initial guess.
 HarFok:  IExCor= 4639 AccDes= 0.00D+00 IRadAn=         5 IDoV= 1 UseB2=F ITyADJ=14
 ICtDFT=  3500011 ScaDFX=  1.000000  1.000000  1.000000  1.000000
 FoFCou: FMM=F IPFlag=           0 FMFlag=      100000 FMFlg1=           0
         NFxFlg=           0 DoJE=T BraDBF=F KetDBF=T FulRan=T
         wScrn=  0.000000 ICntrl=     500 IOpCl=  0 I1Cent=   200000004 NGrid=           0
         NMat0=    1 NMatS0=      1 NMatT0=    0 NMatD0=    1 NMtDS0=    0 NMtDT0=    0
 Symmetry not used in FoFCou.
 Mixing orbitals, IMix= 1 IMixAn=  0 NRI=1 NE=   17 Coef=  7.07106781D-01  7.07106781D-01
 Mixing orbitals, IMix= 1 IMixAn=  0 NRI=1 NE=   17 Coef= -7.07106781D-01  7.07106781D-01
 Initial guess <Sx>= 0.0000 <Sy>= 0.0000 <Sz>= 0.0000 <S**2>= 1.0000 S= 0.6180
 Requested convergence on RMS density matrix=1.00D-08 within 128 cycles.
 Requested convergence on MAX density matrix=1.00D-06.
 Requested convergence on             energy=1.00D-06.
 No special actions if energy rises.
 SCF Done:  E(UwB97XD) =  -194.242595448     A.U. after   15 cycles
            NFock= 15  Conv=0.93D-08     -V/T= 2.0069
 <Sx>= 0.0000 <Sy>= 0.0000 <Sz>= 0.0000 <S**2>= 0.6796 S= 0.4642
 <L.S>=  0.00000000000    
 Annihilation of the first spin contaminant:
 S**2 before annihilation     0.6796,   after     0.0234

 **********************************************************************

            Population analysis using the SCF density.

 **********************************************************************

 Alpha  occ. eigenvalues --  -19.28448 -10.33024 -10.28552 -10.27318  -1.15622
 Alpha  occ. eigenvalues --   -0.84978  -0.74903  -0.69547  -0.61259  -0.53690
 Alpha  occ. eigenvalues --   -0.52957  -0.49465  -0.46828  -0.45862  -0.43205
 Alpha  occ. eigenvalues --   -0.42975  -0.27330
 Alpha virt. eigenvalues --    0.04739   0.05332   0.06085   0.07371   0.07765
 Alpha virt. eigenvalues --    0.08983   0.10162   0.10814   0.11196   0.12352
 Alpha virt. eigenvalues --    0.14066   0.15767   0.17224   0.17896   0.19617
 Alpha virt. eigenvalues --    0.20940   0.21935   0.24044   0.24915   0.25676
 Alpha virt. eigenvalues --    0.26374   0.26935   0.28182   0.29067   0.29553
 Alpha virt. eigenvalues --    0.30240   0.31355   0.31860   0.32543   0.33937
 Alpha virt. eigenvalues --    0.34453   0.34976   0.36740   0.37688   0.39568
 Alpha virt. eigenvalues --    0.40857   0.42465   0.45390   0.46127   0.47613
 Alpha virt. eigenvalues --    0.50082   0.52113   0.54577   0.55283   0.58546
 Alpha virt. eigenvalues --    0.59865   0.60263   0.62305   0.63209   0.63272
 Alpha virt. eigenvalues --    0.66024   0.66422   0.66902   0.69397   0.69837
 Alpha virt. eigenvalues --    0.71756   0.73906   0.74646   0.75642   0.76427
 Alpha virt. eigenvalues --    0.78703   0.81405   0.82827   0.86447   0.87011
 Alpha virt. eigenvalues --    0.88352   0.90385   0.92474   0.93876   0.94973
 Alpha virt. eigenvalues --    0.97658   0.99925   1.00155   1.01083   1.03778
 Alpha virt. eigenvalues --    1.06571   1.10291   1.14314   1.17095   1.19070
 Alpha virt. eigenvalues --    1.19736   1.19988   1.20804   1.23000   1.24638
 Alpha virt. eigenvalues --    1.27274   1.29455   1.32653   1.34648   1.35705
 Alpha virt. eigenvalues --    1.35921   1.39796   1.41238   1.43674   1.45165
 Alpha virt. eigenvalues --    1.46486   1.47178   1.49243   1.52739   1.53162
 Alpha virt. eigenvalues --    1.53831   1.57629   1.61943   1.63452   1.67308
 Alpha virt. eigenvalues --    1.71172   1.73129   1.75839   1.82877   1.87807
 Alpha virt. eigenvalues --    2.00035   2.10890   2.13228   2.25771   2.35350
 Alpha virt. eigenvalues --    2.41222   2.43585   2.48316   2.52079   2.53653
 Alpha virt. eigenvalues --    2.57466   2.59555   2.64482   2.65895   2.69045
 Alpha virt. eigenvalues --    2.71223   2.76654   2.79194   2.81553   2.82458
 Alpha virt. eigenvalues --    2.90035   2.90753   2.91631   2.94485   2.95155
 Alpha virt. eigenvalues --    2.98088   2.99981   3.03665   3.03753   3.06951
 Alpha virt. eigenvalues --    3.07733   3.11176   3.12382   3.13815   3.14153
 Alpha virt. eigenvalues --    3.15799   3.16663   3.18120   3.21540   3.21782
 Alpha virt. eigenvalues --    3.23597   3.25320   3.28012   3.30448   3.37859
 Alpha virt. eigenvalues --    3.39750   3.40648   3.44140   3.46723   3.48035
 Alpha virt. eigenvalues --    3.51209   3.52131   3.54068   3.55585   3.56325
 Alpha virt. eigenvalues --    3.59436   3.59716   3.61207   3.63897   3.69770
 Alpha virt. eigenvalues --    3.73770   3.78693   3.79709   3.87131   3.87950
 Alpha virt. eigenvalues --    3.90805   3.95456   3.96561   3.99307   4.00724
 Alpha virt. eigenvalues --    4.01169   4.02018   4.02965   4.03399   4.07902
 Alpha virt. eigenvalues --    4.09406   4.11471   4.12899   4.14078   4.14981
 Alpha virt. eigenvalues --    4.19020   4.22049   4.23092   4.29609   4.33023
 Alpha virt. eigenvalues --    4.33405   4.36643   4.37171   4.39434   4.41111
 Alpha virt. eigenvalues --    4.44754   4.49340   4.57750   4.64119   4.73064
 Alpha virt. eigenvalues --    4.75760   4.80781   4.86858   4.88563   4.89364
 Alpha virt. eigenvalues --    4.93773   4.95958   4.98052   5.01375   5.04380
 Alpha virt. eigenvalues --    5.06954   5.09994   5.16221   5.17628   5.24644
 Alpha virt. eigenvalues --    5.25676   5.31066   5.35031   5.40809   5.43930
 Alpha virt. eigenvalues --    5.46359   5.49531   5.49842   5.63131   5.70764
 Alpha virt. eigenvalues --    5.72452   5.72984   5.94181   6.02078   6.09214
 Alpha virt. eigenvalues --    6.17182   6.19911   6.23255   6.56263   6.66267
 Alpha virt. eigenvalues --    6.75654   6.83185   6.90857   6.96594   7.15722
 Alpha virt. eigenvalues --    7.35157   7.63787  12.58171  12.85211  13.01463
 Alpha virt. eigenvalues --   13.75484
  Beta  occ. eigenvalues --  -19.28806 -10.33925 -10.27597 -10.27375  -1.16649
  Beta  occ. eigenvalues --   -0.83477  -0.77263  -0.67354  -0.62264  -0.54445
  Beta  occ. eigenvalues --   -0.52445  -0.49525  -0.47964  -0.45791  -0.44009
  Beta  occ. eigenvalues --   -0.42722  -0.25998
  Beta virt. eigenvalues --    0.03813   0.05355   0.06065   0.07392   0.07632
  Beta virt. eigenvalues --    0.08814   0.10078   0.10529   0.11382   0.11903
  Beta virt. eigenvalues --    0.14878   0.15658   0.17313   0.17802   0.19595
  Beta virt. eigenvalues --    0.20894   0.21628   0.23848   0.24871   0.25320
  Beta virt. eigenvalues --    0.26447   0.26855   0.27886   0.29209   0.29490
  Beta virt. eigenvalues --    0.30437   0.31313   0.31812   0.32481   0.33832
  Beta virt. eigenvalues --    0.34558   0.35076   0.36815   0.38435   0.39388
  Beta virt. eigenvalues --    0.40930   0.42492   0.44998   0.46479   0.47519
  Beta virt. eigenvalues --    0.50004   0.51915   0.54531   0.55376   0.58387
  Beta virt. eigenvalues --    0.59480   0.60536   0.62332   0.62752   0.63416
  Beta virt. eigenvalues --    0.65869   0.66350   0.66716   0.69606   0.69941
  Beta virt. eigenvalues --    0.71871   0.73926   0.74777   0.76015   0.76617
  Beta virt. eigenvalues --    0.78608   0.81630   0.82292   0.86656   0.87072
  Beta virt. eigenvalues --    0.88618   0.90218   0.92361   0.93834   0.95834
  Beta virt. eigenvalues --    0.97879   1.00014   1.00633   1.01162   1.03166
  Beta virt. eigenvalues --    1.06405   1.09871   1.13784   1.17075   1.19068
  Beta virt. eigenvalues --    1.19890   1.20239   1.21131   1.23184   1.24941
  Beta virt. eigenvalues --    1.27331   1.29588   1.32226   1.34787   1.35502
  Beta virt. eigenvalues --    1.35956   1.40094   1.41116   1.43442   1.45094
  Beta virt. eigenvalues --    1.46621   1.47678   1.49487   1.52630   1.53002
  Beta virt. eigenvalues --    1.53658   1.57708   1.61984   1.63553   1.67630
  Beta virt. eigenvalues --    1.71799   1.72621   1.76029   1.83555   1.87433
  Beta virt. eigenvalues --    1.99387   2.09929   2.12787   2.25403   2.32615
  Beta virt. eigenvalues --    2.39370   2.47246   2.48058   2.52494   2.55346
  Beta virt. eigenvalues --    2.57866   2.59846   2.65883   2.66287   2.68567
  Beta virt. eigenvalues --    2.70444   2.77632   2.80438   2.81932   2.82754
  Beta virt. eigenvalues --    2.88656   2.90407   2.91973   2.93811   2.95023
  Beta virt. eigenvalues --    2.98967   2.99900   3.03740   3.04686   3.06985
  Beta virt. eigenvalues --    3.08409   3.10280   3.11632   3.13862   3.14533
  Beta virt. eigenvalues --    3.15771   3.16291   3.17233   3.21587   3.23035
  Beta virt. eigenvalues --    3.23720   3.25558   3.27067   3.31001   3.37368
  Beta virt. eigenvalues --    3.38961   3.41697   3.44323   3.46489   3.47815
  Beta virt. eigenvalues --    3.50816   3.51814   3.54128   3.55333   3.56996
  Beta virt. eigenvalues --    3.59733   3.60207   3.60961   3.64074   3.70451
  Beta virt. eigenvalues --    3.72771   3.78715   3.79985   3.86827   3.88010
  Beta virt. eigenvalues --    3.91027   3.95505   3.96281   3.98991   4.01088
  Beta virt. eigenvalues --    4.01670   4.01890   4.02959   4.03316   4.08088
  Beta virt. eigenvalues --    4.09970   4.11491   4.12806   4.14336   4.15082
  Beta virt. eigenvalues --    4.19289   4.22237   4.23370   4.29951   4.32895
  Beta virt. eigenvalues --    4.33728   4.36884   4.37132   4.39542   4.40865
  Beta virt. eigenvalues --    4.44102   4.49657   4.57985   4.65107   4.72648
  Beta virt. eigenvalues --    4.76041   4.80114   4.88127   4.88528   4.89653
  Beta virt. eigenvalues --    4.94176   4.96537   4.97715   5.01765   5.05031
  Beta virt. eigenvalues --    5.05574   5.09065   5.15709   5.18219   5.24287
  Beta virt. eigenvalues --    5.25966   5.31402   5.35464   5.41526   5.43319
  Beta virt. eigenvalues --    5.45639   5.49741   5.50033   5.63661   5.71423
  Beta virt. eigenvalues --    5.72076   5.73181   5.93628   6.00896   6.09637
  Beta virt. eigenvalues --    6.17380   6.20099   6.22469   6.55381   6.65243
  Beta virt. eigenvalues --    6.74689   6.82777   6.90235   6.95411   7.15165
  Beta virt. eigenvalues --    7.34720   7.63354  12.59479  12.83946  13.00935
  Beta virt. eigenvalues --   13.75575
          Condensed to atoms (all electrons):
               1          2          3          4          5          6
     1  C    5.164205   0.141833   0.418096   0.413766   0.011338   0.129436
     2  O    0.141833   7.979995  -0.050913  -0.028197   0.209988  -0.013922
     3  H    0.418096  -0.050913   0.495614  -0.022731   0.007006  -0.011071
     4  H    0.413766  -0.028197  -0.022731   0.487611  -0.012809  -0.010926
     5  H    0.011338   0.209988   0.007006  -0.012809   0.615806  -0.003673
     6  C    0.129436  -0.013922  -0.011071  -0.010926  -0.003673   5.409577
     7  C   -0.033144   0.002360   0.004602   0.003923   0.001090   0.254791
     8  H   -0.006975   0.001117   0.000558  -0.000104   0.000255   0.412125
     9  H   -0.007728   0.001496   0.000143   0.000547   0.000423   0.420080
    10  H    0.003796  -0.000156  -0.000098  -0.000086  -0.000005  -0.034487
    11  H   -0.002826  -0.000045   0.000185   0.000030   0.000015  -0.028231
    12  H   -0.002784   0.000070  -0.000051   0.000124  -0.000008  -0.031835
               7          8          9         10         11         12
     1  C   -0.033144  -0.006975  -0.007728   0.003796  -0.002826  -0.002784
     2  O    0.002360   0.001117   0.001496  -0.000156  -0.000045   0.000070
     3  H    0.004602   0.000558   0.000143  -0.000098   0.000185  -0.000051
     4  H    0.003923  -0.000104   0.000547  -0.000086   0.000030   0.000124
     5  H    0.001090   0.000255   0.000423  -0.000005   0.000015  -0.000008
     6  C    0.254791   0.412125   0.420080  -0.034487  -0.028231  -0.031835
     7  C    4.988289  -0.021629  -0.024436   0.389674   0.412399   0.415797
     8  H   -0.021629   0.466263  -0.023624  -0.004001  -0.005245   0.003782
     9  H   -0.024436  -0.023624   0.457639  -0.003037   0.003458  -0.005403
    10  H    0.389674  -0.004001  -0.003037   0.499583  -0.014629  -0.015453
    11  H    0.412399  -0.005245   0.003458  -0.014629   0.494449  -0.020275
    12  H    0.415797   0.003782  -0.005403  -0.015453  -0.020275   0.493436
          Atomic-Atomic Spin Densities.
               1          2          3          4          5          6
     1  C   -0.880251   0.125994   0.000899   0.001261   0.006708  -0.025287
     2  O    0.125994  -0.219744  -0.001499   0.001238  -0.003720   0.000886
     3  H    0.000899  -0.001499   0.020381  -0.006468   0.000135  -0.002897
     4  H    0.001261   0.001238  -0.006468   0.018131  -0.001715  -0.004048
     5  H    0.006708  -0.003720   0.000135  -0.001715   0.003515  -0.000593
     6  C   -0.025287   0.000886  -0.002897  -0.004048  -0.000593   0.908751
     7  C    0.017811  -0.002003  -0.000493  -0.000473  -0.000216  -0.045581
     8  H    0.005801  -0.000844  -0.000037  -0.000080  -0.000067   0.003174
     9  H    0.007016  -0.001205  -0.000179  -0.000097  -0.000056   0.004270
    10  H   -0.000152   0.000019  -0.000026  -0.000029  -0.000001  -0.022966
    11  H   -0.000570   0.000017   0.000097   0.000134   0.000006  -0.006783
    12  H   -0.000655   0.000046   0.000136   0.000106   0.000003  -0.006608
               7          8          9         10         11         12
     1  C    0.017811   0.005801   0.007016  -0.000152  -0.000570  -0.000655
     2  O   -0.002003  -0.000844  -0.001205   0.000019   0.000017   0.000046
     3  H   -0.000493  -0.000037  -0.000179  -0.000026   0.000097   0.000136
     4  H   -0.000473  -0.000080  -0.000097  -0.000029   0.000134   0.000106
     5  H   -0.000216  -0.000067  -0.000056  -0.000001   0.000006   0.000003
     6  C   -0.045581   0.003174   0.004270  -0.022966  -0.006783  -0.006608
     7  C   -0.025461   0.003307   0.002685   0.014993   0.007700   0.007098
     8  H    0.003307  -0.028579   0.005094  -0.001378   0.000853   0.000128
     9  H    0.002685   0.005094  -0.029469  -0.001025   0.000084   0.000787
    10  H    0.014993  -0.001378  -0.001025   0.067362  -0.005126  -0.005242
    11  H    0.007700   0.000853   0.000084  -0.005126   0.011978   0.000675
    12  H    0.007098   0.000128   0.000787  -0.005242   0.000675   0.011298
 Mulliken charges and spin densities:
               1          2
     1  C   -0.229013  -0.741426
     2  O   -0.243628  -0.100814
     3  H    0.158659   0.010050
     4  H    0.168853   0.007961
     5  H    0.170575   0.003999
     6  C   -0.491865   0.802318
     7  C   -0.393716  -0.020634
     8  H    0.177479  -0.012628
     9  H    0.180442  -0.012095
    10  H    0.178899   0.046431
    11  H    0.160716   0.009066
    12  H    0.162600   0.007773
 Sum of Mulliken charges =  -0.00000  -0.00000
 Mulliken charges and spin densities with hydrogens summed into heavy atoms:
               1          2
     1  C    0.098499  -0.723416
     2  O   -0.073053  -0.096816
     6  C   -0.133945   0.777595
     7  C    0.108498   0.042636
 Electronic spatial extent (au):  <R**2>=            783.8591
 Charge=              0.0000 electrons
 Dipole moment (field-independent basis, Debye):
    X=             -1.2493    Y=              0.5566    Z=             -0.2231  Tot=              1.3857
 Quadrupole moment (field-independent basis, Debye-Ang):
   XX=            -24.5243   YY=            -28.5185   ZZ=            -26.6245
   XY=             -1.0122   XZ=             -3.0110   YZ=              0.1200
 Traceless Quadrupole moment (field-independent basis, Debye-Ang):
   XX=              2.0315   YY=             -1.9627   ZZ=             -0.0687
   XY=             -1.0122   XZ=             -3.0110   YZ=              0.1200
 Octapole moment (field-independent basis, Debye-Ang**2):
  XXX=             23.6178  YYY=            104.9334  ZZZ=             59.3852  XYY=             10.1111
  XXY=             34.2011  XXZ=             21.0570  XZZ=              2.6813  YZZ=             34.0758
  YYZ=             18.7651  XYZ=              0.1450
 Hexadecapole moment (field-independent basis, Debye-Ang**3):
 XXXX=            -75.3983 YYYY=           -557.2157 ZZZZ=           -463.9347 XXXY=            -57.4899
 XXXZ=            -41.4570 YYYX=            -66.1115 YYYZ=           -188.2165 ZZZX=            -46.0549
 ZZZY=           -186.8516 XXYY=           -104.5612 XXZZ=            -84.6871 YYZZ=           -165.6794
 XXYZ=            -62.7968 YYXZ=            -12.5176 ZZXY=            -19.5976
 N-N= 1.145222729199D+02 E-N=-6.818855437499D+02  KE= 1.929142436436D+02
                          Isotropic Fermi Contact Couplings
        Atom                 a.u.       MegaHertz       Gauss      10(-4) cm-1
     1  C(13)             -0.07945     -44.65851     -15.93527     -14.89648
     2  O(17)             -0.01665       5.04549       1.80036       1.68299
     3  H(1)               0.00826      18.45769       6.58616       6.15682
     4  H(1)               0.00617      13.78353       4.91831       4.59769
     5  H(1)               0.00144       3.21632       1.14766       1.07285
     6  C(13)              0.05293      29.75352      10.61679       9.92471
     7  C(13)             -0.02136     -12.00833      -4.28487      -4.00555
     8  H(1)              -0.01067     -23.85633      -8.51253      -7.95762
     9  H(1)              -0.01093     -24.41965      -8.71354      -8.14552
    10  H(1)               0.02431      54.34205      19.39060      18.12656
    11  H(1)               0.00577      12.89956       4.60288       4.30283
    12  H(1)               0.00506      11.30146       4.03264       3.76976
 --------------------------------------------------------
       Center         ----  Spin Dipole Couplings  ----
                      3XX-RR        3YY-RR        3ZZ-RR
 --------------------------------------------------------
     1   Atom        0.323657     -0.732321      0.408664
     2   Atom        0.288398     -0.622959      0.334561
     3   Atom       -0.041599      0.007324      0.034274
     4   Atom       -0.021125     -0.004762      0.025887
     5   Atom       -0.019326      0.013190      0.006136
     6   Atom       -0.373801      0.707174     -0.333374
     7   Atom       -0.009843     -0.001960      0.011803
     8   Atom        0.051495     -0.011733     -0.039762
     9   Atom        0.001248      0.009680     -0.010929
    10   Atom       -0.006772     -0.003345      0.010117
    11   Atom       -0.004334     -0.002454      0.006788
    12   Atom        0.002961     -0.005972      0.003011
 --------------------------------------------------------
                        XY            XZ            YZ
 --------------------------------------------------------
     1   Atom       -0.339518     -0.054334     -0.187801
     2   Atom       -0.202786     -0.026354     -0.176808
     3   Atom        0.000163      0.039995     -0.007716
     4   Atom        0.017979     -0.043718      0.018179
     5   Atom        0.006385      0.024365     -0.003919
     6   Atom        0.316955      0.107176      0.392316
     7   Atom        0.002265     -0.003028      0.002377
     8   Atom        0.002382     -0.034569      0.016816
     9   Atom       -0.023747      0.051767     -0.018382
    10   Atom        0.000835     -0.001409      0.003754
    11   Atom       -0.001690      0.001493     -0.010995
    12   Atom        0.002380     -0.009456     -0.006213
 --------------------------------------------------------


 ---------------------------------------------------------------------------------
              Anisotropic Spin Dipole Couplings in Principal Axis System
 ---------------------------------------------------------------------------------

       Atom             a.u.   MegaHertz   Gauss  10(-4) cm-1        Axes

              Baa    -0.8621  -115.691   -41.281   -38.590  0.2785  0.9483  0.1521
     1 C(13)  Bbb     0.4234    56.810    20.271    18.950  0.9604 -0.2739 -0.0509
              Bcc     0.4388    58.880    21.010    19.640  0.0066 -0.1602  0.9871
 
              Baa    -0.6969    50.428    17.994    16.821  0.2030  0.9642  0.1705
     2 O(17)  Bbb     0.3283   -23.758    -8.478    -7.925  0.9494 -0.1512 -0.2753
              Bcc     0.3686   -26.670    -9.516    -8.896  0.2397 -0.2177  0.9461
 
              Baa    -0.0589   -31.449   -11.222   -10.490  0.9164 -0.0485 -0.3972
     3 H(1)   Bbb     0.0064     3.407     1.216     1.137  0.1052  0.9869  0.1222
              Bcc     0.0526    28.041    10.006     9.354  0.3861 -0.1538  0.9096
 
              Baa    -0.0587   -31.319   -11.175   -10.447  0.7665 -0.4194  0.4863
     4 H(1)   Bbb     0.0059     3.143     1.121     1.048  0.4235  0.8994  0.1082
              Bcc     0.0528    28.176    10.054     9.399 -0.4828  0.1230  0.8671
 
              Baa    -0.0352   -18.805    -6.710    -6.273  0.8452 -0.1529 -0.5121
     5 H(1)   Bbb     0.0143     7.656     2.732     2.554  0.1342  0.9882 -0.0735
              Bcc     0.0209    11.149     3.978     3.719  0.5173 -0.0066  0.8558
 
              Baa    -0.4649   -62.386   -22.261   -20.810 -0.1903 -0.2649  0.9453
     6 C(13)  Bbb    -0.4598   -61.703   -22.017   -20.582  0.9495 -0.2944  0.1086
              Bcc     0.9247   124.089    44.278    41.392  0.2495  0.9182  0.3076
 
              Baa    -0.0110    -1.476    -0.527    -0.492  0.9480 -0.2782  0.1549
     7 C(13)  Bbb    -0.0015    -0.203    -0.072    -0.068  0.2954  0.9499 -0.1024
              Bcc     0.0125     1.679     0.599     0.560 -0.1186  0.1428  0.9826
 
              Baa    -0.0575   -30.671   -10.944   -10.231  0.2908 -0.3434  0.8930
     8 H(1)   Bbb    -0.0058    -3.073    -1.097    -1.025  0.1494  0.9382  0.3121
              Bcc     0.0632    33.744    12.041    11.256  0.9451 -0.0427 -0.3241
 
              Baa    -0.0570   -30.432   -10.859   -10.151 -0.6716 -0.0351  0.7401
     9 H(1)   Bbb    -0.0068    -3.642    -1.300    -1.215  0.3381  0.8743  0.3483
              Bcc     0.0639    34.073    12.158    11.366  0.6593 -0.4841  0.5753
 
              Baa    -0.0073    -3.894    -1.390    -1.299  0.9299 -0.3368  0.1478
    10 H(1)   Bbb    -0.0039    -2.064    -0.737    -0.689  0.3621  0.9088 -0.2074
              Bcc     0.0112     5.958     2.126     1.988 -0.0645  0.2464  0.9670
 
              Baa    -0.0098    -5.241    -1.870    -1.748  0.1092  0.8334  0.5418
    11 H(1)   Bbb    -0.0045    -2.414    -0.861    -0.805  0.9872 -0.0273 -0.1569
              Bcc     0.0143     7.655     2.732     2.554  0.1159 -0.5520  0.8257
 
              Baa    -0.0098    -5.237    -1.869    -1.747  0.2884  0.7609  0.5812
    12 H(1)   Bbb    -0.0045    -2.392    -0.853    -0.798  0.7049 -0.5796  0.4090
              Bcc     0.0143     7.629     2.722     2.545 -0.6481 -0.2917  0.7035
 

 ---------------------------------------------------------------------------------

 DipInt: DoE/N= T T RetVal/Mat= T F Init=T NMatP=  1 IDeriv=0 Min/MaxMlt=  1  1
 Entering OneElI...
 Multipole integrals L=1 to 1 MinM= 0 MaxM= 0.
 Requested accuracy = 0.1000D-12
 PrsmSu:  NPrtUS=   1 ThrOK=F IAlg=1 NPAlg=1 LenDen=           0.
 Prism:   IPart=     0 DynPar=F LinDyn=F Incr=          48.
 PRISM was handed   419021292 working-precision words and  4892 shell-pairs
 IPart=  0 NShTot=        4892 NBatch=          62 AvBLen=        78.9
 PrSmSu:  NxtVal=             49.
 Entering OneElI...
 Calculate overlap and kinetic energy integrals
    NBasis = 300  MinDer = 1  MaxDer = 1
 Requested accuracy = 0.1000D-12
 PrsmSu:  NPrtUS=  32 ThrOK=T IAlg=1 NPAlg=1 LenDen=           0.
 PRISM was handed    12995661 working-precision words and  5001 shell-pairs
 PRISM was handed    12995661 working-precision words and  5001 shell-pairs
 PRISM was handed    12995661 working-precision words and  5001 shell-pairs
 PRISM was handed    12995661 working-precision words and  5001 shell-pairs
 PRISM was handed    12995661 working-precision words and  5001 shell-pairs
 Prism:   IPart=     0 DynPar=F LinDyn=F Incr=           1.
 PRISM was handed    12995661 working-precision words and  5001 shell-pairs
 PRISM was handed    12995661 working-precision words and  5001 shell-pairs
 PRISM was handed    12995661 working-precision words and  5001 shell-pairs
 PRISM was handed    12995661 working-precision words and  5001 shell-pairs
 PRISM was handed    12995661 working-precision words and  5001 shell-pairs
 PRISM was handed    12995661 working-precision words and  5001 shell-pairs
 PRISM was handed    12995661 working-precision words and  5001 shell-pairs
 PRISM was handed    12995661 working-precision words and  5001 shell-pairs
 IPart= 14 NShTot=         156 NBatch=          26 AvBLen=         6.0
 PRISM was handed    12995661 working-precision words and  5001 shell-pairs
 PRISM was handed    12995661 working-precision words and  5001 shell-pairs
 PRISM was handed    12995661 working-precision words and  5001 shell-pairs
 PRISM was handed    12995661 working-precision words and  5001 shell-pairs
 PRISM was handed    12995661 working-precision words and  5001 shell-pairs
 PRISM was handed    12995661 working-precision words and  5001 shell-pairs
 IPart=  0 NShTot=         198 NBatch=          58 AvBLen=         3.4
 IPart=  6 NShTot=         171 NBatch=          35 AvBLen=         4.9
 IPart= 24 NShTot=         143 NBatch=          21 AvBLen=         6.8
 PRISM was handed    12995661 working-precision words and  5001 shell-pairs
 PRISM was handed    12995661 working-precision words and  5001 shell-pairs
 IPart= 26 NShTot=         143 NBatch=          21 AvBLen=         6.8
 PRISM was handed    12995661 working-precision words and  5001 shell-pairs
 PRISM was handed    12995661 working-precision words and  5001 shell-pairs
 PRISM was handed    12995661 working-precision words and  5001 shell-pairs
 PRISM was handed    12995661 working-precision words and  5001 shell-pairs
 PRISM was handed    12995661 working-precision words and  5001 shell-pairs
 PRISM was handed    12995661 working-precision words and  5001 shell-pairs
 PRISM was handed    12995661 working-precision words and  5001 shell-pairs
 PRISM was handed    12995661 working-precision words and  5001 shell-pairs
 PRISM was handed    12995661 working-precision words and  5001 shell-pairs
 PRISM was handed    12995661 working-precision words and  5001 shell-pairs
 PRISM was handed    12995661 working-precision words and  5001 shell-pairs
 IPart= 29 NShTot=         142 NBatch=          20 AvBLen=         7.1
 IPart=  5 NShTot=         172 NBatch=          35 AvBLen=         4.9
 IPart=  2 NShTot=         185 NBatch=          46 AvBLen=         4.0
 IPart=  4 NShTot=         173 NBatch=          36 AvBLen=         4.8
 IPart= 15 NShTot=         151 NBatch=          22 AvBLen=         6.9
 IPart= 18 NShTot=         145 NBatch=          21 AvBLen=         6.9
 IPart= 19 NShTot=         144 NBatch=          21 AvBLen=         6.9
 IPart= 25 NShTot=         143 NBatch=          21 AvBLen=         6.8
 IPart= 27 NShTot=         143 NBatch=          21 AvBLen=         6.8
 IPart= 28 NShTot=         143 NBatch=          21 AvBLen=         6.8
 IPart= 22 NShTot=         144 NBatch=          21 AvBLen=         6.9
 IPart=  1 NShTot=         191 NBatch=          51 AvBLen=         3.7
 IPart=  7 NShTot=         171 NBatch=          35 AvBLen=         4.9
 IPart= 21 NShTot=         144 NBatch=          21 AvBLen=         6.9
 IPart= 31 NShTot=         140 NBatch=          20 AvBLen=         7.0
 IPart= 23 NShTot=         143 NBatch=          21 AvBLen=         6.8
 IPart= 13 NShTot=         157 NBatch=          26 AvBLen=         6.0
 IPart= 17 NShTot=         146 NBatch=          22 AvBLen=         6.6
 IPart= 20 NShTot=         144 NBatch=          21 AvBLen=         6.9
 IPart= 11 NShTot=         158 NBatch=          26 AvBLen=         6.1
 IPart= 16 NShTot=         147 NBatch=          22 AvBLen=         6.7
 IPart=  9 NShTot=         161 NBatch=          28 AvBLen=         5.8
 IPart= 12 NShTot=         157 NBatch=          26 AvBLen=         6.0
 IPart= 30 NShTot=         142 NBatch=          20 AvBLen=         7.1
 IPart=  8 NShTot=         164 NBatch=          31 AvBLen=         5.3
 IPart= 10 NShTot=         159 NBatch=          26 AvBLen=         6.1
 IPart=  3 NShTot=         181 NBatch=          44 AvBLen=         4.1
 PrSmSu:  NxtVal=             33.
 Entering OneElI...
 Calculate potential energy integrals
    NBasis = 300  MinDer = 1  MaxDer = 1
 Requested accuracy = 0.1000D-12
 PrsmSu:  NPrtUS=  32 ThrOK=T IAlg=1 NPAlg=1 LenDen=           0.
 Prism:   IPart=     0 DynPar=F LinDyn=F Incr=          17.
 PRISM was handed    13011745 working-precision words and  4716 shell-pairs
 PRISM was handed    13011745 working-precision words and  4716 shell-pairs
 PRISM was handed    13011745 working-precision words and  4716 shell-pairs
 PRISM was handed    13011745 working-precision words and  4716 shell-pairs
 PRISM was handed    13011745 working-precision words and  4716 shell-pairs
 PRISM was handed    13011745 working-precision words and  4716 shell-pairs
 PRISM was handed    13011745 working-precision words and  4716 shell-pairs
 PRISM was handed    13011745 working-precision words and  4716 shell-pairs
 PRISM was handed    13011745 working-precision words and  4716 shell-pairs
 PRISM was handed    13011745 working-precision words and  4716 shell-pairs
 PRISM was handed    13011745 working-precision words and  4716 shell-pairs
 PRISM was handed    13011745 working-precision words and  4716 shell-pairs
 PRISM was handed    13011745 working-precision words and  4716 shell-pairs
 PRISM was handed    13011745 working-precision words and  4716 shell-pairs
 PRISM was handed    13011745 working-precision words and  4716 shell-pairs
 PRISM was handed    13011745 working-precision words and  4716 shell-pairs
 PRISM was handed    13011745 working-precision words and  4716 shell-pairs
 PRISM was handed    13011745 working-precision words and  4716 shell-pairs
 PRISM was handed    13011745 working-precision words and  4716 shell-pairs
 PRISM was handed    13011745 working-precision words and  4716 shell-pairs
 PRISM was handed    13011745 working-precision words and  4716 shell-pairs
 PRISM was handed    13011745 working-precision words and  4716 shell-pairs
 PRISM was handed    13011745 working-precision words and  4716 shell-pairs
 PRISM was handed    13011745 working-precision words and  4716 shell-pairs
 PRISM was handed    13011745 working-precision words and  4716 shell-pairs
 PRISM was handed    13011745 working-precision words and  4716 shell-pairs
 PRISM was handed    13011745 working-precision words and  4716 shell-pairs
 PRISM was handed    13011745 working-precision words and  4716 shell-pairs
 PRISM was handed    13011745 working-precision words and  4716 shell-pairs
 PRISM was handed    13011745 working-precision words and  4716 shell-pairs
 PRISM was handed    13011745 working-precision words and  4716 shell-pairs
 PRISM was handed    13011745 working-precision words and  4716 shell-pairs
 IPart= 26 NShTot=        1572 NBatch=         131 AvBLen=        12.0
 IPart= 22 NShTot=        1620 NBatch=         135 AvBLen=        12.0
 IPart= 10 NShTot=        1776 NBatch=         148 AvBLen=        12.0
 IPart=  5 NShTot=        1932 NBatch=         161 AvBLen=        12.0
 IPart=  2 NShTot=        2100 NBatch=         175 AvBLen=        12.0
 IPart= 29 NShTot=        1560 NBatch=         130 AvBLen=        12.0
 IPart= 30 NShTot=        1560 NBatch=         130 AvBLen=        12.0
 IPart=  7 NShTot=        1932 NBatch=         161 AvBLen=        12.0
 IPart= 19 NShTot=        1680 NBatch=         140 AvBLen=        12.0
 IPart=  3 NShTot=        2076 NBatch=         173 AvBLen=        12.0
 IPart=  4 NShTot=        1956 NBatch=         163 AvBLen=        12.0
 IPart= 24 NShTot=        1584 NBatch=         132 AvBLen=        12.0
 IPart= 21 NShTot=        1644 NBatch=         137 AvBLen=        12.0
 IPart= 20 NShTot=        1668 NBatch=         139 AvBLen=        12.0
 IPart= 15 NShTot=        1740 NBatch=         145 AvBLen=        12.0
 IPart=  6 NShTot=        1932 NBatch=         161 AvBLen=        12.0
 IPart=  1 NShTot=        2184 NBatch=         182 AvBLen=        12.0
 IPart= 14 NShTot=        1740 NBatch=         145 AvBLen=        12.0
 IPart= 18 NShTot=        1704 NBatch=         142 AvBLen=        12.0
 IPart= 28 NShTot=        1572 NBatch=         131 AvBLen=        12.0
 IPart=  0 NShTot=        2316 NBatch=         193 AvBLen=        12.0
 IPart= 12 NShTot=        1764 NBatch=         147 AvBLen=        12.0
 IPart= 13 NShTot=        1740 NBatch=         145 AvBLen=        12.0
 IPart= 31 NShTot=        1560 NBatch=         130 AvBLen=        12.0
 IPart=  8 NShTot=        1884 NBatch=         157 AvBLen=        12.0
 IPart= 17 NShTot=        1728 NBatch=         144 AvBLen=        12.0
 IPart= 25 NShTot=        1572 NBatch=         131 AvBLen=        12.0
 IPart=  9 NShTot=        1800 NBatch=         150 AvBLen=        12.0
 IPart= 23 NShTot=        1608 NBatch=         134 AvBLen=        12.0
 IPart= 27 NShTot=        1572 NBatch=         131 AvBLen=        12.0
 IPart= 11 NShTot=        1776 NBatch=         148 AvBLen=        12.0
 IPart= 16 NShTot=        1740 NBatch=         145 AvBLen=        12.0
 PrSmSu:  NxtVal=            545.
 l701 out
 I=    0 X=  -4.914994062272D-01 Y=   2.189724923909D-01 Z=  -8.777268991535D-02
 I=    1 X=   5.924527522789D-01 Y=   1.214088402804D+00 Z=  -3.907543373885D+00
 I=    2 X=   2.954782189239D+00 Y=   1.113531559066D+00 Z=   8.583770987716D+00
 I=    3 X=   3.254237918505D+00 Y=   1.518998598624D-01 Z=  -1.541580294101D+00
 I=    4 X=  -2.457541159520D+00 Y=   1.994631282223D+00 Z=  -1.773480818066D+00
 I=    5 X=  -3.121389305228D+00 Y=   4.403990945304D-01 Z=   2.521070816467D+00
 I=    6 X=  -9.711109276344D-01 Y=  -1.897574899292D+00 Z=   7.262580053047D-01
 I=    7 X=   1.930328110064D-01 Y=  -9.921336238099D-01 Z=  -3.516559887314D+00
 I=    8 X=  -3.292139229271D+00 Y=  -2.776857581404D-01 Z=   1.250108259972D+00
 I=    9 X=   2.051768812524D+00 Y=  -2.063160692291D+00 Z=   2.086408641254D+00
 I=   10 X=  -5.852689343000D-01 Y=  -2.523362800677D+00 Z=  -1.854993013627D+00
 I=   11 X=  -1.692629099006D+00 Y=   2.238857841974D+00 Z=  -1.661267016997D+00
 I=   12 X=   3.073804171405D+00 Y=   6.005097337502D-01 Z=  -9.121923067229D-01
 ICntrl=      2127.
 Calling FoFJK, ICntrl=      2127 FMM=F ISym2X=0 I1Cent= 0 IOpClX= 1 NMat=1 NMatS=1 NMatT=0.
 FoFJK:  IHMeth= 1 ICntrl=    2127 DoSepK=T KAlg= 0 I1Cent=   0 FoldK=F
 IRaf=         1 NMat=   1 IRICut=       1 DoRegI=T DoRafI=F ISym2E= 0.
 FoFCou: FMM=F IPFlag=           0 FMFlag=      100000 FMFlg1=         800
         NFxFlg=           0 DoJE=F BraDBF=F KetDBF=F FulRan=T
         wScrn=  0.000000 ICntrl=    2527 IOpCl=  0 I1Cent=           0 NGrid=           0
         NMat0=    1 NMatS0=      1 NMatT0=    0 NMatD0=    1 NMtDS0=    0 NMtDT0=    0
 Symmetry not used in FoFCou.
 FoFCou:  KetSym=F NOpSet=  1 NOpAb=1 NOp=  1.
 FoFCou:  CnvScl= 1.00D+00 Thresh= 1.00D-10 IAcrcy=      10.
 PrismS was handed   418927892 working-precision words and  4860 shell-pairs
 FoFCou: LinMIO=F DoNuc=F BraDBF=F KetDBF=F HaveP=T PDBF=F HaveZ=T HaveW=F
         NIJTC =      10 NIJTAt=       0 NIJTCD=       0 NIJTT =      10
         IJTBeg=       1 IJTEnd=      10 KLTBeg=       1 KLTEnd=      10
         IPTBeg=       1 IPTEnd=      10 IPTBCv=       1 IPTECv=      10
         IZTBeg=       1 IZTEnd=      10 IZTBCv=       1 IZTECv=      10
         IWTBeg=      11 IWTEnd=      10 IWTBCv=      11 IWTECv=      10
         INTBeg=       1 INTEnd=       0 IFTBCv=       1 IFTECv=      10
 NCel replicated for PrismC:     1
 CoulSu:  IncDef=  1024 NBBP=       11812230 NTPThr=   100 NPartT=   32 Incr=        1024 LDynOK=F.
 CoulSu:  NPrtUS=  32 ThrOK=T IAlg=1 NPAlg=1 LenDen=           0 LWGrdD=           0 DoCopy=F.
 Enter PrismC: JobTyp=21 DoJE=F Cont=F.
 Enter PrismC: JobTyp=21 DoJE=F Cont=F.
 PrismC was handed    13004335 working-precision words and  4860 shell-pairs
 Enter PrismC: JobTyp=21 DoJE=F Cont=F.
 Enter PrismC: JobTyp=21 DoJE=F Cont=F.
 PrismC was handed    13004335 working-precision words and  4860 shell-pairs
 Enter PrismC: JobTyp=21 DoJE=F Cont=F.
 PrismC was handed    13004335 working-precision words and  4860 shell-pairs
 Enter PrismC: JobTyp=21 DoJE=F Cont=F.
 PrismC was handed    13004335 working-precision words and  4860 shell-pairs
 Enter PrismC: JobTyp=21 DoJE=F Cont=F.
 PrismC was handed    13004335 working-precision words and  4860 shell-pairs
 Enter PrismC: JobTyp=21 DoJE=F Cont=F.
 PrismC was handed    13004335 working-precision words and  4860 shell-pairs
 Enter PrismC: JobTyp=21 DoJE=F Cont=F.
 PrismC was handed    13004335 working-precision words and  4860 shell-pairs
 Enter PrismC: JobTyp=21 DoJE=F Cont=F.
 PrismC was handed    13004335 working-precision words and  4860 shell-pairs
 Enter PrismC: JobTyp=21 DoJE=F Cont=F.
 PrismC:  IPart=     0 DynPar=T LinDyn=F Incr=        1024 UseFst=F UseS4=T IGathr=2.
 Enter PrismC: JobTyp=21 DoJE=F Cont=F.
 Enter PrismC: JobTyp=21 DoJE=F Cont=F.
 PrismC was handed    13004335 working-precision words and  4860 shell-pairs
 Enter PrismC: JobTyp=21 DoJE=F Cont=F.
 PrismC was handed    13004335 working-precision words and  4860 shell-pairs
 Enter PrismC: JobTyp=21 DoJE=F Cont=F.
 Enter PrismC: JobTyp=21 DoJE=F Cont=F.
 PrismC was handed    13004335 working-precision words and  4860 shell-pairs
 Enter PrismC: JobTyp=21 DoJE=F Cont=F.
 PrismC was handed    13004335 working-precision words and  4860 shell-pairs
 Enter PrismC: JobTyp=21 DoJE=F Cont=F.
 PrismC was handed    13004335 working-precision words and  4860 shell-pairs
 Enter PrismC: JobTyp=21 DoJE=F Cont=F.
 PrismC was handed    13004335 working-precision words and  4860 shell-pairs
 Enter PrismC: JobTyp=21 DoJE=F Cont=F.
 PrismC was handed    13004335 working-precision words and  4860 shell-pairs
 Enter PrismC: JobTyp=21 DoJE=F Cont=F.
 PrismC was handed    13004335 working-precision words and  4860 shell-pairs
 Enter PrismC: JobTyp=21 DoJE=F Cont=F.
 PrismC was handed    13004335 working-precision words and  4860 shell-pairs
 Enter PrismC: JobTyp=21 DoJE=F Cont=F.
 Enter PrismC: JobTyp=21 DoJE=F Cont=F.
 Enter PrismC: JobTyp=21 DoJE=F Cont=F.
 Enter PrismC: JobTyp=21 DoJE=F Cont=F.
 PrismC was handed    13004335 working-precision words and  4860 shell-pairs
 Enter PrismC: JobTyp=21 DoJE=F Cont=F.
 PrismC was handed    13004335 working-precision words and  4860 shell-pairs
 PrismC was handed    13004335 working-precision words and  4860 shell-pairs
 Enter PrismC: JobTyp=21 DoJE=F Cont=F.
 PrismC was handed    13004335 working-precision words and  4860 shell-pairs
 Enter PrismC: JobTyp=21 DoJE=F Cont=F.
 Enter PrismC: JobTyp=21 DoJE=F Cont=F.
 Enter PrismC: JobTyp=21 DoJE=F Cont=F.
 PrismC was handed    13004335 working-precision words and  4860 shell-pairs
 PrismC was handed    13004335 working-precision words and  4860 shell-pairs
 Enter PrismC: JobTyp=21 DoJE=F Cont=F.
 PrismC was handed    13004335 working-precision words and  4860 shell-pairs
 PrismC was handed    13004335 working-precision words and  4860 shell-pairs
 PrismC was handed    13004335 working-precision words and  4860 shell-pairs
 PrismC was handed    13004335 working-precision words and  4860 shell-pairs
 PrismC was handed    13004335 working-precision words and  4860 shell-pairs
 PrismC was handed    13004335 working-precision words and  4860 shell-pairs
 PrismC was handed    13004335 working-precision words and  4860 shell-pairs
 PrismC was handed    13004335 working-precision words and  4860 shell-pairs
 PrismC was handed    13004335 working-precision words and  4860 shell-pairs
 IPart= 28 NShTot=      283315 NShNF=      283315 NShFF=           0 NBatch=        2065 AvBLen=       137.2
 IPart= 20 NShTot=      304101 NShNF=      304101 NShFF=           0 NBatch=        2377 AvBLen=       127.9
 IPart= 16 NShTot=      301466 NShNF=      301466 NShFF=           0 NBatch=        2078 AvBLen=       145.1
 IPart=  8 NShTot=      306997 NShNF=      306997 NShFF=           0 NBatch=        2335 AvBLen=       131.5
 IPart= 10 NShTot=      256351 NShNF=      256351 NShFF=           0 NBatch=        1372 AvBLen=       186.8
 IPart=  0 NShTot=      276152 NShNF=      276152 NShFF=           0 NBatch=        2466 AvBLen=       112.0
 IPart= 26 NShTot=      300813 NShNF=      300813 NShFF=           0 NBatch=        1910 AvBLen=       157.5
 IPart= 11 NShTot=      291073 NShNF=      291073 NShFF=           0 NBatch=        1834 AvBLen=       158.7
 IPart= 24 NShTot=      209257 NShNF=      209257 NShFF=           0 NBatch=        1491 AvBLen=       140.3
 IPart= 29 NShTot=      288745 NShNF=      288745 NShFF=           0 NBatch=        2110 AvBLen=       136.8
 IPart= 21 NShTot=      248032 NShNF=      248032 NShFF=           0 NBatch=        1673 AvBLen=       148.3
 IPart= 17 NShTot=      322251 NShNF=      322251 NShFF=           0 NBatch=        1929 AvBLen=       167.1
 IPart= 15 NShTot=      292575 NShNF=      292575 NShFF=           0 NBatch=        2313 AvBLen=       126.5
 IPart=  6 NShTot=      257048 NShNF=      257048 NShFF=           0 NBatch=        2395 AvBLen=       107.3
 IPart= 27 NShTot=      285460 NShNF=      285460 NShFF=           0 NBatch=        2194 AvBLen=       130.1
 IPart= 13 NShTot=      263164 NShNF=      263164 NShFF=           0 NBatch=        1770 AvBLen=       148.7
 IPart=  7 NShTot=      264547 NShNF=      264547 NShFF=           0 NBatch=        1902 AvBLen=       139.1
 IPart= 14 NShTot=      329858 NShNF=      329858 NShFF=           0 NBatch=        2018 AvBLen=       163.5
 IPart= 25 NShTot=      297457 NShNF=      297457 NShFF=           0 NBatch=        2230 AvBLen=       133.4
 IPart=  9 NShTot=      234106 NShNF=      234106 NShFF=           0 NBatch=        2007 AvBLen=       116.6
 IPart=  3 NShTot=      257318 NShNF=      257318 NShFF=           0 NBatch=        1847 AvBLen=       139.3
 IPart= 19 NShTot=      290121 NShNF=      290121 NShFF=           0 NBatch=        2002 AvBLen=       144.9
 IPart= 12 NShTot=      304134 NShNF=      304134 NShFF=           0 NBatch=        1859 AvBLen=       163.6
 IPart= 22 NShTot=      257395 NShNF=      257395 NShFF=           0 NBatch=        1934 AvBLen=       133.1
 IPart= 18 NShTot=      291183 NShNF=      291183 NShFF=           0 NBatch=        2109 AvBLen=       138.1
 IPart= 23 NShTot=      276466 NShNF=      276466 NShFF=           0 NBatch=        2302 AvBLen=       120.1
 IPart= 30 NShTot=      315123 NShNF=      315123 NShFF=           0 NBatch=        2818 AvBLen=       111.8
 IPart=  4 NShTot=      258363 NShNF=      258363 NShFF=           0 NBatch=        2647 AvBLen=        97.6
 IPart= 31 NShTot=      299055 NShNF=      299055 NShFF=           0 NBatch=        1758 AvBLen=       170.1
 IPart=  5 NShTot=      300480 NShNF=      300480 NShFF=           0 NBatch=        2319 AvBLen=       129.6
 IPart=  1 NShTot=      288685 NShNF=      288685 NShFF=           0 NBatch=        1776 AvBLen=       162.5
 IPart=  2 NShTot=      295893 NShNF=      295893 NShFF=           0 NBatch=        2482 AvBLen=       119.2
 CoulSu:  NxtVal=       12827649.
 FoFCou: FMM=F IPFlag=           0 FMFlag=      100000 FMFlg1=         800
         NFxFlg=           0 DoJE=F BraDBF=F KetDBF=F FulRan=T
         wScrn=  0.000000 ICntrl=    2127 IOpCl=  1 I1Cent=           0 NGrid=           0
         NMat0=    1 NMatS0=      0 NMatT0=    1 NMatD0=    1 NMtDS0=    0 NMtDT0=    0
         CW=    0.222036    0.777964
         WU=    0.000000   12.500000
 Symmetry not used in FoFCou.
 FoFCou:  KetSym=F NOpSet=  1 NOpAb=1 NOp=  1.
 FoFCou:  CnvScl= 1.00D+00 Thresh= 1.00D-10 IAcrcy=      10.
 PrismS was handed   418922926 working-precision words and  4860 shell-pairs
 FoFCou: LinMIO=F DoNuc=F BraDBF=F KetDBF=F HaveP=T PDBF=F HaveZ=T HaveW=F
         NIJTC =      10 NIJTAt=       0 NIJTCD=       0 NIJTT =      10
         IJTBeg=       1 IJTEnd=      10 KLTBeg=       1 KLTEnd=      10
         IPTBeg=       1 IPTEnd=      10 IPTBCv=       1 IPTECv=      10
         IZTBeg=       1 IZTEnd=      10 IZTBCv=       1 IZTECv=      10
         IWTBeg=      11 IWTEnd=      10 IWTBCv=      11 IWTECv=      10
         INTBeg=       1 INTEnd=       0 IFTBCv=       1 IFTECv=      10
 NCel replicated for PrismC:     1
 CoulSu:  IncDef=  1024 NBBP=       11812230 NTPThr=   100 NPartT=   32 Incr=        1024 LDynOK=F.
 CoulSu:  NPrtUS=  32 ThrOK=T IAlg=1 NPAlg=1 LenDen=           0 LWGrdD=           0 DoCopy=F.
 Enter PrismC: JobTyp=21 DoJE=F Cont=F.
 Linear combination for Coulomb/exchange, wScrn=  0.000000
 CW=    0.222036    0.777964
 WU=    0.000000   12.500000
 Enter PrismC: JobTyp=21 DoJE=F Cont=F.
 Linear combination for Coulomb/exchange, wScrn=  0.000000
 CW=    0.222036    0.777964
 WU=    0.000000   12.500000
 Enter PrismC: JobTyp=21 DoJE=F Cont=F.
 Enter PrismC: JobTyp=21 DoJE=F Cont=F.
 Linear combination for Coulomb/exchange, wScrn=  0.000000
 Enter PrismC: JobTyp=21 DoJE=F Cont=F.
 Enter PrismC: JobTyp=21 DoJE=F Cont=F.
 Enter PrismC: JobTyp=21 DoJE=F Cont=F.
 Linear combination for Coulomb/exchange, wScrn=  0.000000
 CW=    0.222036    0.777964
 WU=    0.000000   12.500000
 Enter PrismC: JobTyp=21 DoJE=F Cont=F.
 Enter PrismC: JobTyp=21 DoJE=F Cont=F.
 Linear combination for Coulomb/exchange, wScrn=  0.000000
 Enter PrismC: JobTyp=21 DoJE=F Cont=F.
 PrismC was handed    13004179 working-precision words and  4860 shell-pairs
 Enter PrismC: JobTyp=21 DoJE=F Cont=F.
 Linear combination for Coulomb/exchange, wScrn=  0.000000
 CW=    0.222036    0.777964
 WU=    0.000000   12.500000
 CW=    0.222036    0.777964
 WU=    0.000000   12.500000
 Linear combination for Coulomb/exchange, wScrn=  0.000000
 CW=    0.222036    0.777964
 WU=    0.000000   12.500000
 Enter PrismC: JobTyp=21 DoJE=F Cont=F.
 Linear combination for Coulomb/exchange, wScrn=  0.000000
 CW=    0.222036    0.777964
 Enter PrismC: JobTyp=21 DoJE=F Cont=F.
 Linear combination for Coulomb/exchange, wScrn=  0.000000
 CW=    0.222036    0.777964
 WU=    0.000000   12.500000
 PrismC was handed    13004179 working-precision words and  4860 shell-pairs
 Enter PrismC: JobTyp=21 DoJE=F Cont=F.
 Linear combination for Coulomb/exchange, wScrn=  0.000000
 CW=    0.222036    0.777964
 WU=    0.000000   12.500000
 CW=    0.222036    0.777964
 WU=    0.000000   12.500000
 Linear combination for Coulomb/exchange, wScrn=  0.000000
 CW=    0.222036    0.777964
 WU=    0.000000   12.500000
 Linear combination for Coulomb/exchange, wScrn=  0.000000
 CW=    0.222036    0.777964
 WU=    0.000000   12.500000
 PrismC was handed    13004179 working-precision words and  4860 shell-pairs
 PrismC was handed    13004179 working-precision words and  4860 shell-pairs
 PrismC was handed    13004179 working-precision words and  4860 shell-pairs
 Linear combination for Coulomb/exchange, wScrn=  0.000000
 CW=    0.222036    0.777964
 WU=    0.000000   12.500000
 PrismC was handed    13004179 working-precision words and  4860 shell-pairs
 PrismC was handed    13004179 working-precision words and  4860 shell-pairs
 Enter PrismC: JobTyp=21 DoJE=F Cont=F.
 Linear combination for Coulomb/exchange, wScrn=  0.000000
 CW=    0.222036    0.777964
 WU=    0.000000   12.500000
 PrismC was handed    13004179 working-precision words and  4860 shell-pairs
 PrismC was handed    13004179 working-precision words and  4860 shell-pairs
 WU=    0.000000   12.500000
 Enter PrismC: JobTyp=21 DoJE=F Cont=F.
 Linear combination for Coulomb/exchange, wScrn=  0.000000
 CW=    0.222036    0.777964
 WU=    0.000000   12.500000
 Enter PrismC: JobTyp=21 DoJE=F Cont=F.
 Linear combination for Coulomb/exchange, wScrn=  0.000000
 CW=    0.222036    0.777964
 WU=    0.000000   12.500000
 PrismC was handed    13004179 working-precision words and  4860 shell-pairs
 Enter PrismC: JobTyp=21 DoJE=F Cont=F.
 Linear combination for Coulomb/exchange, wScrn=  0.000000
 CW=    0.222036    0.777964
 WU=    0.000000   12.500000
 PrismC was handed    13004179 working-precision words and  4860 shell-pairs
 Enter PrismC: JobTyp=21 DoJE=F Cont=F.
 PrismC was handed    13004179 working-precision words and  4860 shell-pairs
 Enter PrismC: JobTyp=21 DoJE=F Cont=F.
 Linear combination for Coulomb/exchange, wScrn=  0.000000
 CW=    0.222036    0.777964
 WU=    0.000000   12.500000
 PrismC was handed    13004179 working-precision words and  4860 shell-pairs
 PrismC:  IPart=     0 DynPar=T LinDyn=F Incr=        1024 UseFst=F UseS4=T IGathr=2.
 PrismC was handed    13004179 working-precision words and  4860 shell-pairs
 Enter PrismC: JobTyp=21 DoJE=F Cont=F.
 Linear combination for Coulomb/exchange, wScrn=  0.000000
 CW=    0.222036    0.777964
 WU=    0.000000   12.500000
 PrismC was handed    13004179 working-precision words and  4860 shell-pairs
 PrismC was handed    13004179 working-precision words and  4860 shell-pairs
 Enter PrismC: JobTyp=21 DoJE=F Cont=F.
 Linear combination for Coulomb/exchange, wScrn=  0.000000
 CW=    0.222036    0.777964
 WU=    0.000000   12.500000
 Enter PrismC: JobTyp=21 DoJE=F Cont=F.
 Linear combination for Coulomb/exchange, wScrn=  0.000000
 CW=    0.222036    0.777964
 WU=    0.000000   12.500000
 PrismC was handed    13004179 working-precision words and  4860 shell-pairs
 PrismC was handed    13004179 working-precision words and  4860 shell-pairs
 Linear combination for Coulomb/exchange, wScrn=  0.000000
 CW=    0.222036    0.777964
 WU=    0.000000   12.500000
 Enter PrismC: JobTyp=21 DoJE=F Cont=F.
 Linear combination for Coulomb/exchange, wScrn=  0.000000
 CW=    0.222036    0.777964
 WU=    0.000000   12.500000
 PrismC was handed    13004179 working-precision words and  4860 shell-pairs
 Enter PrismC: JobTyp=21 DoJE=F Cont=F.
 Linear combination for Coulomb/exchange, wScrn=  0.000000
 CW=    0.222036    0.777964
 WU=    0.000000   12.500000
 Linear combination for Coulomb/exchange, wScrn=  0.000000
 CW=    0.222036    0.777964
 WU=    0.000000   12.500000
 PrismC was handed    13004179 working-precision words and  4860 shell-pairs
 Enter PrismC: JobTyp=21 DoJE=F Cont=F.
 Linear combination for Coulomb/exchange, wScrn=  0.000000
 CW=    0.222036    0.777964
 WU=    0.000000   12.500000
 PrismC was handed    13004179 working-precision words and  4860 shell-pairs
 PrismC was handed    13004179 working-precision words and  4860 shell-pairs
 Enter PrismC: JobTyp=21 DoJE=F Cont=F.
 PrismC was handed    13004179 working-precision words and  4860 shell-pairs
 Enter PrismC: JobTyp=21 DoJE=F Cont=F.
 Linear combination for Coulomb/exchange, wScrn=  0.000000
 CW=    0.222036    0.777964
 WU=    0.000000   12.500000
 PrismC was handed    13004179 working-precision words and  4860 shell-pairs
 Enter PrismC: JobTyp=21 DoJE=F Cont=F.
 Linear combination for Coulomb/exchange, wScrn=  0.000000
 CW=    0.222036    0.777964
 WU=    0.000000   12.500000
 Enter PrismC: JobTyp=21 DoJE=F Cont=F.
 Linear combination for Coulomb/exchange, wScrn=  0.000000
 CW=    0.222036    0.777964
 WU=    0.000000   12.500000
 PrismC was handed    13004179 working-precision words and  4860 shell-pairs
 Enter PrismC: JobTyp=21 DoJE=F Cont=F.
 Linear combination for Coulomb/exchange, wScrn=  0.000000
 CW=    0.222036    0.777964
 WU=    0.000000   12.500000
 PrismC was handed    13004179 working-precision words and  4860 shell-pairs
 Enter PrismC: JobTyp=21 DoJE=F Cont=F.
 Linear combination for Coulomb/exchange, wScrn=  0.000000
 CW=    0.222036    0.777964
 WU=    0.000000   12.500000
 PrismC was handed    13004179 working-precision words and  4860 shell-pairs
 PrismC was handed    13004179 working-precision words and  4860 shell-pairs
 PrismC was handed    13004179 working-precision words and  4860 shell-pairs
 Linear combination for Coulomb/exchange, wScrn=  0.000000
 CW=    0.222036    0.777964
 WU=    0.000000   12.500000
 PrismC was handed    13004179 working-precision words and  4860 shell-pairs
 PrismC was handed    13004179 working-precision words and  4860 shell-pairs
 PrismC was handed    13004179 working-precision words and  4860 shell-pairs
 IPart=  4 NShTot=      295699 NShNF=      295699 NShFF=           0 NBatch=        2597 AvBLen=       113.9
 IPart= 11 NShTot=      250649 NShNF=      250649 NShFF=           0 NBatch=        2192 AvBLen=       114.3
 IPart=  2 NShTot=      282765 NShNF=      282765 NShFF=           0 NBatch=        2489 AvBLen=       113.6
 IPart= 25 NShTot=      267695 NShNF=      267695 NShFF=           0 NBatch=        2564 AvBLen=       104.4
 IPart= 17 NShTot=      273692 NShNF=      273692 NShFF=           0 NBatch=        2732 AvBLen=       100.2
 IPart=  7 NShTot=      265780 NShNF=      265780 NShFF=           0 NBatch=        2497 AvBLen=       106.4
 IPart= 26 NShTot=      296891 NShNF=      296891 NShFF=           0 NBatch=        2488 AvBLen=       119.3
 IPart= 21 NShTot=      265426 NShNF=      265426 NShFF=           0 NBatch=        2477 AvBLen=       107.2
 IPart=  0 NShTot=      312200 NShNF=      312200 NShFF=           0 NBatch=        2615 AvBLen=       119.4
 IPart= 15 NShTot=      281831 NShNF=      281831 NShFF=           0 NBatch=        2397 AvBLen=       117.6
 IPart= 29 NShTot=      281431 NShNF=      281431 NShFF=           0 NBatch=        2767 AvBLen=       101.7
 IPart= 30 NShTot=      279452 NShNF=      279452 NShFF=           0 NBatch=        2562 AvBLen=       109.1
 IPart= 12 NShTot=      288692 NShNF=      288692 NShFF=           0 NBatch=        2768 AvBLen=       104.3
 IPart= 13 NShTot=      256898 NShNF=      256898 NShFF=           0 NBatch=        2272 AvBLen=       113.1
 IPart= 24 NShTot=      287893 NShNF=      287893 NShFF=           0 NBatch=        2417 AvBLen=       119.1
 IPart= 18 NShTot=      251211 NShNF=      251211 NShFF=           0 NBatch=        2430 AvBLen=       103.4
 IPart= 16 NShTot=      313474 NShNF=      313474 NShFF=           0 NBatch=        2257 AvBLen=       138.9
 IPart= 14 NShTot=      288915 NShNF=      288915 NShFF=           0 NBatch=        2790 AvBLen=       103.6
 IPart= 28 NShTot=      284591 NShNF=      284591 NShFF=           0 NBatch=        2622 AvBLen=       108.5
 IPart=  3 NShTot=      276986 NShNF=      276986 NShFF=           0 NBatch=        2724 AvBLen=       101.7
 IPart=  9 NShTot=      274524 NShNF=      274524 NShFF=           0 NBatch=        2803 AvBLen=        97.9
 IPart= 23 NShTot=      269066 NShNF=      269066 NShFF=           0 NBatch=        2541 AvBLen=       105.9
 IPart=  1 NShTot=      310651 NShNF=      310651 NShFF=           0 NBatch=        2856 AvBLen=       108.8
 IPart=  6 NShTot=      297513 NShNF=      297513 NShFF=           0 NBatch=        2584 AvBLen=       115.1
 IPart= 22 NShTot=      290235 NShNF=      290235 NShFF=           0 NBatch=        2636 AvBLen=       110.1
 IPart=  5 NShTot=      252515 NShNF=      252515 NShFF=           0 NBatch=        2597 AvBLen=        97.2
 IPart= 20 NShTot=      283361 NShNF=      283361 NShFF=           0 NBatch=        2491 AvBLen=       113.8
 IPart= 10 NShTot=      288508 NShNF=      288508 NShFF=           0 NBatch=        2656 AvBLen=       108.6
 IPart= 19 NShTot=      272975 NShNF=      272975 NShFF=           0 NBatch=        2711 AvBLen=       100.7
 IPart=  8 NShTot=      322472 NShNF=      322472 NShFF=           0 NBatch=        2646 AvBLen=       121.9
 IPart= 31 NShTot=      293375 NShNF=      293375 NShFF=           0 NBatch=        2396 AvBLen=       122.4
 IPart= 27 NShTot=      310932 NShNF=      310932 NShFF=           0 NBatch=        2715 AvBLen=       114.5
 CoulSu:  NxtVal=       12827649.
 ReadGW:  IGet=0 IStart=           1 Next=           1 LGW=           0.
 Remaining memory in FofDFT      399.83 Mw
 CkSvGd:  ISavGI=        -1 IRadAn=       5 IRASav=       5 ISavGd=        -1.
 CalDSu:  NPrtUS=  32 ThrOK=T IAlg=1 NPAlg=2 DoDPD=T LenP=       45150 LenD1P=             0.
 IPart=  0 IRanGd=          0 ScrnBf=T ScrnGd=T RCrit=4.00D+00 DoMicB=T.
 IPart= 14        10410 of        12532 points in      20 batches and      109 microbatches, Max-NSigAt=      12 Max-NSgAt2=      12
 IPart= 20         5144 of         5430 points in       8 batches and       28 microbatches, Max-NSigAt=      12 Max-NSgAt2=      12
 IPart=  6         5025 of         5524 points in       9 batches and       31 microbatches, Max-NSigAt=      12 Max-NSgAt2=      12
 IPart= 19         5689 of         6542 points in      10 batches and       18 microbatches, Max-NSigAt=      12 Max-NSgAt2=      12
 IPart= 17        10292 of        11770 points in      18 batches and       45 microbatches, Max-NSigAt=      12 Max-NSgAt2=      12
 IPart= 12         9273 of        10158 points in      16 batches and       66 microbatches, Max-NSigAt=      12 Max-NSgAt2=      12
 IPart=  8        11666 of        13770 points in      20 batches and       63 microbatches, Max-NSigAt=      12 Max-NSgAt2=      12
 IPart=  0        16122 of        19592 points in      30 batches and       98 microbatches, Max-NSigAt=      12 Max-NSgAt2=      12
 IPart= 21         7022 of         7094 points in      12 batches and       24 microbatches, Max-NSigAt=      12 Max-NSgAt2=      12
 IPart= 10        11135 of        12062 points in      18 batches and       60 microbatches, Max-NSigAt=      12 Max-NSgAt2=      12
 IPart= 15         8693 of         9428 points in      13 batches and       61 microbatches, Max-NSigAt=      12 Max-NSgAt2=      12
 IPart= 22        10068 of        11950 points in      17 batches and       51 microbatches, Max-NSigAt=      12 Max-NSgAt2=      12
 IPart= 26         9374 of        12172 points in      18 batches and       79 microbatches, Max-NSigAt=      12 Max-NSgAt2=      12
 IPart= 27         7205 of         7776 points in      12 batches and       28 microbatches, Max-NSigAt=      12 Max-NSgAt2=      12
 IPart=  7         5761 of         6298 points in      10 batches and       41 microbatches, Max-NSigAt=      12 Max-NSgAt2=      12
 IPart=  2         6517 of         7044 points in      11 batches and       35 microbatches, Max-NSigAt=      12 Max-NSgAt2=      12
 IPart= 25         6434 of         7880 points in      12 batches and       63 microbatches, Max-NSigAt=      12 Max-NSgAt2=      12
 IPart= 23         6783 of         7844 points in      12 batches and       42 microbatches, Max-NSigAt=      12 Max-NSgAt2=      12
 IPart= 18         6927 of         8056 points in      13 batches and       64 microbatches, Max-NSigAt=      12 Max-NSgAt2=      12
 IPart=  5         7050 of         8628 points in      14 batches and       60 microbatches, Max-NSigAt=      12 Max-NSgAt2=      12
 IPart=  3         7082 of         7898 points in      13 batches and       61 microbatches, Max-NSigAt=      12 Max-NSgAt2=      12
 IPart=  9         5363 of         5826 points in      10 batches and       38 microbatches, Max-NSigAt=      12 Max-NSgAt2=      12
 IPart= 31         6336 of         6834 points in      11 batches and       46 microbatches, Max-NSigAt=      12 Max-NSgAt2=      12
 IPart= 30         4989 of         5032 points in       7 batches and       14 microbatches, Max-NSigAt=      12 Max-NSgAt2=      12
 IPart= 28         5794 of         6198 points in      10 batches and       38 microbatches, Max-NSigAt=      12 Max-NSgAt2=      12
 IPart= 13         6636 of         7438 points in      12 batches and       59 microbatches, Max-NSigAt=      12 Max-NSgAt2=      12
 IPart= 11         6434 of         7158 points in      11 batches and       45 microbatches, Max-NSigAt=      12 Max-NSgAt2=      12
 IPart= 16         7940 of         8674 points in      14 batches and       53 microbatches, Max-NSigAt=      12 Max-NSgAt2=      12
 IPart=  1         7708 of         8384 points in      13 batches and       24 microbatches, Max-NSigAt=      12 Max-NSgAt2=      12
 IPart=  4         5650 of         7002 points in      11 batches and       39 microbatches, Max-NSigAt=      12 Max-NSgAt2=      12
 IPart= 24         5702 of         6298 points in      10 batches and       45 microbatches, Max-NSigAt=      12 Max-NSgAt2=      12
 IPart= 29         6163 of         7060 points in      11 batches and       29 microbatches, Max-NSigAt=      12 Max-NSgAt2=      12
 Forces at end of L703
 I=    0 X=  -4.914994062272D-01 Y=   2.189724923909D-01 Z=  -8.777268991535D-02
 I=    1 X=   4.018297621244D-03 Y=   1.397094577220D-02 Z=   6.141969072194D-03
 I=    2 X=   4.946307742060D-06 Y=  -1.528203210532D-05 Z=   1.292187445401D-05
 I=    3 X=  -2.100706836217D-05 Y=  -9.480787943189D-06 Z=   1.003210971029D-05
 I=    4 X=  -2.467091765723D-05 Y=  -7.456543584805D-06 Z=  -1.782621566004D-05
 I=    5 X=   2.085081931558D-06 Y=   1.250953688814D-05 Z=   3.838446612114D-06
 I=    6 X=  -3.967747864107D-03 Y=  -1.387159932412D-02 Z=  -6.145379839885D-03
 I=    7 X=  -1.379161566478D-05 Y=  -4.434819539634D-05 Z=  -5.180067267574D-06
 I=    8 X=  -1.235391165144D-05 Y=  -3.075274573844D-05 Z=   1.204378054687D-05
 I=    9 X=  -1.073727311951D-06 Y=  -1.358711785349D-05 Z=   1.210567401966D-05
 I=   10 X=  -5.384773871131D-06 Y=  -5.408697296705D-06 Z=  -8.996731830191D-06
 I=   11 X=  -7.991986920697D-06 Y=   5.803286524220D-06 Z=  -9.631514567454D-06
 I=   12 X=   2.869285464113D-05 Y=   8.656848380029D-06 Z=  -5.896588275101D-06
 FrcOut:
 IF    =    61 IFX   =    97 IFXYZ =   133
 IFFX  =   169 IFFFX =   835 IFLen =    36
 IFFLen=   666 IFFFLn=     0 IEDerv=   835
 LEDerv=  1781 IFroze=  3022 ICStrt=147347
 FCEst1:  Generated internal coordinate force constants:
                1             2             3             4             5 
      1  0.661707D+00
      2 -0.108283D+00  0.306382D+00
      3 -0.127024D-01 -0.813147D-01  0.868010D+00
      4 -0.107041D+00  0.493341D-02 -0.164780D-02  0.593517D+00
      5  0.367703D-02 -0.756314D-01 -0.300656D-03 -0.386629D-01  0.870932D-01
      6 -0.323800D-01  0.236948D-02 -0.535380D+00 -0.129845D+00  0.950171D-02
      7 -0.319176D+00  0.334473D-02  0.933080D-01  0.121018D-01  0.305703D-03
      8 -0.386074D-02 -0.676132D-01  0.107224D-01  0.223684D-03 -0.355358D-02
      9  0.989320D-01  0.785990D-02 -0.142008D+00  0.284383D-01  0.718381D-03
     10 -0.225201D+00  0.100149D+00 -0.801713D-01  0.116043D-01  0.102830D-02
     11  0.108977D+00 -0.143762D+00  0.684208D-01 -0.402736D-02  0.166738D-01
     12 -0.877539D-01  0.688103D-01 -0.160904D+00 -0.221186D-01  0.159219D-01
     13  0.116825D-01 -0.409973D-03  0.000000D+00 -0.511487D+00  0.352637D-01
     14  0.537677D-03  0.604073D-02  0.000000D+00  0.358530D-01 -0.322178D-01
     15  0.323800D-01 -0.236948D-02  0.000000D+00  0.129845D+00 -0.950171D-02
     16 -0.247651D-01  0.544772D-03  0.238959D-02  0.143650D-02 -0.164936D-02
     17 -0.102015D-02 -0.263666D-01  0.461773D-02  0.163419D-02  0.764890D-02
     18  0.233557D-02  0.593844D-02 -0.331891D-01 -0.465262D-02 -0.163451D-01
     19  0.180794D-02  0.147614D-02 -0.453372D-02  0.318851D-03 -0.908481D-04
     20  0.383162D-02  0.521631D-02 -0.143622D-01 -0.112323D-03  0.320035D-04
     21  0.832820D-03  0.939568D-03 -0.267948D-02  0.488947D-04 -0.139313D-04
     22 -0.199559D-02  0.219820D-03  0.794082D-03 -0.127520D-03  0.363336D-04
     23 -0.122703D-01  0.142902D-02  0.470636D-02  0.208098D-03 -0.592922D-04
     24 -0.582166D-02  0.639787D-03  0.231994D-02 -0.391076D-03  0.111427D-03
     25  0.297266D-02 -0.197237D-02  0.256230D-02 -0.322924D-03  0.920085D-04
     26  0.841435D-02 -0.569629D-02  0.751083D-02 -0.498306D-04  0.141979D-04
     27  0.417643D-02 -0.287292D-02  0.383178D-02  0.322941D-03 -0.920134D-04
     28  0.810392D-03 -0.285481D-03  0.124271D-03  0.000000D+00  0.000000D+00
     29 -0.280005D-03  0.986387D-04 -0.429378D-04  0.000000D+00  0.000000D+00
     30  0.124952D-03 -0.440174D-04  0.191610D-04  0.000000D+00  0.000000D+00
     31 -0.626500D-03  0.220700D-03 -0.960717D-04  0.000000D+00  0.000000D+00
     32 -0.574839D-03  0.202502D-03 -0.881497D-04  0.000000D+00  0.000000D+00
     33 -0.194983D-03  0.686876D-04 -0.299000D-04  0.000000D+00  0.000000D+00
     34 -0.175907D-03  0.619676D-04 -0.269747D-04  0.000000D+00  0.000000D+00
     35  0.851315D-03 -0.299897D-03  0.130546D-03  0.000000D+00  0.000000D+00
     36  0.711665D-04 -0.250702D-04  0.109131D-04  0.000000D+00  0.000000D+00
                6             7             8             9            10 
      6  0.642614D+00
      7  0.000000D+00  0.317290D+00
      8  0.000000D+00 -0.786175D-03  0.536031D-01
      9  0.000000D+00 -0.103364D+00 -0.184746D-02  0.118378D+00
     10  0.000000D+00 -0.783949D-02  0.158568D-01 -0.184223D-01  0.218256D+00
     11  0.000000D+00 -0.303391D-02  0.954295D-02 -0.712947D-02 -0.110945D+00
     12  0.000000D+00  0.890035D-02 -0.144260D-01  0.209152D-01  0.963938D-01
     13  0.162225D+00  0.000000D+00  0.516198D-03  0.000000D+00 -0.302225D-03
     14 -0.118712D-01  0.000000D+00  0.705405D-02  0.000000D+00 -0.413003D-02
     15 -0.107234D+00  0.000000D+00  0.000000D+00  0.000000D+00  0.000000D+00
     16  0.000000D+00 -0.243173D-02 -0.118768D-01 -0.571439D-02  0.338553D-02
     17  0.000000D+00  0.188971D-03  0.941234D-03  0.444069D-03 -0.192452D-02
     18  0.000000D+00  0.114725D-02  0.556169D-02  0.269596D-02  0.218553D-02
     19  0.000000D+00 -0.134123D-03  0.176645D-03 -0.315180D-03 -0.235295D-03
     20  0.000000D+00  0.472482D-04 -0.622277D-04  0.111030D-03  0.828886D-04
     21  0.000000D+00 -0.205673D-04  0.270880D-04 -0.483318D-04 -0.360817D-04
     22  0.000000D+00  0.536408D-04 -0.706470D-04  0.126052D-03  0.941034D-04
     23  0.000000D+00 -0.875355D-04  0.115288D-03 -0.205702D-03 -0.153566D-03
     24  0.000000D+00  0.164504D-03 -0.216658D-03  0.386573D-03  0.288594D-03
     25  0.000000D+00  0.135836D-03 -0.178901D-03  0.319205D-03  0.238301D-03
     26  0.000000D+00  0.209610D-04 -0.276064D-04  0.492569D-04  0.367724D-04
     27  0.000000D+00 -0.135843D-03  0.178911D-03 -0.319222D-03 -0.238313D-03
     28  0.000000D+00  0.000000D+00  0.000000D+00  0.000000D+00  0.000000D+00
     29  0.000000D+00  0.000000D+00  0.000000D+00  0.000000D+00  0.000000D+00
     30  0.000000D+00  0.000000D+00  0.000000D+00  0.000000D+00  0.000000D+00
     31  0.000000D+00  0.000000D+00  0.000000D+00  0.000000D+00  0.000000D+00
     32  0.000000D+00  0.000000D+00  0.000000D+00  0.000000D+00  0.000000D+00
     33  0.000000D+00  0.000000D+00  0.000000D+00  0.000000D+00  0.000000D+00
     34  0.000000D+00  0.000000D+00  0.000000D+00  0.000000D+00  0.000000D+00
     35  0.000000D+00  0.000000D+00  0.000000D+00  0.000000D+00  0.000000D+00
     36  0.000000D+00  0.000000D+00  0.000000D+00  0.000000D+00  0.000000D+00
               11            12            13            14            15 
     11  0.129074D+00
     12 -0.675876D-01  0.136769D+00
     13 -0.443750D-03  0.000000D+00  0.499916D+00
     14 -0.606403D-02  0.000000D+00 -0.348717D-01  0.259310D-01
     15  0.000000D+00  0.000000D+00 -0.162225D+00  0.118712D-01  0.107234D+00
     16  0.944779D-02  0.470067D-02  0.191073D-03  0.261109D-02  0.000000D+00
     17 -0.545565D-02 -0.276137D-02 -0.544412D-04 -0.743961D-03  0.000000D+00
     18  0.629253D-02  0.323770D-02  0.000000D+00  0.000000D+00  0.000000D+00
     19 -0.631562D-04  0.296435D-03  0.000000D+00  0.000000D+00  0.000000D+00
     20  0.222484D-04 -0.104426D-03  0.000000D+00  0.000000D+00  0.000000D+00
     21 -0.968479D-05  0.454573D-04  0.000000D+00  0.000000D+00  0.000000D+00
     22  0.252585D-04 -0.118555D-03  0.000000D+00  0.000000D+00  0.000000D+00
     23 -0.412190D-04  0.193468D-03  0.000000D+00  0.000000D+00  0.000000D+00
     24  0.774621D-04 -0.363582D-03  0.000000D+00  0.000000D+00  0.000000D+00
     25  0.639629D-04 -0.300221D-03  0.000000D+00  0.000000D+00  0.000000D+00
     26  0.987017D-05 -0.463274D-04  0.000000D+00  0.000000D+00  0.000000D+00
     27 -0.639663D-04  0.300237D-03  0.000000D+00  0.000000D+00  0.000000D+00
     28  0.000000D+00  0.000000D+00  0.000000D+00  0.000000D+00  0.000000D+00
     29  0.000000D+00  0.000000D+00  0.000000D+00  0.000000D+00  0.000000D+00
     30  0.000000D+00  0.000000D+00  0.000000D+00  0.000000D+00  0.000000D+00
     31  0.000000D+00  0.000000D+00  0.000000D+00  0.000000D+00  0.000000D+00
     32  0.000000D+00  0.000000D+00  0.000000D+00  0.000000D+00  0.000000D+00
     33  0.000000D+00  0.000000D+00  0.000000D+00  0.000000D+00  0.000000D+00
     34  0.000000D+00  0.000000D+00  0.000000D+00  0.000000D+00  0.000000D+00
     35  0.000000D+00  0.000000D+00  0.000000D+00  0.000000D+00  0.000000D+00
     36  0.000000D+00  0.000000D+00  0.000000D+00  0.000000D+00  0.000000D+00
               16            17            18            19            20 
     16  0.661176D+00
     17 -0.877653D-01  0.344676D+00
     18 -0.376236D-01 -0.129111D+00  0.665165D+00
     19 -0.125428D+00 -0.398588D-02  0.424297D-01  0.673527D+00
     20 -0.438072D-02 -0.113607D+00  0.299469D-01 -0.274542D-02  0.659287D+00
     21  0.411528D-01  0.271581D-01 -0.324456D+00 -0.375117D-02 -0.595493D-02
     22 -0.329690D+00  0.486613D-02  0.755741D-01  0.859725D-02  0.790029D-05
     23  0.668234D-05 -0.774588D-01  0.106019D-01 -0.258081D-02  0.750806D-02
     24  0.856214D-01  0.938206D-02 -0.128702D+00  0.261458D-01 -0.120288D-03
     25 -0.202321D+00  0.885326D-01 -0.849739D-01  0.151069D-01 -0.554690D-02
     26  0.935675D-01 -0.148340D+00  0.848884D-01 -0.103577D-02  0.816244D-02
     27 -0.940316D-01  0.882580D-01 -0.185692D+00 -0.181334D-01  0.136515D-01
     28  0.485493D-02  0.664447D-02  0.178325D-02 -0.893725D-01 -0.406293D-01
     29  0.289281D-02  0.121348D-01  0.207905D-02 -0.424279D-01 -0.251669D+00
     30 -0.649821D-02 -0.218571D-01 -0.399863D-02 -0.310144D-01 -0.122548D+00
     31  0.889979D-02 -0.751790D-02  0.819840D-03 -0.158013D+00  0.103612D+00
     32 -0.207147D-02  0.447896D-02  0.148495D-03  0.106294D+00 -0.222323D+00
     33 -0.161872D-01  0.187274D-01 -0.862820D-03 -0.654152D-01  0.870256D-01
     34  0.469141D-02  0.401848D-03  0.974855D-03 -0.326175D+00 -0.541666D-01
     35 -0.132697D-02  0.209236D-02 -0.146049D-05 -0.550167D-01 -0.925660D-01
     36  0.261906D-01  0.514194D-02  0.580267D-02  0.542911D-01  0.123543D-01
               21            22            23            24            25 
     21  0.686950D+00
     22  0.169589D-02  0.330050D+00
     23  0.424697D-03 -0.334571D-02  0.580648D-01
     24  0.513958D-02 -0.844621D-01 -0.439429D-02  0.101604D+00
     25  0.228861D-02 -0.698389D-02  0.181987D-01 -0.215487D-01  0.191186D+00
     26  0.810656D-03 -0.173854D-02  0.104529D-01 -0.547805D-02 -0.991945D-01
     27 -0.187760D-02  0.639039D-02 -0.113299D-01  0.196152D-01  0.101654D+00
     28 -0.269434D-01  0.125507D-03  0.248157D-02  0.333282D-03 -0.123526D-02
     29 -0.110757D+00 -0.433648D-04 -0.857426D-03 -0.115155D-03  0.426803D-03
     30 -0.152815D+00  0.193515D-04  0.382626D-03  0.513877D-04 -0.190461D-03
     31 -0.569962D-01 -0.970272D-04 -0.191846D-02 -0.257654D-03  0.954957D-03
     32  0.776829D-01 -0.890264D-04 -0.176026D-02 -0.236408D-03  0.876212D-03
     33 -0.124023D+00 -0.301973D-04 -0.597073D-03 -0.801886D-04  0.297207D-03
     34  0.417284D-01 -0.272430D-04 -0.538659D-03 -0.723434D-04  0.268130D-03
     35  0.969292D-02  0.131845D-03  0.260688D-02  0.350112D-03 -0.129764D-02
     36 -0.862341D-01  0.110217D-04  0.217925D-03  0.292679D-04 -0.108477D-03
               26            27            28            29            30 
     26  0.135415D+00
     27 -0.877318D-01  0.164142D+00
     28 -0.213112D-02 -0.508493D-03  0.726773D-01
     29  0.736340D-03  0.175693D-03  0.469407D-01  0.251040D+00
     30 -0.328591D-03 -0.784029D-04  0.304311D-01  0.121060D+00  0.135106D+00
     31  0.164753D-02  0.393107D-03  0.936143D-02 -0.737155D-02  0.800318D-02
     32  0.151168D-02  0.360692D-03  0.155044D-01 -0.124979D-01  0.137134D-01
     33  0.512754D-03  0.122345D-03  0.157182D-01 -0.129125D-01  0.142866D-01
     34  0.462589D-03  0.110375D-03  0.277817D-02 -0.137586D-03 -0.875541D-03
     35 -0.223874D-02 -0.534170D-03 -0.285253D-01  0.101428D-02  0.962150D-02
     36 -0.187149D-03 -0.446545D-04 -0.209383D-01  0.513464D-03  0.742874D-02
               31            32            33            34            35 
     31  0.147864D+00
     32 -0.115293D+00  0.215447D+00
     33  0.628364D-01 -0.835467D-01  0.105060D+00
     34 -0.834360D-02 -0.464630D-02  0.297571D-02  0.326985D+00
     35  0.266207D-01  0.149409D-01 -0.927816D-02  0.585627D-01  0.744502D-01
     36 -0.147026D-01 -0.803414D-02  0.552745D-02 -0.448145D-01 -0.998128D-02
               36 
     36  0.674797D-01
 Quadrupole    = 1.51036115D+00-1.45925657D+00-5.11045846D-02
                -7.52554574D-01-2.23860565D+00 8.92291862D-02
 -------------------------------------------------------------------
 Center     Atomic                   Forces (Hartrees/Bohr)
 Number     Number              X              Y              Z
 -------------------------------------------------------------------
      1        6          -0.004018298   -0.013970946   -0.006141969
      2        8          -0.000004946    0.000015282   -0.000012922
      3        1           0.000021007    0.000009481   -0.000010032
      4        1           0.000024671    0.000007457    0.000017826
      5        1          -0.000002085   -0.000012510   -0.000003838
      6        6           0.003967748    0.013871599    0.006145380
      7        6           0.000013792    0.000044348    0.000005180
      8        1           0.000012354    0.000030753   -0.000012044
      9        1           0.000001074    0.000013587   -0.000012106
     10        1           0.000005385    0.000005409    0.000008997
     11        1           0.000007992   -0.000005803    0.000009632
     12        1          -0.000028693   -0.000008657    0.000005897
 -------------------------------------------------------------------
 Cartesian Forces:  Max     0.013970946 RMS     0.003708081
 From PutF, contents of force:
   1   -0.1676032107D-04
   2    0.2325788621D-04
   3   -0.2269467705D-04
   4   -0.1976741209D-06
   5    0.2049882017D-05
   6   -0.1649424839D-04
   7   -0.7247905176D-05
   8    0.3616542965D-04
   9   -0.2494823429D-04
  10   -0.1531690752D-04
  11   -0.1310692785D-04
  12   -0.1028066136D-04
  13   -0.1248323956D-04
  14   -0.3044453736D-04
  15   -0.2427321305D-04
  16   -0.1690773929D-04
  17   -0.7326754113D-05
  18   -0.8730672369D-05
  19   -0.2404758800D-05
  20    0.1707690282D-04
  21    0.7793980069D-05
  22    0.4179931280D-05
  23   -0.7794111408D-04
  24   -0.2912066779D-05
  25   -0.3866663579D-04
  26    0.2150188051D-04
  27    0.3129069480D-05
  28    0.2778199735D-05
  29   -0.2818114645D-04
  30   -0.1575779643D-01
 -----------------------------------------------------------------------------------------------
                       Internal Coordinate Forces (Hartree/Bohr or radian)
  Cent   Atom   N1       Length/X         N2         Alpha/Y        N3         Beta/Z          J
 -----------------------------------------------------------------------------------------------
      1  C 
      2  O        1  -0.000017(     1)
      3  H        1   0.000023(     2)      2   0.000002(    12)
      4  H        1  -0.000023(     3)      2  -0.000016(    13)      3   0.000036(    22)     0
      5  H        2  -0.000000(     4)      1  -0.000007(    14)      3   0.000022(    23)     0
      6  C        1  -0.015758(     5)      2  -0.000028(    15)      3   0.000003(    24)     0
      7  C        6  -0.000025(     6)      1  -0.000078(    16)      2  -0.000003(    25)     0
      8  H        6  -0.000015(     7)      7  -0.000024(    17)      1  -0.000039(    26)     0
      9  H        6  -0.000013(     8)      7  -0.000017(    18)      8   0.000017(    27)     0
     10  H        7  -0.000010(     9)      6  -0.000007(    19)      8   0.000003(    28)     0
     11  H        7  -0.000012(    10)      6  -0.000009(    20)     10   0.000008(    29)     0
     12  H        7  -0.000030(    11)      6  -0.000002(    21)     10   0.000004(    30)     0
 -----------------------------------------------------------------------------------------------
 Internal  Forces:  Max     0.015757796 RMS     0.002877056
 Force constants in Cartesian coordinates: 
                1             2             3             4             5 
      1  0.661707D+00
      2 -0.108283D+00  0.306382D+00
      3 -0.127024D-01 -0.813147D-01  0.868010D+00
      4 -0.107041D+00  0.493341D-02 -0.164780D-02  0.593517D+00
      5  0.367703D-02 -0.756314D-01 -0.300656D-03 -0.386629D-01  0.870932D-01
      6 -0.323800D-01  0.236948D-02 -0.535380D+00 -0.129845D+00  0.950171D-02
      7 -0.319176D+00  0.334473D-02  0.933080D-01  0.121018D-01  0.305703D-03
      8 -0.386074D-02 -0.676132D-01  0.107224D-01  0.223684D-03 -0.355358D-02
      9  0.989320D-01  0.785990D-02 -0.142008D+00  0.284383D-01  0.718381D-03
     10 -0.225201D+00  0.100149D+00 -0.801713D-01  0.116043D-01  0.102830D-02
     11  0.108977D+00 -0.143762D+00  0.684208D-01 -0.402736D-02  0.166738D-01
     12 -0.877539D-01  0.688103D-01 -0.160904D+00 -0.221186D-01  0.159219D-01
     13  0.116825D-01 -0.409973D-03  0.000000D+00 -0.511487D+00  0.352637D-01
     14  0.537677D-03  0.604073D-02  0.000000D+00  0.358530D-01 -0.322178D-01
     15  0.323800D-01 -0.236948D-02  0.000000D+00  0.129845D+00 -0.950171D-02
     16 -0.247651D-01  0.544772D-03  0.238959D-02  0.143650D-02 -0.164936D-02
     17 -0.102015D-02 -0.263666D-01  0.461773D-02  0.163419D-02  0.764890D-02
     18  0.233557D-02  0.593844D-02 -0.331891D-01 -0.465262D-02 -0.163451D-01
     19  0.180794D-02  0.147614D-02 -0.453372D-02  0.318851D-03 -0.908481D-04
     20  0.383162D-02  0.521631D-02 -0.143622D-01 -0.112323D-03  0.320035D-04
     21  0.832820D-03  0.939568D-03 -0.267948D-02  0.488947D-04 -0.139313D-04
     22 -0.199559D-02  0.219820D-03  0.794082D-03 -0.127520D-03  0.363336D-04
     23 -0.122703D-01  0.142902D-02  0.470636D-02  0.208098D-03 -0.592922D-04
     24 -0.582166D-02  0.639787D-03  0.231994D-02 -0.391076D-03  0.111427D-03
     25  0.297266D-02 -0.197237D-02  0.256230D-02 -0.322924D-03  0.920085D-04
     26  0.841435D-02 -0.569629D-02  0.751083D-02 -0.498306D-04  0.141979D-04
     27  0.417643D-02 -0.287292D-02  0.383178D-02  0.322941D-03 -0.920134D-04
     28  0.810392D-03 -0.285481D-03  0.124271D-03  0.000000D+00  0.000000D+00
     29 -0.280005D-03  0.986387D-04 -0.429378D-04  0.000000D+00  0.000000D+00
     30  0.124952D-03 -0.440174D-04  0.191610D-04  0.000000D+00  0.000000D+00
     31 -0.626500D-03  0.220700D-03 -0.960717D-04  0.000000D+00  0.000000D+00
     32 -0.574839D-03  0.202502D-03 -0.881497D-04  0.000000D+00  0.000000D+00
     33 -0.194983D-03  0.686876D-04 -0.299000D-04  0.000000D+00  0.000000D+00
     34 -0.175907D-03  0.619676D-04 -0.269747D-04  0.000000D+00  0.000000D+00
     35  0.851315D-03 -0.299897D-03  0.130546D-03  0.000000D+00  0.000000D+00
     36  0.711665D-04 -0.250702D-04  0.109131D-04  0.000000D+00  0.000000D+00
                6             7             8             9            10 
      6  0.642614D+00
      7  0.000000D+00  0.317290D+00
      8  0.000000D+00 -0.786175D-03  0.536031D-01
      9  0.000000D+00 -0.103364D+00 -0.184746D-02  0.118378D+00
     10  0.000000D+00 -0.783949D-02  0.158568D-01 -0.184223D-01  0.218256D+00
     11  0.000000D+00 -0.303391D-02  0.954295D-02 -0.712947D-02 -0.110945D+00
     12  0.000000D+00  0.890035D-02 -0.144260D-01  0.209152D-01  0.963938D-01
     13  0.162225D+00  0.000000D+00  0.516198D-03  0.000000D+00 -0.302225D-03
     14 -0.118712D-01  0.000000D+00  0.705405D-02  0.000000D+00 -0.413003D-02
     15 -0.107234D+00  0.000000D+00  0.000000D+00  0.000000D+00  0.000000D+00
     16  0.000000D+00 -0.243173D-02 -0.118768D-01 -0.571439D-02  0.338553D-02
     17  0.000000D+00  0.188971D-03  0.941234D-03  0.444069D-03 -0.192452D-02
     18  0.000000D+00  0.114725D-02  0.556169D-02  0.269596D-02  0.218553D-02
     19  0.000000D+00 -0.134123D-03  0.176645D-03 -0.315180D-03 -0.235295D-03
     20  0.000000D+00  0.472482D-04 -0.622277D-04  0.111030D-03  0.828886D-04
     21  0.000000D+00 -0.205673D-04  0.270880D-04 -0.483318D-04 -0.360817D-04
     22  0.000000D+00  0.536408D-04 -0.706470D-04  0.126052D-03  0.941034D-04
     23  0.000000D+00 -0.875355D-04  0.115288D-03 -0.205702D-03 -0.153566D-03
     24  0.000000D+00  0.164504D-03 -0.216658D-03  0.386573D-03  0.288594D-03
     25  0.000000D+00  0.135836D-03 -0.178901D-03  0.319205D-03  0.238301D-03
     26  0.000000D+00  0.209610D-04 -0.276064D-04  0.492569D-04  0.367724D-04
     27  0.000000D+00 -0.135843D-03  0.178911D-03 -0.319222D-03 -0.238313D-03
     28  0.000000D+00  0.000000D+00  0.000000D+00  0.000000D+00  0.000000D+00
     29  0.000000D+00  0.000000D+00  0.000000D+00  0.000000D+00  0.000000D+00
     30  0.000000D+00  0.000000D+00  0.000000D+00  0.000000D+00  0.000000D+00
     31  0.000000D+00  0.000000D+00  0.000000D+00  0.000000D+00  0.000000D+00
     32  0.000000D+00  0.000000D+00  0.000000D+00  0.000000D+00  0.000000D+00
     33  0.000000D+00  0.000000D+00  0.000000D+00  0.000000D+00  0.000000D+00
     34  0.000000D+00  0.000000D+00  0.000000D+00  0.000000D+00  0.000000D+00
     35  0.000000D+00  0.000000D+00  0.000000D+00  0.000000D+00  0.000000D+00
     36  0.000000D+00  0.000000D+00  0.000000D+00  0.000000D+00  0.000000D+00
               11            12            13            14            15 
     11  0.129074D+00
     12 -0.675876D-01  0.136769D+00
     13 -0.443750D-03  0.000000D+00  0.499916D+00
     14 -0.606403D-02  0.000000D+00 -0.348717D-01  0.259310D-01
     15  0.000000D+00  0.000000D+00 -0.162225D+00  0.118712D-01  0.107234D+00
     16  0.944779D-02  0.470067D-02  0.191073D-03  0.261109D-02  0.000000D+00
     17 -0.545565D-02 -0.276137D-02 -0.544412D-04 -0.743961D-03  0.000000D+00
     18  0.629253D-02  0.323770D-02  0.000000D+00  0.000000D+00  0.000000D+00
     19 -0.631562D-04  0.296435D-03  0.000000D+00  0.000000D+00  0.000000D+00
     20  0.222484D-04 -0.104426D-03  0.000000D+00  0.000000D+00  0.000000D+00
     21 -0.968479D-05  0.454573D-04  0.000000D+00  0.000000D+00  0.000000D+00
     22  0.252585D-04 -0.118555D-03  0.000000D+00  0.000000D+00  0.000000D+00
     23 -0.412190D-04  0.193468D-03  0.000000D+00  0.000000D+00  0.000000D+00
     24  0.774621D-04 -0.363582D-03  0.000000D+00  0.000000D+00  0.000000D+00
     25  0.639629D-04 -0.300221D-03  0.000000D+00  0.000000D+00  0.000000D+00
     26  0.987017D-05 -0.463274D-04  0.000000D+00  0.000000D+00  0.000000D+00
     27 -0.639663D-04  0.300237D-03  0.000000D+00  0.000000D+00  0.000000D+00
     28  0.000000D+00  0.000000D+00  0.000000D+00  0.000000D+00  0.000000D+00
     29  0.000000D+00  0.000000D+00  0.000000D+00  0.000000D+00  0.000000D+00
     30  0.000000D+00  0.000000D+00  0.000000D+00  0.000000D+00  0.000000D+00
     31  0.000000D+00  0.000000D+00  0.000000D+00  0.000000D+00  0.000000D+00
     32  0.000000D+00  0.000000D+00  0.000000D+00  0.000000D+00  0.000000D+00
     33  0.000000D+00  0.000000D+00  0.000000D+00  0.000000D+00  0.000000D+00
     34  0.000000D+00  0.000000D+00  0.000000D+00  0.000000D+00  0.000000D+00
     35  0.000000D+00  0.000000D+00  0.000000D+00  0.000000D+00  0.000000D+00
     36  0.000000D+00  0.000000D+00  0.000000D+00  0.000000D+00  0.000000D+00
               16            17            18            19            20 
     16  0.661176D+00
     17 -0.877653D-01  0.344676D+00
     18 -0.376236D-01 -0.129111D+00  0.665165D+00
     19 -0.125428D+00 -0.398588D-02  0.424297D-01  0.673527D+00
     20 -0.438072D-02 -0.113607D+00  0.299469D-01 -0.274542D-02  0.659287D+00
     21  0.411528D-01  0.271581D-01 -0.324456D+00 -0.375117D-02 -0.595493D-02
     22 -0.329690D+00  0.486613D-02  0.755741D-01  0.859725D-02  0.790029D-05
     23  0.668234D-05 -0.774588D-01  0.106019D-01 -0.258081D-02  0.750806D-02
     24  0.856214D-01  0.938206D-02 -0.128702D+00  0.261458D-01 -0.120288D-03
     25 -0.202321D+00  0.885326D-01 -0.849739D-01  0.151069D-01 -0.554690D-02
     26  0.935675D-01 -0.148340D+00  0.848884D-01 -0.103577D-02  0.816244D-02
     27 -0.940316D-01  0.882580D-01 -0.185692D+00 -0.181334D-01  0.136515D-01
     28  0.485493D-02  0.664447D-02  0.178325D-02 -0.893725D-01 -0.406293D-01
     29  0.289281D-02  0.121348D-01  0.207905D-02 -0.424279D-01 -0.251669D+00
     30 -0.649821D-02 -0.218571D-01 -0.399863D-02 -0.310144D-01 -0.122548D+00
     31  0.889979D-02 -0.751790D-02  0.819840D-03 -0.158013D+00  0.103612D+00
     32 -0.207147D-02  0.447896D-02  0.148495D-03  0.106294D+00 -0.222323D+00
     33 -0.161872D-01  0.187274D-01 -0.862820D-03 -0.654152D-01  0.870256D-01
     34  0.469141D-02  0.401848D-03  0.974855D-03 -0.326175D+00 -0.541666D-01
     35 -0.132697D-02  0.209236D-02 -0.146049D-05 -0.550167D-01 -0.925660D-01
     36  0.261906D-01  0.514194D-02  0.580267D-02  0.542911D-01  0.123543D-01
               21            22            23            24            25 
     21  0.686950D+00
     22  0.169589D-02  0.330050D+00
     23  0.424697D-03 -0.334571D-02  0.580648D-01
     24  0.513958D-02 -0.844621D-01 -0.439429D-02  0.101604D+00
     25  0.228861D-02 -0.698389D-02  0.181987D-01 -0.215487D-01  0.191186D+00
     26  0.810656D-03 -0.173854D-02  0.104529D-01 -0.547805D-02 -0.991945D-01
     27 -0.187760D-02  0.639039D-02 -0.113299D-01  0.196152D-01  0.101654D+00
     28 -0.269434D-01  0.125507D-03  0.248157D-02  0.333282D-03 -0.123526D-02
     29 -0.110757D+00 -0.433648D-04 -0.857426D-03 -0.115155D-03  0.426803D-03
     30 -0.152815D+00  0.193515D-04  0.382626D-03  0.513877D-04 -0.190461D-03
     31 -0.569962D-01 -0.970272D-04 -0.191846D-02 -0.257654D-03  0.954957D-03
     32  0.776829D-01 -0.890264D-04 -0.176026D-02 -0.236408D-03  0.876212D-03
     33 -0.124023D+00 -0.301973D-04 -0.597073D-03 -0.801886D-04  0.297207D-03
     34  0.417284D-01 -0.272430D-04 -0.538659D-03 -0.723434D-04  0.268130D-03
     35  0.969292D-02  0.131845D-03  0.260688D-02  0.350112D-03 -0.129764D-02
     36 -0.862341D-01  0.110217D-04  0.217925D-03  0.292679D-04 -0.108477D-03
               26            27            28            29            30 
     26  0.135415D+00
     27 -0.877318D-01  0.164142D+00
     28 -0.213112D-02 -0.508493D-03  0.726773D-01
     29  0.736340D-03  0.175693D-03  0.469407D-01  0.251040D+00
     30 -0.328591D-03 -0.784029D-04  0.304311D-01  0.121060D+00  0.135106D+00
     31  0.164753D-02  0.393107D-03  0.936143D-02 -0.737155D-02  0.800318D-02
     32  0.151168D-02  0.360692D-03  0.155044D-01 -0.124979D-01  0.137134D-01
     33  0.512754D-03  0.122345D-03  0.157182D-01 -0.129125D-01  0.142866D-01
     34  0.462589D-03  0.110375D-03  0.277817D-02 -0.137586D-03 -0.875541D-03
     35 -0.223874D-02 -0.534170D-03 -0.285253D-01  0.101428D-02  0.962150D-02
     36 -0.187149D-03 -0.446545D-04 -0.209383D-01  0.513464D-03  0.742874D-02
               31            32            33            34            35 
     31  0.147864D+00
     32 -0.115293D+00  0.215447D+00
     33  0.628364D-01 -0.835467D-01  0.105060D+00
     34 -0.834360D-02 -0.464630D-02  0.297571D-02  0.326985D+00
     35  0.266207D-01  0.149409D-01 -0.927816D-02  0.585627D-01  0.744502D-01
     36 -0.147026D-01 -0.803414D-02  0.552745D-02 -0.448145D-01 -0.998128D-02
               36 
     36  0.674797D-01
 FCInt: Cartesian first derivatives: 
                 1             2             3             4             5 
      1   0.000000D+00  0.000000D+00  0.000000D+00  0.000000D+00  0.000000D+00
      2   0.000000D+00  0.000000D+00  0.000000D+00  0.000000D+00  0.000000D+00
      3   0.000000D+00  0.000000D+00  0.000000D+00  0.000000D+00  0.000000D+00
                 6             7             8             9            10 
      1   0.000000D+00  0.000000D+00  0.000000D+00  0.000000D+00  0.000000D+00
      2   0.000000D+00  0.000000D+00  0.000000D+00  0.000000D+00  0.000000D+00
      3   0.000000D+00  0.000000D+00  0.000000D+00  0.000000D+00  0.000000D+00
                11            12 
      1   0.000000D+00  0.000000D+00
      2   0.000000D+00  0.000000D+00
      3   0.000000D+00  0.000000D+00
 FCInt: Cartesian force constants: 
                1             2             3             4             5 
      1  0.661707D+00
      2 -0.108283D+00  0.306382D+00
      3 -0.127024D-01 -0.813147D-01  0.868010D+00
      4 -0.107041D+00  0.493341D-02 -0.164780D-02  0.593517D+00
      5  0.367703D-02 -0.756314D-01 -0.300656D-03 -0.386629D-01  0.870932D-01
      6 -0.323800D-01  0.236948D-02 -0.535380D+00 -0.129845D+00  0.950171D-02
      7 -0.319176D+00  0.334473D-02  0.933080D-01  0.121018D-01  0.305703D-03
      8 -0.386074D-02 -0.676132D-01  0.107224D-01  0.223684D-03 -0.355358D-02
      9  0.989320D-01  0.785990D-02 -0.142008D+00  0.284383D-01  0.718381D-03
     10 -0.225201D+00  0.100149D+00 -0.801713D-01  0.116043D-01  0.102830D-02
     11  0.108977D+00 -0.143762D+00  0.684208D-01 -0.402736D-02  0.166738D-01
     12 -0.877539D-01  0.688103D-01 -0.160904D+00 -0.221186D-01  0.159219D-01
     13  0.116825D-01 -0.409973D-03  0.000000D+00 -0.511487D+00  0.352637D-01
     14  0.537677D-03  0.604073D-02  0.000000D+00  0.358530D-01 -0.322178D-01
     15  0.323800D-01 -0.236948D-02  0.000000D+00  0.129845D+00 -0.950171D-02
     16 -0.247651D-01  0.544772D-03  0.238959D-02  0.143650D-02 -0.164936D-02
     17 -0.102015D-02 -0.263666D-01  0.461773D-02  0.163419D-02  0.764890D-02
     18  0.233557D-02  0.593844D-02 -0.331891D-01 -0.465262D-02 -0.163451D-01
     19  0.180794D-02  0.147614D-02 -0.453372D-02  0.318851D-03 -0.908481D-04
     20  0.383162D-02  0.521631D-02 -0.143622D-01 -0.112323D-03  0.320035D-04
     21  0.832820D-03  0.939568D-03 -0.267948D-02  0.488947D-04 -0.139313D-04
     22 -0.199559D-02  0.219820D-03  0.794082D-03 -0.127520D-03  0.363336D-04
     23 -0.122703D-01  0.142902D-02  0.470636D-02  0.208098D-03 -0.592922D-04
     24 -0.582166D-02  0.639787D-03  0.231994D-02 -0.391076D-03  0.111427D-03
     25  0.297266D-02 -0.197237D-02  0.256230D-02 -0.322924D-03  0.920085D-04
     26  0.841435D-02 -0.569629D-02  0.751083D-02 -0.498306D-04  0.141979D-04
     27  0.417643D-02 -0.287292D-02  0.383178D-02  0.322941D-03 -0.920134D-04
     28  0.810392D-03 -0.285481D-03  0.124271D-03  0.000000D+00  0.000000D+00
     29 -0.280005D-03  0.986387D-04 -0.429378D-04  0.000000D+00  0.000000D+00
     30  0.124952D-03 -0.440174D-04  0.191610D-04  0.000000D+00  0.000000D+00
     31 -0.626500D-03  0.220700D-03 -0.960717D-04  0.000000D+00  0.000000D+00
     32 -0.574839D-03  0.202502D-03 -0.881497D-04  0.000000D+00  0.000000D+00
     33 -0.194983D-03  0.686876D-04 -0.299000D-04  0.000000D+00  0.000000D+00
     34 -0.175907D-03  0.619676D-04 -0.269747D-04  0.000000D+00  0.000000D+00
     35  0.851315D-03 -0.299897D-03  0.130546D-03  0.000000D+00  0.000000D+00
     36  0.711665D-04 -0.250702D-04  0.109131D-04  0.000000D+00  0.000000D+00
                6             7             8             9            10 
      6  0.642614D+00
      7  0.000000D+00  0.317290D+00
      8  0.000000D+00 -0.786175D-03  0.536031D-01
      9  0.000000D+00 -0.103364D+00 -0.184746D-02  0.118378D+00
     10  0.000000D+00 -0.783949D-02  0.158568D-01 -0.184223D-01  0.218256D+00
     11  0.000000D+00 -0.303391D-02  0.954295D-02 -0.712947D-02 -0.110945D+00
     12  0.000000D+00  0.890035D-02 -0.144260D-01  0.209152D-01  0.963938D-01
     13  0.162225D+00  0.000000D+00  0.516198D-03  0.000000D+00 -0.302225D-03
     14 -0.118712D-01  0.000000D+00  0.705405D-02  0.000000D+00 -0.413003D-02
     15 -0.107234D+00  0.000000D+00  0.000000D+00  0.000000D+00  0.000000D+00
     16  0.000000D+00 -0.243173D-02 -0.118768D-01 -0.571439D-02  0.338553D-02
     17  0.000000D+00  0.188971D-03  0.941234D-03  0.444069D-03 -0.192452D-02
     18  0.000000D+00  0.114725D-02  0.556169D-02  0.269596D-02  0.218553D-02
     19  0.000000D+00 -0.134123D-03  0.176645D-03 -0.315180D-03 -0.235295D-03
     20  0.000000D+00  0.472482D-04 -0.622277D-04  0.111030D-03  0.828886D-04
     21  0.000000D+00 -0.205673D-04  0.270880D-04 -0.483318D-04 -0.360817D-04
     22  0.000000D+00  0.536408D-04 -0.706470D-04  0.126052D-03  0.941034D-04
     23  0.000000D+00 -0.875355D-04  0.115288D-03 -0.205702D-03 -0.153566D-03
     24  0.000000D+00  0.164504D-03 -0.216658D-03  0.386573D-03  0.288594D-03
     25  0.000000D+00  0.135836D-03 -0.178901D-03  0.319205D-03  0.238301D-03
     26  0.000000D+00  0.209610D-04 -0.276064D-04  0.492569D-04  0.367724D-04
     27  0.000000D+00 -0.135843D-03  0.178911D-03 -0.319222D-03 -0.238313D-03
     28  0.000000D+00  0.000000D+00  0.000000D+00  0.000000D+00  0.000000D+00
     29  0.000000D+00  0.000000D+00  0.000000D+00  0.000000D+00  0.000000D+00
     30  0.000000D+00  0.000000D+00  0.000000D+00  0.000000D+00  0.000000D+00
     31  0.000000D+00  0.000000D+00  0.000000D+00  0.000000D+00  0.000000D+00
     32  0.000000D+00  0.000000D+00  0.000000D+00  0.000000D+00  0.000000D+00
     33  0.000000D+00  0.000000D+00  0.000000D+00  0.000000D+00  0.000000D+00
     34  0.000000D+00  0.000000D+00  0.000000D+00  0.000000D+00  0.000000D+00
     35  0.000000D+00  0.000000D+00  0.000000D+00  0.000000D+00  0.000000D+00
     36  0.000000D+00  0.000000D+00  0.000000D+00  0.000000D+00  0.000000D+00
               11            12            13            14            15 
     11  0.129074D+00
     12 -0.675876D-01  0.136769D+00
     13 -0.443750D-03  0.000000D+00  0.499916D+00
     14 -0.606403D-02  0.000000D+00 -0.348717D-01  0.259310D-01
     15  0.000000D+00  0.000000D+00 -0.162225D+00  0.118712D-01  0.107234D+00
     16  0.944779D-02  0.470067D-02  0.191073D-03  0.261109D-02  0.000000D+00
     17 -0.545565D-02 -0.276137D-02 -0.544412D-04 -0.743961D-03  0.000000D+00
     18  0.629253D-02  0.323770D-02  0.000000D+00  0.000000D+00  0.000000D+00
     19 -0.631562D-04  0.296435D-03  0.000000D+00  0.000000D+00  0.000000D+00
     20  0.222484D-04 -0.104426D-03  0.000000D+00  0.000000D+00  0.000000D+00
     21 -0.968479D-05  0.454573D-04  0.000000D+00  0.000000D+00  0.000000D+00
     22  0.252585D-04 -0.118555D-03  0.000000D+00  0.000000D+00  0.000000D+00
     23 -0.412190D-04  0.193468D-03  0.000000D+00  0.000000D+00  0.000000D+00
     24  0.774621D-04 -0.363582D-03  0.000000D+00  0.000000D+00  0.000000D+00
     25  0.639629D-04 -0.300221D-03  0.000000D+00  0.000000D+00  0.000000D+00
     26  0.987017D-05 -0.463274D-04  0.000000D+00  0.000000D+00  0.000000D+00
     27 -0.639663D-04  0.300237D-03  0.000000D+00  0.000000D+00  0.000000D+00
     28  0.000000D+00  0.000000D+00  0.000000D+00  0.000000D+00  0.000000D+00
     29  0.000000D+00  0.000000D+00  0.000000D+00  0.000000D+00  0.000000D+00
     30  0.000000D+00  0.000000D+00  0.000000D+00  0.000000D+00  0.000000D+00
     31  0.000000D+00  0.000000D+00  0.000000D+00  0.000000D+00  0.000000D+00
     32  0.000000D+00  0.000000D+00  0.000000D+00  0.000000D+00  0.000000D+00
     33  0.000000D+00  0.000000D+00  0.000000D+00  0.000000D+00  0.000000D+00
     34  0.000000D+00  0.000000D+00  0.000000D+00  0.000000D+00  0.000000D+00
     35  0.000000D+00  0.000000D+00  0.000000D+00  0.000000D+00  0.000000D+00
     36  0.000000D+00  0.000000D+00  0.000000D+00  0.000000D+00  0.000000D+00
               16            17            18            19            20 
     16  0.661176D+00
     17 -0.877653D-01  0.344676D+00
     18 -0.376236D-01 -0.129111D+00  0.665165D+00
     19 -0.125428D+00 -0.398588D-02  0.424297D-01  0.673527D+00
     20 -0.438072D-02 -0.113607D+00  0.299469D-01 -0.274542D-02  0.659287D+00
     21  0.411528D-01  0.271581D-01 -0.324456D+00 -0.375117D-02 -0.595493D-02
     22 -0.329690D+00  0.486613D-02  0.755741D-01  0.859725D-02  0.790029D-05
     23  0.668234D-05 -0.774588D-01  0.106019D-01 -0.258081D-02  0.750806D-02
     24  0.856214D-01  0.938206D-02 -0.128702D+00  0.261458D-01 -0.120288D-03
     25 -0.202321D+00  0.885326D-01 -0.849739D-01  0.151069D-01 -0.554690D-02
     26  0.935675D-01 -0.148340D+00  0.848884D-01 -0.103577D-02  0.816244D-02
     27 -0.940316D-01  0.882580D-01 -0.185692D+00 -0.181334D-01  0.136515D-01
     28  0.485493D-02  0.664447D-02  0.178325D-02 -0.893725D-01 -0.406293D-01
     29  0.289281D-02  0.121348D-01  0.207905D-02 -0.424279D-01 -0.251669D+00
     30 -0.649821D-02 -0.218571D-01 -0.399863D-02 -0.310144D-01 -0.122548D+00
     31  0.889979D-02 -0.751790D-02  0.819840D-03 -0.158013D+00  0.103612D+00
     32 -0.207147D-02  0.447896D-02  0.148495D-03  0.106294D+00 -0.222323D+00
     33 -0.161872D-01  0.187274D-01 -0.862820D-03 -0.654152D-01  0.870256D-01
     34  0.469141D-02  0.401848D-03  0.974855D-03 -0.326175D+00 -0.541666D-01
     35 -0.132697D-02  0.209236D-02 -0.146049D-05 -0.550167D-01 -0.925660D-01
     36  0.261906D-01  0.514194D-02  0.580267D-02  0.542911D-01  0.123543D-01
               21            22            23            24            25 
     21  0.686950D+00
     22  0.169589D-02  0.330050D+00
     23  0.424697D-03 -0.334571D-02  0.580648D-01
     24  0.513958D-02 -0.844621D-01 -0.439429D-02  0.101604D+00
     25  0.228861D-02 -0.698389D-02  0.181987D-01 -0.215487D-01  0.191186D+00
     26  0.810656D-03 -0.173854D-02  0.104529D-01 -0.547805D-02 -0.991945D-01
     27 -0.187760D-02  0.639039D-02 -0.113299D-01  0.196152D-01  0.101654D+00
     28 -0.269434D-01  0.125507D-03  0.248157D-02  0.333282D-03 -0.123526D-02
     29 -0.110757D+00 -0.433648D-04 -0.857426D-03 -0.115155D-03  0.426803D-03
     30 -0.152815D+00  0.193515D-04  0.382626D-03  0.513877D-04 -0.190461D-03
     31 -0.569962D-01 -0.970272D-04 -0.191846D-02 -0.257654D-03  0.954957D-03
     32  0.776829D-01 -0.890264D-04 -0.176026D-02 -0.236408D-03  0.876212D-03
     33 -0.124023D+00 -0.301973D-04 -0.597073D-03 -0.801886D-04  0.297207D-03
     34  0.417284D-01 -0.272430D-04 -0.538659D-03 -0.723434D-04  0.268130D-03
     35  0.969292D-02  0.131845D-03  0.260688D-02  0.350112D-03 -0.129764D-02
     36 -0.862341D-01  0.110217D-04  0.217925D-03  0.292679D-04 -0.108477D-03
               26            27            28            29            30 
     26  0.135415D+00
     27 -0.877318D-01  0.164142D+00
     28 -0.213112D-02 -0.508493D-03  0.726773D-01
     29  0.736340D-03  0.175693D-03  0.469407D-01  0.251040D+00
     30 -0.328591D-03 -0.784029D-04  0.304311D-01  0.121060D+00  0.135106D+00
     31  0.164753D-02  0.393107D-03  0.936143D-02 -0.737155D-02  0.800318D-02
     32  0.151168D-02  0.360692D-03  0.155044D-01 -0.124979D-01  0.137134D-01
     33  0.512754D-03  0.122345D-03  0.157182D-01 -0.129125D-01  0.142866D-01
     34  0.462589D-03  0.110375D-03  0.277817D-02 -0.137586D-03 -0.875541D-03
     35 -0.223874D-02 -0.534170D-03 -0.285253D-01  0.101428D-02  0.962150D-02
     36 -0.187149D-03 -0.446545D-04 -0.209383D-01  0.513464D-03  0.742874D-02
               31            32            33            34            35 
     31  0.147864D+00
     32 -0.115293D+00  0.215447D+00
     33  0.628364D-01 -0.835467D-01  0.105060D+00
     34 -0.834360D-02 -0.464630D-02  0.297571D-02  0.326985D+00
     35  0.266207D-01  0.149409D-01 -0.927816D-02  0.585627D-01  0.744502D-01
     36 -0.147026D-01 -0.803414D-02  0.552745D-02 -0.448145D-01 -0.998128D-02
               36 
     36  0.674797D-01
 Internal force constants: 
                1             2             3             4             5 
      1  0.535380D+00
      2  0.000000D+00  0.361276D+00
      3  0.000000D+00  0.000000D+00  0.356343D+00
      4  0.000000D+00  0.000000D+00  0.000000D+00  0.560800D+00
      5  0.000000D+00  0.000000D+00  0.000000D+00  0.000000D+00  0.233007D-01
      6  0.000000D+00  0.000000D+00  0.000000D+00  0.000000D+00  0.000000D+00
      7  0.000000D+00  0.000000D+00  0.000000D+00  0.000000D+00  0.000000D+00
      8  0.000000D+00  0.000000D+00  0.000000D+00  0.000000D+00  0.000000D+00
      9  0.000000D+00  0.000000D+00  0.000000D+00  0.000000D+00  0.000000D+00
     10  0.000000D+00  0.000000D+00  0.000000D+00  0.000000D+00  0.000000D+00
     11  0.000000D+00  0.000000D+00  0.000000D+00  0.000000D+00  0.000000D+00
     12  0.000000D+00  0.000000D+00  0.000000D+00  0.000000D+00  0.000000D+00
     13  0.000000D+00  0.000000D+00  0.000000D+00  0.000000D+00  0.000000D+00
     14  0.000000D+00  0.000000D+00  0.000000D+00  0.000000D+00  0.000000D+00
     15  0.000000D+00  0.000000D+00  0.000000D+00  0.000000D+00  0.000000D+00
     16  0.000000D+00  0.000000D+00  0.000000D+00  0.000000D+00  0.000000D+00
     17  0.000000D+00  0.000000D+00  0.000000D+00  0.000000D+00  0.000000D+00
     18  0.000000D+00  0.000000D+00  0.000000D+00  0.000000D+00  0.000000D+00
     19  0.000000D+00  0.000000D+00  0.000000D+00  0.000000D+00  0.000000D+00
     20  0.000000D+00  0.000000D+00  0.000000D+00  0.000000D+00  0.000000D+00
     21  0.000000D+00  0.000000D+00  0.000000D+00  0.000000D+00  0.000000D+00
     22  0.000000D+00  0.000000D+00  0.000000D+00  0.000000D+00  0.000000D+00
     23  0.000000D+00  0.000000D+00  0.000000D+00  0.000000D+00  0.000000D+00
     24  0.000000D+00  0.000000D+00  0.000000D+00  0.000000D+00  0.000000D+00
     25  0.000000D+00  0.000000D+00  0.000000D+00  0.000000D+00  0.000000D+00
     26  0.000000D+00  0.000000D+00  0.000000D+00  0.000000D+00  0.000000D+00
     27  0.000000D+00  0.000000D+00  0.000000D+00  0.000000D+00  0.000000D+00
     28  0.000000D+00  0.000000D+00  0.000000D+00  0.000000D+00  0.000000D+00
     29  0.000000D+00  0.000000D+00  0.000000D+00  0.000000D+00  0.000000D+00
     30  0.000000D+00  0.000000D+00  0.000000D+00  0.000000D+00  0.000000D+00
                6             7             8             9            10 
      6  0.336586D+00
      7  0.000000D+00  0.357897D+00
      8  0.000000D+00  0.000000D+00  0.358738D+00
      9  0.000000D+00  0.000000D+00  0.000000D+00  0.339043D+00
     10  0.000000D+00  0.000000D+00  0.000000D+00  0.000000D+00  0.346973D+00
     11  0.000000D+00  0.000000D+00  0.000000D+00  0.000000D+00  0.000000D+00
     12  0.000000D+00  0.000000D+00  0.000000D+00  0.000000D+00  0.000000D+00
     13  0.000000D+00  0.000000D+00  0.000000D+00  0.000000D+00  0.000000D+00
     14  0.000000D+00  0.000000D+00  0.000000D+00  0.000000D+00  0.000000D+00
     15  0.000000D+00  0.000000D+00  0.000000D+00  0.000000D+00  0.000000D+00
     16  0.000000D+00  0.000000D+00  0.000000D+00  0.000000D+00  0.000000D+00
     17  0.000000D+00  0.000000D+00  0.000000D+00  0.000000D+00  0.000000D+00
     18  0.000000D+00  0.000000D+00  0.000000D+00  0.000000D+00  0.000000D+00
     19  0.000000D+00  0.000000D+00  0.000000D+00  0.000000D+00  0.000000D+00
     20  0.000000D+00  0.000000D+00  0.000000D+00  0.000000D+00  0.000000D+00
     21  0.000000D+00  0.000000D+00  0.000000D+00  0.000000D+00  0.000000D+00
     22  0.000000D+00  0.000000D+00  0.000000D+00  0.000000D+00  0.000000D+00
     23  0.000000D+00  0.000000D+00  0.000000D+00  0.000000D+00  0.000000D+00
     24  0.000000D+00  0.000000D+00  0.000000D+00  0.000000D+00  0.000000D+00
     25  0.000000D+00  0.000000D+00  0.000000D+00  0.000000D+00  0.000000D+00
     26  0.000000D+00  0.000000D+00  0.000000D+00  0.000000D+00  0.000000D+00
     27  0.000000D+00  0.000000D+00  0.000000D+00  0.000000D+00  0.000000D+00
     28  0.000000D+00  0.000000D+00  0.000000D+00  0.000000D+00  0.000000D+00
     29  0.000000D+00  0.000000D+00  0.000000D+00  0.000000D+00  0.000000D+00
     30  0.000000D+00  0.000000D+00  0.000000D+00  0.000000D+00  0.000000D+00
               11            12            13            14            15 
     11  0.347434D+00
     12  0.000000D+00  0.309234D+00
     13  0.000000D+00  0.107615D+00  0.308519D+00
     14  0.000000D+00  0.000000D+00  0.000000D+00  0.160000D+00
     15  0.000000D+00  0.345884D-01  0.429120D-01  0.000000D+00  0.332125D+00
     16  0.000000D+00 -0.782820D-04  0.771612D-04  0.000000D+00  0.457769D-04
     17  0.000000D+00 -0.195520D-02  0.192721D-02  0.000000D+00 -0.201253D-04
     18  0.000000D+00  0.196400D-02 -0.193588D-02  0.000000D+00 -0.214872D-04
     19  0.000000D+00  0.000000D+00  0.000000D+00  0.000000D+00  0.252091D-04
     20  0.000000D+00  0.000000D+00  0.000000D+00  0.000000D+00  0.853020D-05
     21  0.000000D+00  0.000000D+00  0.000000D+00  0.000000D+00  0.884623D-05
     22  0.000000D+00  0.649954D-01  0.670455D-02  0.000000D+00 -0.667608D-01
     23  0.000000D+00  0.000000D+00  0.000000D+00  0.000000D+00  0.000000D+00
     24  0.000000D+00 -0.570493D-01  0.561664D-01  0.000000D+00  0.688315D-02
     25  0.000000D+00  0.615221D-02 -0.606413D-02  0.000000D+00  0.738315D-04
     26  0.000000D+00 -0.110590D-02  0.109007D-02  0.000000D+00  0.215967D-04
     27  0.000000D+00 -0.528449D-03  0.520883D-03  0.000000D+00 -0.644130D-03
     28  0.000000D+00  0.000000D+00  0.000000D+00  0.000000D+00  0.000000D+00
     29  0.000000D+00  0.000000D+00  0.000000D+00  0.000000D+00  0.305648D-04
     30  0.000000D+00  0.000000D+00  0.000000D+00  0.000000D+00 -0.311831D-04
               16            17            18            19            20 
     16  0.338041D+00
     17  0.279847D-01  0.313040D+00
     18  0.251989D-01  0.129962D+00  0.310433D+00
     19 -0.256470D-04  0.000000D+00  0.000000D+00  0.252415D+00
     20 -0.923580D-05  0.000000D+00  0.000000D+00  0.464143D-01  0.254569D+00
     21 -0.831360D-05  0.000000D+00  0.000000D+00  0.464194D-01  0.486914D-01
     22  0.373336D-04  0.932461D-03 -0.936655D-03  0.000000D+00  0.000000D+00
     23  0.000000D+00  0.000000D+00  0.000000D+00  0.000000D+00  0.000000D+00
     24 -0.729991D-04 -0.170607D-02  0.175841D-02 -0.394804D-05  0.121062D-05
     25 -0.261656D-03 -0.658041D-02  0.662671D-02  0.119078D-05  0.154398D-04
     26 -0.582463D-03 -0.403669D-01  0.374221D-01  0.000000D+00  0.000000D+00
     27  0.697361D-01 -0.505989D-01 -0.130971D-01  0.000000D+00  0.000000D+00
     28  0.000000D+00  0.000000D+00  0.000000D+00  0.000000D+00  0.000000D+00
     29 -0.323544D-04  0.000000D+00  0.000000D+00 -0.665789D-01  0.848843D-03
     30  0.307090D-04  0.000000D+00  0.000000D+00  0.665537D-01 -0.673648D-01
               21            22            23            24            25 
     21  0.254745D+00
     22  0.000000D+00  0.175997D+00
     23  0.000000D+00  0.225927D-01  0.677780D-01
     24 -0.280485D-05 -0.973367D-01  0.225927D-01  0.228857D+00
     25 -0.136860D-04 -0.293406D-02  0.000000D+00  0.584479D-02  0.207020D-01
     26  0.000000D+00  0.527419D-03  0.000000D+00 -0.894880D-03 -0.373306D-02
     27  0.000000D+00  0.252024D-03  0.000000D+00 -0.277571D-03 -0.176178D-02
     28  0.000000D+00  0.000000D+00  0.000000D+00  0.000000D+00  0.000000D+00
     29  0.674478D-01  0.000000D+00  0.000000D+00 -0.222568D-05  0.272019D-04
     30 -0.869199D-03  0.000000D+00  0.000000D+00  0.957585D-05  0.260626D-04
               26            27            28            29            30 
     26  0.249498D+00
     27  0.111436D+00  0.182601D+00
     28 -0.277009D-01  0.277008D-01  0.831025D-01
     29 -0.923093D-02  0.923362D-02  0.276982D-01  0.225733D+00
     30 -0.923412D-02  0.923362D-02  0.277014D-01 -0.981706D-01  0.225787D+00
 Frcnst in PutFF: 
                1             2             3             4             5 
      1  0.535380D+00
      2  0.000000D+00  0.361276D+00
      3  0.000000D+00  0.000000D+00  0.356343D+00
      4  0.000000D+00  0.000000D+00  0.000000D+00  0.560800D+00
      5  0.000000D+00  0.000000D+00  0.000000D+00  0.000000D+00  0.309234D+00
      6  0.000000D+00  0.000000D+00  0.000000D+00  0.000000D+00  0.107615D+00
      7  0.000000D+00  0.000000D+00  0.000000D+00  0.000000D+00  0.000000D+00
      8  0.000000D+00  0.000000D+00  0.000000D+00  0.000000D+00  0.649954D-01
      9  0.000000D+00  0.000000D+00  0.000000D+00  0.000000D+00  0.000000D+00
     10  0.000000D+00  0.000000D+00  0.000000D+00  0.000000D+00  0.000000D+00
     11  0.000000D+00  0.000000D+00  0.000000D+00  0.000000D+00  0.000000D+00
     12  0.000000D+00  0.000000D+00  0.000000D+00  0.000000D+00  0.000000D+00
     13  0.000000D+00  0.000000D+00  0.000000D+00  0.000000D+00  0.000000D+00
     14  0.000000D+00  0.000000D+00  0.000000D+00  0.000000D+00  0.000000D+00
     15  0.000000D+00  0.000000D+00  0.000000D+00  0.000000D+00 -0.195520D-02
     16  0.000000D+00  0.000000D+00  0.000000D+00  0.000000D+00  0.196400D-02
     17  0.000000D+00  0.000000D+00  0.000000D+00  0.000000D+00  0.000000D+00
     18  0.000000D+00  0.000000D+00  0.000000D+00  0.000000D+00  0.000000D+00
     19  0.000000D+00  0.000000D+00  0.000000D+00  0.000000D+00  0.000000D+00
     20  0.000000D+00  0.000000D+00  0.000000D+00  0.000000D+00 -0.528449D-03
     21  0.000000D+00  0.000000D+00  0.000000D+00  0.000000D+00  0.000000D+00
     22  0.000000D+00  0.000000D+00  0.000000D+00  0.000000D+00  0.000000D+00
     23  0.000000D+00  0.000000D+00  0.000000D+00  0.000000D+00 -0.782820D-04
     24  0.000000D+00  0.000000D+00  0.000000D+00  0.000000D+00  0.615221D-02
     25  0.000000D+00  0.000000D+00  0.000000D+00  0.000000D+00 -0.110590D-02
     26  0.000000D+00  0.000000D+00  0.000000D+00  0.000000D+00  0.000000D+00
     27  0.000000D+00  0.000000D+00  0.000000D+00  0.000000D+00  0.000000D+00
     28  0.000000D+00  0.000000D+00  0.000000D+00  0.000000D+00 -0.570493D-01
     29  0.000000D+00  0.000000D+00  0.000000D+00  0.000000D+00  0.345884D-01
     30  0.000000D+00  0.000000D+00  0.000000D+00  0.000000D+00  0.000000D+00
                6             7             8             9            10 
      6  0.308519D+00
      7  0.000000D+00  0.160000D+00
      8  0.670455D-02  0.000000D+00  0.175997D+00
      9  0.000000D+00  0.000000D+00  0.000000D+00  0.336586D+00
     10  0.000000D+00  0.000000D+00  0.000000D+00  0.000000D+00  0.357897D+00
     11  0.000000D+00  0.000000D+00  0.000000D+00  0.000000D+00  0.000000D+00
     12  0.000000D+00  0.000000D+00  0.000000D+00  0.000000D+00  0.000000D+00
     13  0.000000D+00  0.000000D+00  0.000000D+00  0.000000D+00  0.000000D+00
     14  0.000000D+00  0.000000D+00  0.000000D+00  0.000000D+00  0.000000D+00
     15  0.192721D-02  0.000000D+00  0.932461D-03  0.000000D+00  0.000000D+00
     16 -0.193588D-02  0.000000D+00 -0.936655D-03  0.000000D+00  0.000000D+00
     17  0.000000D+00  0.000000D+00  0.000000D+00  0.000000D+00  0.000000D+00
     18  0.000000D+00  0.000000D+00  0.000000D+00  0.000000D+00  0.000000D+00
     19  0.000000D+00  0.000000D+00  0.000000D+00  0.000000D+00  0.000000D+00
     20  0.520883D-03  0.000000D+00  0.252024D-03  0.000000D+00  0.000000D+00
     21  0.000000D+00  0.000000D+00  0.000000D+00  0.000000D+00  0.000000D+00
     22  0.000000D+00  0.000000D+00  0.000000D+00  0.000000D+00  0.000000D+00
     23  0.771612D-04  0.000000D+00  0.373336D-04  0.000000D+00  0.000000D+00
     24 -0.606413D-02  0.000000D+00 -0.293406D-02  0.000000D+00  0.000000D+00
     25  0.109007D-02  0.000000D+00  0.527419D-03  0.000000D+00  0.000000D+00
     26  0.000000D+00  0.000000D+00  0.225927D-01  0.000000D+00  0.000000D+00
     27  0.000000D+00  0.000000D+00  0.000000D+00  0.000000D+00  0.000000D+00
     28  0.561664D-01  0.000000D+00 -0.973367D-01  0.000000D+00  0.000000D+00
     29  0.429120D-01  0.000000D+00 -0.667608D-01  0.000000D+00  0.000000D+00
     30  0.000000D+00  0.000000D+00  0.000000D+00  0.000000D+00  0.000000D+00
               11            12            13            14            15 
     11  0.358738D+00
     12  0.000000D+00  0.339043D+00
     13  0.000000D+00  0.000000D+00  0.346973D+00
     14  0.000000D+00  0.000000D+00  0.000000D+00  0.347434D+00
     15  0.000000D+00  0.000000D+00  0.000000D+00  0.000000D+00  0.313040D+00
     16  0.000000D+00  0.000000D+00  0.000000D+00  0.000000D+00  0.129962D+00
     17  0.000000D+00  0.000000D+00  0.000000D+00  0.000000D+00  0.000000D+00
     18  0.000000D+00  0.000000D+00  0.000000D+00  0.000000D+00  0.000000D+00
     19  0.000000D+00  0.000000D+00  0.000000D+00  0.000000D+00  0.000000D+00
     20  0.000000D+00  0.000000D+00  0.000000D+00  0.000000D+00 -0.505989D-01
     21  0.000000D+00  0.000000D+00  0.000000D+00  0.000000D+00  0.000000D+00
     22  0.000000D+00  0.000000D+00  0.000000D+00  0.000000D+00  0.000000D+00
     23  0.000000D+00  0.000000D+00  0.000000D+00  0.000000D+00  0.279847D-01
     24  0.000000D+00  0.000000D+00  0.000000D+00  0.000000D+00 -0.658041D-02
     25  0.000000D+00  0.000000D+00  0.000000D+00  0.000000D+00 -0.403669D-01
     26  0.000000D+00  0.000000D+00  0.000000D+00  0.000000D+00  0.000000D+00
     27  0.000000D+00  0.000000D+00  0.000000D+00  0.000000D+00  0.000000D+00
     28  0.000000D+00  0.000000D+00  0.000000D+00  0.000000D+00 -0.170607D-02
     29  0.000000D+00  0.000000D+00  0.000000D+00  0.000000D+00 -0.201253D-04
     30  0.000000D+00  0.000000D+00  0.000000D+00  0.000000D+00  0.000000D+00
               16            17            18            19            20 
     16  0.310433D+00
     17  0.000000D+00  0.252415D+00
     18  0.000000D+00  0.464143D-01  0.254569D+00
     19  0.000000D+00  0.464194D-01  0.486914D-01  0.254745D+00
     20 -0.130971D-01  0.000000D+00  0.000000D+00  0.000000D+00  0.182601D+00
     21  0.000000D+00 -0.665789D-01  0.848843D-03  0.674478D-01  0.923362D-02
     22  0.000000D+00  0.665537D-01 -0.673648D-01 -0.869199D-03  0.923362D-02
     23  0.251989D-01 -0.256470D-04 -0.923580D-05 -0.831360D-05  0.697361D-01
     24  0.662671D-02  0.119078D-05  0.154398D-04 -0.136860D-04 -0.176178D-02
     25  0.374221D-01  0.000000D+00  0.000000D+00  0.000000D+00  0.111436D+00
     26  0.000000D+00  0.000000D+00  0.000000D+00  0.000000D+00  0.000000D+00
     27  0.000000D+00  0.000000D+00  0.000000D+00  0.000000D+00  0.277008D-01
     28  0.175841D-02 -0.394804D-05  0.121062D-05 -0.280485D-05 -0.277571D-03
     29 -0.214872D-04  0.252091D-04  0.853020D-05  0.884623D-05 -0.644130D-03
     30  0.000000D+00  0.000000D+00  0.000000D+00  0.000000D+00  0.000000D+00
               21            22            23            24            25 
     21  0.225733D+00
     22 -0.981706D-01  0.225787D+00
     23 -0.323544D-04  0.307090D-04  0.338041D+00
     24  0.272019D-04  0.260626D-04 -0.261656D-03  0.207020D-01
     25 -0.923093D-02 -0.923412D-02 -0.582463D-03 -0.373306D-02  0.249498D+00
     26  0.000000D+00  0.000000D+00  0.000000D+00  0.000000D+00  0.000000D+00
     27  0.276982D-01  0.277014D-01  0.000000D+00  0.000000D+00 -0.277009D-01
     28 -0.222568D-05  0.957585D-05 -0.729991D-04  0.584479D-02 -0.894880D-03
     29  0.305648D-04 -0.311831D-04  0.457769D-04  0.738315D-04  0.215967D-04
     30  0.000000D+00  0.000000D+00  0.000000D+00  0.000000D+00  0.000000D+00
               26            27            28            29            30 
     26  0.677780D-01
     27  0.000000D+00  0.831025D-01
     28  0.225927D-01  0.000000D+00  0.228857D+00
     29  0.000000D+00  0.000000D+00  0.688315D-02  0.332125D+00
     30  0.000000D+00  0.000000D+00  0.000000D+00  0.000000D+00  0.233007D-01
 Force constants in internal coordinates: 
                1             2             3             4             5 
      1  0.535380D+00
      2  0.000000D+00  0.361276D+00
      3  0.000000D+00  0.000000D+00  0.356343D+00
      4  0.000000D+00  0.000000D+00  0.000000D+00  0.560800D+00
      5  0.000000D+00  0.000000D+00  0.000000D+00  0.000000D+00  0.233007D-01
      6  0.000000D+00  0.000000D+00  0.000000D+00  0.000000D+00  0.000000D+00
      7  0.000000D+00  0.000000D+00  0.000000D+00  0.000000D+00  0.000000D+00
      8  0.000000D+00  0.000000D+00  0.000000D+00  0.000000D+00  0.000000D+00
      9  0.000000D+00  0.000000D+00  0.000000D+00  0.000000D+00  0.000000D+00
     10  0.000000D+00  0.000000D+00  0.000000D+00  0.000000D+00  0.000000D+00
     11  0.000000D+00  0.000000D+00  0.000000D+00  0.000000D+00  0.000000D+00
     12  0.000000D+00  0.000000D+00  0.000000D+00  0.000000D+00  0.000000D+00
     13  0.000000D+00  0.000000D+00  0.000000D+00  0.000000D+00  0.000000D+00
     14  0.000000D+00  0.000000D+00  0.000000D+00  0.000000D+00  0.000000D+00
     15  0.000000D+00  0.000000D+00  0.000000D+00  0.000000D+00  0.000000D+00
     16  0.000000D+00  0.000000D+00  0.000000D+00  0.000000D+00  0.000000D+00
     17  0.000000D+00  0.000000D+00  0.000000D+00  0.000000D+00  0.000000D+00
     18  0.000000D+00  0.000000D+00  0.000000D+00  0.000000D+00  0.000000D+00
     19  0.000000D+00  0.000000D+00  0.000000D+00  0.000000D+00  0.000000D+00
     20  0.000000D+00  0.000000D+00  0.000000D+00  0.000000D+00  0.000000D+00
     21  0.000000D+00  0.000000D+00  0.000000D+00  0.000000D+00  0.000000D+00
     22  0.000000D+00  0.000000D+00  0.000000D+00  0.000000D+00  0.000000D+00
     23  0.000000D+00  0.000000D+00  0.000000D+00  0.000000D+00  0.000000D+00
     24  0.000000D+00  0.000000D+00  0.000000D+00  0.000000D+00  0.000000D+00
     25  0.000000D+00  0.000000D+00  0.000000D+00  0.000000D+00  0.000000D+00
     26  0.000000D+00  0.000000D+00  0.000000D+00  0.000000D+00  0.000000D+00
     27  0.000000D+00  0.000000D+00  0.000000D+00  0.000000D+00  0.000000D+00
     28  0.000000D+00  0.000000D+00  0.000000D+00  0.000000D+00  0.000000D+00
     29  0.000000D+00  0.000000D+00  0.000000D+00  0.000000D+00  0.000000D+00
     30  0.000000D+00  0.000000D+00  0.000000D+00  0.000000D+00  0.000000D+00
                6             7             8             9            10 
      6  0.336586D+00
      7  0.000000D+00  0.357897D+00
      8  0.000000D+00  0.000000D+00  0.358738D+00
      9  0.000000D+00  0.000000D+00  0.000000D+00  0.339043D+00
     10  0.000000D+00  0.000000D+00  0.000000D+00  0.000000D+00  0.346973D+00
     11  0.000000D+00  0.000000D+00  0.000000D+00  0.000000D+00  0.000000D+00
     12  0.000000D+00  0.000000D+00  0.000000D+00  0.000000D+00  0.000000D+00
     13  0.000000D+00  0.000000D+00  0.000000D+00  0.000000D+00  0.000000D+00
     14  0.000000D+00  0.000000D+00  0.000000D+00  0.000000D+00  0.000000D+00
     15  0.000000D+00  0.000000D+00  0.000000D+00  0.000000D+00  0.000000D+00
     16  0.000000D+00  0.000000D+00  0.000000D+00  0.000000D+00  0.000000D+00
     17  0.000000D+00  0.000000D+00  0.000000D+00  0.000000D+00  0.000000D+00
     18  0.000000D+00  0.000000D+00  0.000000D+00  0.000000D+00  0.000000D+00
     19  0.000000D+00  0.000000D+00  0.000000D+00  0.000000D+00  0.000000D+00
     20  0.000000D+00  0.000000D+00  0.000000D+00  0.000000D+00  0.000000D+00
     21  0.000000D+00  0.000000D+00  0.000000D+00  0.000000D+00  0.000000D+00
     22  0.000000D+00  0.000000D+00  0.000000D+00  0.000000D+00  0.000000D+00
     23  0.000000D+00  0.000000D+00  0.000000D+00  0.000000D+00  0.000000D+00
     24  0.000000D+00  0.000000D+00  0.000000D+00  0.000000D+00  0.000000D+00
     25  0.000000D+00  0.000000D+00  0.000000D+00  0.000000D+00  0.000000D+00
     26  0.000000D+00  0.000000D+00  0.000000D+00  0.000000D+00  0.000000D+00
     27  0.000000D+00  0.000000D+00  0.000000D+00  0.000000D+00  0.000000D+00
     28  0.000000D+00  0.000000D+00  0.000000D+00  0.000000D+00  0.000000D+00
     29  0.000000D+00  0.000000D+00  0.000000D+00  0.000000D+00  0.000000D+00
     30  0.000000D+00  0.000000D+00  0.000000D+00  0.000000D+00  0.000000D+00
               11            12            13            14            15 
     11  0.347434D+00
     12  0.000000D+00  0.309234D+00
     13  0.000000D+00  0.107615D+00  0.308519D+00
     14  0.000000D+00  0.000000D+00  0.000000D+00  0.160000D+00
     15  0.000000D+00  0.345884D-01  0.429120D-01  0.000000D+00  0.332125D+00
     16  0.000000D+00 -0.782820D-04  0.771612D-04  0.000000D+00  0.457769D-04
     17  0.000000D+00 -0.195520D-02  0.192721D-02  0.000000D+00 -0.201253D-04
     18  0.000000D+00  0.196400D-02 -0.193588D-02  0.000000D+00 -0.214872D-04
     19  0.000000D+00  0.000000D+00  0.000000D+00  0.000000D+00  0.252091D-04
     20  0.000000D+00  0.000000D+00  0.000000D+00  0.000000D+00  0.853020D-05
     21  0.000000D+00  0.000000D+00  0.000000D+00  0.000000D+00  0.884623D-05
     22  0.000000D+00  0.649954D-01  0.670455D-02  0.000000D+00 -0.667608D-01
     23  0.000000D+00  0.000000D+00  0.000000D+00  0.000000D+00  0.000000D+00
     24  0.000000D+00 -0.570493D-01  0.561664D-01  0.000000D+00  0.688315D-02
     25  0.000000D+00  0.615221D-02 -0.606413D-02  0.000000D+00  0.738315D-04
     26  0.000000D+00 -0.110590D-02  0.109007D-02  0.000000D+00  0.215967D-04
     27  0.000000D+00 -0.528449D-03  0.520883D-03  0.000000D+00 -0.644130D-03
     28  0.000000D+00  0.000000D+00  0.000000D+00  0.000000D+00  0.000000D+00
     29  0.000000D+00  0.000000D+00  0.000000D+00  0.000000D+00  0.305648D-04
     30  0.000000D+00  0.000000D+00  0.000000D+00  0.000000D+00 -0.311831D-04
               16            17            18            19            20 
     16  0.338041D+00
     17  0.279847D-01  0.313040D+00
     18  0.251989D-01  0.129962D+00  0.310433D+00
     19 -0.256470D-04  0.000000D+00  0.000000D+00  0.252415D+00
     20 -0.923580D-05  0.000000D+00  0.000000D+00  0.464143D-01  0.254569D+00
     21 -0.831360D-05  0.000000D+00  0.000000D+00  0.464194D-01  0.486914D-01
     22  0.373336D-04  0.932461D-03 -0.936655D-03  0.000000D+00  0.000000D+00
     23  0.000000D+00  0.000000D+00  0.000000D+00  0.000000D+00  0.000000D+00
     24 -0.729991D-04 -0.170607D-02  0.175841D-02 -0.394804D-05  0.121062D-05
     25 -0.261656D-03 -0.658041D-02  0.662671D-02  0.119078D-05  0.154398D-04
     26 -0.582463D-03 -0.403669D-01  0.374221D-01  0.000000D+00  0.000000D+00
     27  0.697361D-01 -0.505989D-01 -0.130971D-01  0.000000D+00  0.000000D+00
     28  0.000000D+00  0.000000D+00  0.000000D+00  0.000000D+00  0.000000D+00
     29 -0.323544D-04  0.000000D+00  0.000000D+00 -0.665789D-01  0.848843D-03
     30  0.307090D-04  0.000000D+00  0.000000D+00  0.665537D-01 -0.673648D-01
               21            22            23            24            25 
     21  0.254745D+00
     22  0.000000D+00  0.175997D+00
     23  0.000000D+00  0.225927D-01  0.677780D-01
     24 -0.280485D-05 -0.973367D-01  0.225927D-01  0.228857D+00
     25 -0.136860D-04 -0.293406D-02  0.000000D+00  0.584479D-02  0.207020D-01
     26  0.000000D+00  0.527419D-03  0.000000D+00 -0.894880D-03 -0.373306D-02
     27  0.000000D+00  0.252024D-03  0.000000D+00 -0.277571D-03 -0.176178D-02
     28  0.000000D+00  0.000000D+00  0.000000D+00  0.000000D+00  0.000000D+00
     29  0.674478D-01  0.000000D+00  0.000000D+00 -0.222568D-05  0.272019D-04
     30 -0.869199D-03  0.000000D+00  0.000000D+00  0.957585D-05  0.260626D-04
               26            27            28            29            30 
     26  0.249498D+00
     27  0.111436D+00  0.182601D+00
     28 -0.277009D-01  0.277008D-01  0.831025D-01
     29 -0.923093D-02  0.923362D-02  0.276982D-01  0.225733D+00
     30 -0.923412D-02  0.923362D-02  0.277014D-01 -0.981706D-01  0.225787D+00
 Final forces over variables, Energy=-1.94242595D+02:
 -1.67603211D-05 2.32578862D-05-2.26946771D-05-1.97674121D-07
  2.04988202D-06-1.64942484D-05-7.24790518D-06 3.61654296D-05
 -2.49482343D-05-1.53169075D-05-1.31069278D-05-1.02806614D-05
 -1.24832396D-05-3.04445374D-05-2.42732131D-05-1.69077393D-05
 -7.32675411D-06-8.73067237D-06-2.40475880D-06 1.70769028D-05
  7.79398007D-06 4.17993128D-06-7.79411141D-05-2.91206678D-06
 -3.86666358D-05 2.15018805D-05 3.12906948D-06 2.77819973D-06
 -2.81811464D-05-1.57577964D-02

 GradGradGradGradGradGradGradGradGradGradGradGradGradGradGradGradGradGrad
 Berny optimization.
 Search for a local minimum.
 Step number   1 out of a maximum of   50
 All quantities printed in internal units (Hartrees-Bohrs-Radians)
 Second derivative matrix not updated -- first step.
 ITU=  0
     Eigenvalues ---    0.01901   0.03936   0.04355   0.07018   0.10536
     Eigenvalues ---    0.13568   0.13933   0.14513   0.16000   0.16198
     Eigenvalues ---    0.24722   0.29362   0.30845   0.33659   0.33904
     Eigenvalues ---    0.34697   0.34743   0.34815   0.35634   0.35790
     Eigenvalues ---    0.35874   0.36128   0.38868   0.38938   0.39586
     Eigenvalues ---    0.44486   0.45738   0.53538   0.560801000.00000
 RFO step:  Lambda=-7.91238819D-08 EMin= 1.90107406D-02
 Linear search not attempted -- first point.
 Variable       Old X    -DE/DX   Delta X   Delta X   Delta X     New X
                                 (Linear)    (Quad)   (Total)
    R1        2.56455  -0.00002   0.00000  -0.00003  -0.00003   2.56452
    R2        2.03883   0.00002   0.00000   0.00006   0.00006   2.03889
    R3        2.04657  -0.00002   0.00000  -0.00006  -0.00006   2.04651
    R4        1.80885  -0.00000   0.00000  -0.00000  -0.00000   1.80885
    A2        1.97313   0.00000   0.00000   0.00002   0.00002   1.97315
    A3        2.06292  -0.00002   0.00000  -0.00009  -0.00009   2.06283
    A4        1.91513  -0.00001   0.00000  -0.00005  -0.00005   1.91509
    D3        3.73950   0.00004   0.00000   0.00023   0.00023   3.73973
   R21        2.81210  -0.00002   0.00000  -0.00007  -0.00007   2.81203
   R22        2.04412  -0.00002   0.00000  -0.00004  -0.00004   2.04407
   R23        2.04279  -0.00001   0.00000  -0.00004  -0.00004   2.04276
   R24        2.07492  -0.00001   0.00000  -0.00003  -0.00003   2.07489
   R25        2.06169  -0.00001   0.00000  -0.00004  -0.00004   2.06166
   R26        2.06094  -0.00003   0.00000  -0.00009  -0.00009   2.06085
   A22        2.07871  -0.00002   0.00000  -0.00006  -0.00006   2.07865
   A23        2.08338  -0.00002   0.00000   0.00008   0.00008   2.08345
   A24        1.94844  -0.00001   0.00000  -0.00002  -0.00002   1.94842
   A25        1.94934  -0.00001   0.00000  -0.00002  -0.00002   1.94933
   A26        1.94806  -0.00000   0.00000  -0.00002  -0.00002   1.94805
   D23        2.66853   0.00002   0.00000   0.00053   0.00053   2.66906
   D25        2.08403   0.00001   0.00000   0.00005   0.00005   2.08408
   D26        4.19768   0.00000   0.00000   0.00004   0.00004   4.19772
   ANG2       1.79591  -0.00008   0.00000  -0.00034  -0.00034   1.79557
   DH2        3.29762  -0.00000   0.00000  -0.00026  -0.00026   3.29736
   DH3        1.83355  -0.00004   0.00000  -0.00045  -0.00045   1.83310
    D4        3.06855   0.00002   0.00000   0.00020   0.00020   3.06875
   D24        4.96909   0.00000   0.00000  -0.00032  -0.00032   4.96877
   DH1        1.84836   0.00000   0.00000   0.00012   0.00012   1.84848
   ANG1       1.97046  -0.00003   0.00000  -0.00003  -0.00003   1.97043
    BB        5.29123  -0.01576   0.00000   0.00000   0.00000   5.29123
         Item               Value     Threshold  Converged?
 Maximum Force            0.000078     0.000450     YES
 RMS     Force            0.000023     0.000300     YES
 Maximum Displacement     0.000529     0.001800     YES
 RMS     Displacement     0.000175     0.001200     YES
 Predicted change in Energy=-3.956194D-08
 Optimization completed.
    -- Stationary point found.
                       ----------------------------
                       !   Optimized Parameters   !
                       ! (Angstroms and Degrees)  !
 ----------------------                            ----------------------
 !      Name          Value   Derivative information (Atomic Units)     !
 ------------------------------------------------------------------------
 !       R1          1.3571   -DE/DX =    0.0                           !
 !       R2          1.0789   -DE/DX =    0.0                           !
 !       R3          1.083    -DE/DX =    0.0                           !
 !       R4          0.9572   -DE/DX =    0.0                           !
 !       A2        113.0519   -DE/DX =    0.0                           !
 !       A3        118.1965   -DE/DX =    0.0                           !
 !       A4        109.7289   -DE/DX =    0.0                           !
 !       D3        214.2576   -DE/DX =    0.0                           !
 !       R21         1.4881   -DE/DX =    0.0                           !
 !       R22         1.0817   -DE/DX =    0.0                           !
 !       R23         1.081    -DE/DX =    0.0                           !
 !       R24         1.098    -DE/DX =    0.0                           !
 !       R25         1.091    -DE/DX =    0.0                           !
 !       R26         1.0906   -DE/DX =    0.0                           !
 !       A22       119.1013   -DE/DX =    0.0                           !
 !       A23       119.3686   -DE/DX =    0.0                           !
 !       A24       111.6374   -DE/DX =    0.0                           !
 !       A25       111.6891   -DE/DX =    0.0                           !
 !       A26       111.6157   -DE/DX =    0.0                           !
 !       D23       152.8954   -DE/DX =    0.0                           !
 !       D25       119.4063   -DE/DX =    0.0                           !
 !       D26       240.5093   -DE/DX =    0.0                           !
 !      ANG2       102.8979   -DE/DX =   -0.0001                        !
 !       DH2       188.9395   -DE/DX =    0.0                           !
 !       DH3       105.0548   -DE/DX =    0.0                           !
 !       D4        175.8147   -DE/DX =    0.0                           !
 !       D24       284.7077   -DE/DX =    0.0                           !
 !       DH1       105.9035   -DE/DX =    0.0                           !
 !      ANG1       112.8992   -DE/DX =    0.0                           !
 !       BB          2.8      -DE/DX =   -0.0158                        !
 ------------------------------------------------------------------------
 GradGradGradGradGradGradGradGradGradGradGradGradGradGradGradGradGradGrad

 ---------------------------------------------------------------------------------------------------
                            Z-MATRIX (ANGSTROMS AND DEGREES)
   CD    Cent   Atom    N1       Length/X        N2       Alpha/Y        N3        Beta/Z          J
 ---------------------------------------------------------------------------------------------------
      1      1  C 
      2      2  O        1   1.357100(     1)
      3      3  H        1   1.078900(     2)      2  113.052(    12)
      4      4  H        1   1.083000(     3)      2  118.197(    13)      3  214.258(    22)      0
      5      5  H        2   0.957200(     4)      1  109.729(    14)      3  175.815(    23)      0
      6      6  C        1   2.800000(     5)      2  112.899(    15)      3  105.903(    24)      0
      7      7  C        6   1.488100(     6)      1  102.898(    16)      2  188.940(    25)      0
      8      8  H        6   1.081700(     7)      7  119.101(    17)      1  105.055(    26)      0
      9      9  H        6   1.081000(     8)      7  119.369(    18)      8  152.895(    27)      0
     10     10  H        7   1.098000(     9)      6  111.637(    19)      8  284.708(    28)      0
     11     11  H        7   1.091000(    10)      6  111.689(    20)     10  119.406(    29)      0
     12     12  H        7   1.090600(    11)      6  111.616(    21)     10  240.509(    30)      0
 ---------------------------------------------------------------------------------------------------
                         Z-Matrix orientation:                         
 ---------------------------------------------------------------------
 Center     Atomic      Atomic             Coordinates (Angstroms)
 Number     Number       Type             X           Y           Z
 ---------------------------------------------------------------------
      1          6           0        0.000000    0.000000    0.000000
      2          8           0        0.000000    0.000000    1.357100
      3          1           0        0.992750    0.000000   -0.422459
      4          1           0       -0.788895    0.537292   -0.511714
      5          1           0       -0.898610    0.065758    1.680222
      6          6           0       -0.706784   -2.480609   -1.089511
      7          6           0       -0.421069   -2.300420   -2.538766
      8          1           0       -1.734148   -2.474106   -0.751052
      9          1           0       -0.008124   -3.031967   -0.475964
     10          1           0       -0.646730   -3.209325   -3.111979
     11          1           0       -1.021692   -1.499024   -2.971545
     12          1           0        0.629870   -2.068511   -2.715267
 ---------------------------------------------------------------------
                    Distance matrix (angstroms):
                    1          2          3          4          5
     1  C    0.000000
     2  O    1.357100   0.000000
     3  H    1.078900   2.037740   0.000000
     4  H    1.083000   2.098453   1.863037   0.000000
     5  H    1.906560   0.957200   2.828929   2.244764   0.000000
     6  C    2.800000   3.555119   3.080064   3.073812   3.767254
     7  C    3.451748   4.543898   3.430682   3.506686   4.860731
     8  H    3.113286   3.684125   3.696640   3.165329   3.613879
     9  H    3.069109   3.543023   3.193342   3.653832   3.877886
    10  H    4.516906   5.539919   4.496797   4.562755   5.809889
    11  H    3.481524   4.693410   3.578112   3.201804   4.909443
    12  H    3.471044   4.610818   3.109242   3.695774   5.119734
                    6          7          8          9         10
     6  C    0.000000
     7  C    1.488100   0.000000
     8  H    1.081700   2.224920   0.000000
     9  H    1.081000   2.227294   1.834678   0.000000
    10  H    2.150584   1.098000   2.701297   2.718060   0.000000
    11  H    2.145863   1.091000   2.527641   3.099219   1.756545
    12  H    2.144657   1.090600   3.100199   2.519873   1.757426
                   11         12
    11  H    0.000000
    12  H    1.765687   0.000000
 Symmetry turned off by external request.
 Stoichiometry    C3H8O
 Framework group  C1[X(C3H8O)]
 Deg. of freedom    30
 Full point group                 C1      NOp   1
 Rotational constants (GHZ):     18.3441216      2.3583061      2.1942568

 Test job not archived.
 1\1\GINC-NODE-5-15\POpt\UwB97XD\Jun-CC-pVTZ\C3H8O1\MDITEODORO\13-Jun-2
 024\1\\# uwb97xd/jun-cc-pvtz opt=(noeig,intern,maxcyc=50) # int=ultraf
 ine nosym iop(7/33=1) guess=(mix,always)\\geom 0\\0,1\C\O,1,R1\H,1,R2,
 2,A2\H,1,R3,2,A3,3,D3,0\H,2,R4,1,A4,3,D4,0\C,1,BB,2,ANG1,3,DH1,0\C,6,R
 21,1,ANG2,2,DH2,0\H,6,R22,7,A22,1,DH3,0\H,6,R23,7,A23,8,D23,0\H,7,R24,
 6,A24,8,D24,0\H,7,R25,6,A25,10,D25,0\H,7,R26,6,A26,10,D26,0\\R1=1.3571
 \R2=1.0789\R3=1.083\R4=0.9572\A2=113.0519\A3=118.1965\A4=109.7289\D3=2
 14.2576\R21=1.4881\R22=1.0817\R23=1.081\R24=1.098\R25=1.091\R26=1.0906
 \A22=119.1013\A23=119.3686\A24=111.6374\A25=111.6891\A26=111.6157\D23=
 152.8954\D25=119.4063\D26=240.5093\ANG2=102.8979\DH2=188.9395\DH3=105.
 0548\D4=175.8147\D24=284.7077\DH1=105.9035\ANG1=112.8992\BB=2.8\\Versi
 on=EM64L-G09RevD.01\HF=-194.2425954\S2=0.679596\S2-1=0.\S2A=0.023448\R
 MSD=9.256e-09\RMSF=3.708e-03\Dipole=-0.4914994,0.2189725,-0.0877727\Qu
 adrupole=1.5103612,-1.4592566,-0.0511046,-0.7525546,-2.2386057,0.08922
 92\PG=C01 [X(C3H8O1)]\\@


 QED = W**5 (WHICH WAS WHAT WE WANTED)
 Job cpu time:       0 days  0 hours 17 minutes 35.5 seconds.
 File lengths (MBytes):  RWF=    113 Int=      0 D2E=      0 Chk=     10 Scr=      1
 Normal termination of Gaussian 09 at Thu Jun 13 21:54:15 2024.
 Initial command:
 /software/cinetica/g09d1/g09d01/d01/build-node-6-2-59348/src/main/l1.exe "/scratch/mdt/203493/Gau-29692.inp" -scrdir="/scratch/mdt/203493/"
 Entering Link 1 = /software/cinetica/g09d1/g09d01/d01/build-node-6-2-59348/src/main/l1.exe PID=     30375.
  
 Copyright (c) 1988,1990,1992,1993,1995,1998,2003,2009,2013,
            Gaussian, Inc.  All Rights Reserved.
  
 This is part of the Gaussian(R) 09 program.  It is based on
 the Gaussian(R) 03 system (copyright 2003, Gaussian, Inc.),
 the Gaussian(R) 98 system (copyright 1998, Gaussian, Inc.),
 the Gaussian(R) 94 system (copyright 1995, Gaussian, Inc.),
 the Gaussian 92(TM) system (copyright 1992, Gaussian, Inc.),
 the Gaussian 90(TM) system (copyright 1990, Gaussian, Inc.),
 the Gaussian 88(TM) system (copyright 1988, Gaussian, Inc.),
 the Gaussian 86(TM) system (copyright 1986, Carnegie Mellon
 University), and the Gaussian 82(TM) system (copyright 1983,
 Carnegie Mellon University). Gaussian is a federally registered
 trademark of Gaussian, Inc.
  
 This software contains proprietary and confidential information,
 including trade secrets, belonging to Gaussian, Inc.
  
 This software is provided under written license and may be
 used, copied, transmitted, or stored only in accord with that
 written license.
  
 The following legend is applicable only to US Government
 contracts under FAR:
  
                    RESTRICTED RIGHTS LEGEND
  
 Use, reproduction and disclosure by the US Government is
 subject to restrictions as set forth in subparagraphs (a)
 and (c) of the Commercial Computer Software - Restricted
 Rights clause in FAR 52.227-19.
  
 Gaussian, Inc.
 340 Quinnipiac St., Bldg. 40, Wallingford CT 06492
  
  
 ---------------------------------------------------------------
 Warning -- This program may not be used in any manner that
 competes with the business of Gaussian, Inc. or will provide
 assistance to any competitor of Gaussian, Inc.  The licensee
 of this program is prohibited from giving any competitor of
 Gaussian, Inc. access to this program.  By using this program,
 the user acknowledges that Gaussian, Inc. is engaged in the
 business of creating and licensing software in the field of
 computational chemistry and represents and warrants to the
 licensee that it is not a competitor of Gaussian, Inc. and that
 it will not use this program in any manner prohibited above.
 ---------------------------------------------------------------
  

 Cite this work as:
 Gaussian 09, Revision D.01,
 M. J. Frisch, G. W. Trucks, H. B. Schlegel, G. E. Scuseria, 
 M. A. Robb, J. R. Cheeseman, G. Scalmani, V. Barone, B. Mennucci, 
 G. A. Petersson, H. Nakatsuji, M. Caricato, X. Li, H. P. Hratchian, 
 A. F. Izmaylov, J. Bloino, G. Zheng, J. L. Sonnenberg, M. Hada, 
 M. Ehara, K. Toyota, R. Fukuda, J. Hasegawa, M. Ishida, T. Nakajima, 
 Y. Honda, O. Kitao, H. Nakai, T. Vreven, J. A. Montgomery, Jr., 
 J. E. Peralta, F. Ogliaro, M. Bearpark, J. J. Heyd, E. Brothers, 
 K. N. Kudin, V. N. Staroverov, T. Keith, R. Kobayashi, J. Normand, 
 K. Raghavachari, A. Rendell, J. C. Burant, S. S. Iyengar, J. Tomasi, 
 M. Cossi, N. Rega, J. M. Millam, M. Klene, J. E. Knox, J. B. Cross, 
 V. Bakken, C. Adamo, J. Jaramillo, R. Gomperts, R. E. Stratmann, 
 O. Yazyev, A. J. Austin, R. Cammi, C. Pomelli, J. W. Ochterski, 
 R. L. Martin, K. Morokuma, V. G. Zakrzewski, G. A. Voth, 
 P. Salvador, J. J. Dannenberg, S. Dapprich, A. D. Daniels, 
 O. Farkas, J. B. Foresman, J. V. Ortiz, J. Cioslowski, 
 and D. J. Fox, Gaussian, Inc., Wallingford CT, 2013.
 
 ******************************************
 Gaussian 09:  EM64L-G09RevD.01 24-Apr-2013
                13-Jun-2024 
 ******************************************
 %mem=400MW
 %chk=tmp
 %NProcShared= 32
 Will use up to   32 processors via shared memory.
 ----------------------------------------------------------------------
 # uwb97xd/jun-cc-pvtz # int=ultrafine nosym freq iop(7/33=1) guess=( )
  #guess=read geom=allcheck
 ----------------------------------------------------------------------
 1/10=4,29=7,30=1,38=1/1,3;
 2/12=2,15=1,40=1/2;
 3/5=16,6=1,7=60,11=2,14=-4,16=1,25=1,30=1,71=2,74=-58,75=-5,116=2,140=1/1,2,3;
 4/5=1/1;
 5/5=2,38=6,98=1/2;
 8/6=4,10=90,11=11/1;
 11/6=1,8=1,9=11,15=111,16=1,31=1/1,2,10;
 10/6=1,31=1/2;
 6/7=2,8=2,9=2,10=2,18=1,28=1/1;
 7/8=1,10=1,25=1,30=1,33=1/1,2,3,16;
 1/10=4,30=1/3;
 99//99;
 Structure from the checkpoint file:  "tmp.chk"
 ------
 geom 0
 ------
 Charge =  0 Multiplicity = 1
 Z-Matrix found in file.
 C
 O,1,R1
 H,1,R2,2,A2
 H,1,R3,2,A3,3,D3,0
 H,2,R4,1,A4,3,D4,0
 C,1,BB,2,ANG1,3,DH1,0
 C,6,R21,1,ANG2,2,DH2,0
 H,6,R22,7,A22,1,DH3,0
 H,6,R23,7,A23,8,D23,0
 H,7,R24,6,A24,8,D24,0
 H,7,R25,6,A25,10,D25,0
 H,7,R26,6,A26,10,D26,0
      Variables:
 R1=1.3571
 R2=1.0789
 R3=1.083
 R4=0.9572
 A2=113.0519
 A3=118.1965
 A4=109.7289
 D3=214.2576
 R21=1.4881
 R22=1.0817
 R23=1.081
 R24=1.098
 R25=1.091
 R26=1.0906
 A22=119.1013
 A23=119.3686
 A24=111.6374
 A25=111.6891
 A26=111.6157
 D23=152.8954
 D25=119.4063
 D26=240.5093
 ANG2=102.8979
 DH2=188.9395
 DH3=105.0548
 D4=175.8147
 D24=284.7077
 DH1=105.9035
 ANG1=112.8992
      Constants:
 BB=2.8
 Recover connectivity data from disk.

 GradGradGradGradGradGradGradGradGradGradGradGradGradGradGradGradGradGrad
 Berny optimization.
 Initialization pass.
                       ----------------------------
                       !    Initial Parameters    !
                       ! (Angstroms and Degrees)  !
 ----------------------                            ----------------------
 !      Name          Value   Derivative information (Atomic Units)     !
 ------------------------------------------------------------------------
 !       R1          1.3571   calculate D2E/DX2 analytically            !
 !       R2          1.0789   calculate D2E/DX2 analytically            !
 !       R3          1.083    calculate D2E/DX2 analytically            !
 !       R4          0.9572   calculate D2E/DX2 analytically            !
 !       A2        113.0519   calculate D2E/DX2 analytically            !
 !       A3        118.1965   calculate D2E/DX2 analytically            !
 !       A4        109.7289   calculate D2E/DX2 analytically            !
 !       D3        214.2576   calculate D2E/DX2 analytically            !
 !       R21         1.4881   calculate D2E/DX2 analytically            !
 !       R22         1.0817   calculate D2E/DX2 analytically            !
 !       R23         1.081    calculate D2E/DX2 analytically            !
 !       R24         1.098    calculate D2E/DX2 analytically            !
 !       R25         1.091    calculate D2E/DX2 analytically            !
 !       R26         1.0906   calculate D2E/DX2 analytically            !
 !       A22       119.1013   calculate D2E/DX2 analytically            !
 !       A23       119.3686   calculate D2E/DX2 analytically            !
 !       A24       111.6374   calculate D2E/DX2 analytically            !
 !       A25       111.6891   calculate D2E/DX2 analytically            !
 !       A26       111.6157   calculate D2E/DX2 analytically            !
 !       D23       152.8954   calculate D2E/DX2 analytically            !
 !       D25       119.4063   calculate D2E/DX2 analytically            !
 !       D26       240.5093   calculate D2E/DX2 analytically            !
 !      ANG2       102.8979   calculate D2E/DX2 analytically            !
 !       DH2       188.9395   calculate D2E/DX2 analytically            !
 !       DH3       105.0548   calculate D2E/DX2 analytically            !
 !       D4        175.8147   calculate D2E/DX2 analytically            !
 !       D24       284.7077   calculate D2E/DX2 analytically            !
 !       DH1       105.9035   calculate D2E/DX2 analytically            !
 !      ANG1       112.8992   calculate D2E/DX2 analytically            !
 !       BB          2.8      frozen, calculate D2E/DX2 analytically    !
 ------------------------------------------------------------------------
 Trust Radius=3.00D-01 FncErr=1.00D-07 GrdErr=1.00D-07
 Number of steps in this run=      2 maximum allowed number of steps=      2.
 GradGradGradGradGradGradGradGradGradGradGradGradGradGradGradGradGradGrad

                          Input orientation:                          
 ---------------------------------------------------------------------
 Center     Atomic      Atomic             Coordinates (Angstroms)
 Number     Number       Type             X           Y           Z
 ---------------------------------------------------------------------
      1          6           0        0.000000    0.000000    0.000000
      2          8           0        0.000000    0.000000    1.357100
      3          1           0        0.992750    0.000000   -0.422459
      4          1           0       -0.788895    0.537292   -0.511714
      5          1           0       -0.898610    0.065758    1.680222
      6          6           0       -0.706784   -2.480609   -1.089511
      7          6           0       -0.421069   -2.300420   -2.538766
      8          1           0       -1.734148   -2.474106   -0.751052
      9          1           0       -0.008124   -3.031967   -0.475964
     10          1           0       -0.646730   -3.209325   -3.111979
     11          1           0       -1.021692   -1.499024   -2.971545
     12          1           0        0.629870   -2.068511   -2.715267
 ---------------------------------------------------------------------
                    Distance matrix (angstroms):
                    1          2          3          4          5
     1  C    0.000000
     2  O    1.357100   0.000000
     3  H    1.078900   2.037740   0.000000
     4  H    1.083000   2.098453   1.863037   0.000000
     5  H    1.906560   0.957200   2.828929   2.244764   0.000000
     6  C    2.800000   3.555119   3.080064   3.073812   3.767254
     7  C    3.451748   4.543898   3.430682   3.506686   4.860731
     8  H    3.113286   3.684125   3.696640   3.165329   3.613879
     9  H    3.069109   3.543023   3.193342   3.653832   3.877886
    10  H    4.516906   5.539919   4.496797   4.562755   5.809889
    11  H    3.481524   4.693410   3.578112   3.201804   4.909443
    12  H    3.471044   4.610818   3.109242   3.695774   5.119734
                    6          7          8          9         10
     6  C    0.000000
     7  C    1.488100   0.000000
     8  H    1.081700   2.224920   0.000000
     9  H    1.081000   2.227294   1.834678   0.000000
    10  H    2.150584   1.098000   2.701297   2.718060   0.000000
    11  H    2.145863   1.091000   2.527641   3.099219   1.756545
    12  H    2.144657   1.090600   3.100199   2.519873   1.757426
                   11         12
    11  H    0.000000
    12  H    1.765687   0.000000
 Symmetry turned off by external request.
 Stoichiometry    C3H8O
 Framework group  C1[X(C3H8O)]
 Deg. of freedom    30
 Full point group                 C1      NOp   1
 Rotational constants (GHZ):     18.3441216      2.3583061      2.1942568
 Standard basis: Jun-CC-pVTZ (5D, 7F)
   268 basis functions,   384 primitive gaussians,   300 cartesian basis functions
    17 alpha electrons       17 beta electrons
       nuclear repulsion energy       114.5262020980 Hartrees.
 NAtoms=   12 NActive=   12 NUniq=   12 SFac= 1.00D+00 NAtFMM=   60 NAOKFM=F Big=F
 Integral buffers will be    131072 words long.
 Raffenetti 2 integral format.
 Two-electron integral symmetry is turned off.
 Nuclear repulsion after empirical dispersion term =      114.5222729199 Hartrees.
 One-electron integrals computed using PRISM.
 NBasis=   268 RedAO= T EigKep=  1.07D-04  NBF=   268
 NBsUse=   268 1.00D-06 EigRej= -1.00D+00 NBFU=   268
 Initial guess from the checkpoint file:  "tmp.chk"
 B after Tr=     0.000000    0.000000    0.000000
         Rot=    1.000000    0.000000    0.000000    0.000000 Ang=   0.00 deg.
 Initial guess <Sx>= 0.0000 <Sy>= 0.0000 <Sz>= 0.0000 <S**2>= 0.6796 S= 0.4642
 Requested convergence on RMS density matrix=1.00D-08 within 128 cycles.
 Requested convergence on MAX density matrix=1.00D-06.
 Requested convergence on             energy=1.00D-06.
 No special actions if energy rises.
 SCF Done:  E(UwB97XD) =  -194.242595448     A.U. after    1 cycles
            NFock=  1  Conv=0.25D-08     -V/T= 2.0069
 <Sx>= 0.0000 <Sy>= 0.0000 <Sz>= 0.0000 <S**2>= 0.6796 S= 0.4642
 <L.S>=  0.00000000000    
 Annihilation of the first spin contaminant:
 S**2 before annihilation     0.6796,   after     0.0234
 DoSCS=F DFT=T ScalE2(SS,OS)=  1.000000  1.000000
 Range of M.O.s used for correlation:     1   268
 NBasis=   268 NAE=    17 NBE=    17 NFC=     0 NFV=     0
 NROrb=    268 NOA=    17 NOB=    17 NVA=   251 NVB=   251

 **** Warning!!: The largest alpha MO coefficient is  0.19020822D+02


 **** Warning!!: The largest beta MO coefficient is  0.19193864D+02

 Symmetrizing basis deriv contribution to polar:
 IMax=3 JMax=2 DiffMx= 0.00D+00
 G2DrvN: will do    13 centers at a time, making    1 passes.
 Calling FoFCou, ICntrl=  3107 FMM=F I1Cent=   0 AccDes= 0.00D+00.
 End of G2Drv F.D. properties file   721 does not exist.
 End of G2Drv F.D. properties file   722 does not exist.
 End of G2Drv F.D. properties file   788 does not exist.
          IDoAtm=111111111111
          Differentiating once with respect to electric field.
                with respect to dipole field.
          Differentiating once with respect to nuclear coordinates.
          There are    39 degrees of freedom in the 1st order CPHF.  IDoFFX=6 NUNeed=     3.
     36 vectors produced by pass  0 Test12= 2.19D-14 2.56D-09 XBig12= 5.80D+01 4.13D+00.
 AX will form    36 AO Fock derivatives at one time.
     36 vectors produced by pass  1 Test12= 2.19D-14 2.56D-09 XBig12= 2.74D+00 2.66D-01.
     36 vectors produced by pass  2 Test12= 2.19D-14 2.56D-09 XBig12= 8.05D-02 4.39D-02.
     36 vectors produced by pass  3 Test12= 2.19D-14 2.56D-09 XBig12= 1.43D-03 6.34D-03.
     36 vectors produced by pass  4 Test12= 2.19D-14 2.56D-09 XBig12= 1.74D-05 6.08D-04.
     36 vectors produced by pass  5 Test12= 2.19D-14 2.56D-09 XBig12= 2.05D-07 6.10D-05.
     36 vectors produced by pass  6 Test12= 2.19D-14 2.56D-09 XBig12= 1.84D-09 4.83D-06.
     17 vectors produced by pass  7 Test12= 2.19D-14 2.56D-09 XBig12= 1.40D-11 3.93D-07.
      3 vectors produced by pass  8 Test12= 2.19D-14 2.56D-09 XBig12= 1.16D-13 4.11D-08.
      2 vectors produced by pass  9 Test12= 2.19D-14 2.56D-09 XBig12= 1.02D-15 4.07D-09.
 InvSVY:  IOpt=1 It=  1 EMax= 7.99D-15
 Solved reduced A of dimension   274 with    39 vectors.
 Isotropic polarizability for W=    0.000000       58.71 Bohr**3.
 End of Minotr F.D. properties file   721 does not exist.
 End of Minotr F.D. properties file   722 does not exist.
 End of Minotr F.D. properties file   788 does not exist.

 **********************************************************************

            Population analysis using the SCF density.

 **********************************************************************

 Alpha  occ. eigenvalues --  -19.28448 -10.33024 -10.28552 -10.27318  -1.15622
 Alpha  occ. eigenvalues --   -0.84978  -0.74903  -0.69547  -0.61259  -0.53690
 Alpha  occ. eigenvalues --   -0.52957  -0.49465  -0.46828  -0.45862  -0.43205
 Alpha  occ. eigenvalues --   -0.42975  -0.27330
 Alpha virt. eigenvalues --    0.04739   0.05332   0.06085   0.07371   0.07765
 Alpha virt. eigenvalues --    0.08983   0.10162   0.10814   0.11196   0.12352
 Alpha virt. eigenvalues --    0.14066   0.15767   0.17224   0.17896   0.19617
 Alpha virt. eigenvalues --    0.20940   0.21935   0.24044   0.24915   0.25676
 Alpha virt. eigenvalues --    0.26374   0.26935   0.28182   0.29067   0.29553
 Alpha virt. eigenvalues --    0.30240   0.31355   0.31860   0.32543   0.33937
 Alpha virt. eigenvalues --    0.34453   0.34976   0.36740   0.37688   0.39568
 Alpha virt. eigenvalues --    0.40857   0.42465   0.45390   0.46127   0.47613
 Alpha virt. eigenvalues --    0.50082   0.52113   0.54577   0.55283   0.58546
 Alpha virt. eigenvalues --    0.59865   0.60263   0.62305   0.63209   0.63272
 Alpha virt. eigenvalues --    0.66024   0.66422   0.66902   0.69397   0.69837
 Alpha virt. eigenvalues --    0.71756   0.73906   0.74646   0.75642   0.76427
 Alpha virt. eigenvalues --    0.78703   0.81405   0.82827   0.86447   0.87011
 Alpha virt. eigenvalues --    0.88352   0.90385   0.92474   0.93876   0.94973
 Alpha virt. eigenvalues --    0.97658   0.99925   1.00155   1.01083   1.03778
 Alpha virt. eigenvalues --    1.06571   1.10291   1.14314   1.17095   1.19070
 Alpha virt. eigenvalues --    1.19736   1.19988   1.20804   1.23000   1.24638
 Alpha virt. eigenvalues --    1.27274   1.29455   1.32653   1.34648   1.35705
 Alpha virt. eigenvalues --    1.35921   1.39796   1.41238   1.43674   1.45165
 Alpha virt. eigenvalues --    1.46486   1.47178   1.49243   1.52739   1.53162
 Alpha virt. eigenvalues --    1.53831   1.57629   1.61943   1.63452   1.67308
 Alpha virt. eigenvalues --    1.71172   1.73129   1.75839   1.82877   1.87807
 Alpha virt. eigenvalues --    2.00035   2.10890   2.13228   2.25771   2.35350
 Alpha virt. eigenvalues --    2.41222   2.43585   2.48316   2.52079   2.53653
 Alpha virt. eigenvalues --    2.57466   2.59555   2.64482   2.65895   2.69045
 Alpha virt. eigenvalues --    2.71223   2.76654   2.79194   2.81553   2.82458
 Alpha virt. eigenvalues --    2.90035   2.90753   2.91631   2.94485   2.95155
 Alpha virt. eigenvalues --    2.98088   2.99981   3.03665   3.03753   3.06951
 Alpha virt. eigenvalues --    3.07733   3.11176   3.12382   3.13815   3.14153
 Alpha virt. eigenvalues --    3.15799   3.16663   3.18120   3.21539   3.21782
 Alpha virt. eigenvalues --    3.23597   3.25320   3.28012   3.30448   3.37859
 Alpha virt. eigenvalues --    3.39750   3.40648   3.44140   3.46723   3.48035
 Alpha virt. eigenvalues --    3.51209   3.52131   3.54068   3.55585   3.56325
 Alpha virt. eigenvalues --    3.59436   3.59716   3.61207   3.63897   3.69770
 Alpha virt. eigenvalues --    3.73770   3.78693   3.79709   3.87131   3.87950
 Alpha virt. eigenvalues --    3.90805   3.95456   3.96561   3.99307   4.00724
 Alpha virt. eigenvalues --    4.01169   4.02018   4.02965   4.03399   4.07902
 Alpha virt. eigenvalues --    4.09406   4.11471   4.12899   4.14078   4.14981
 Alpha virt. eigenvalues --    4.19020   4.22049   4.23092   4.29609   4.33023
 Alpha virt. eigenvalues --    4.33405   4.36643   4.37171   4.39434   4.41111
 Alpha virt. eigenvalues --    4.44754   4.49340   4.57750   4.64119   4.73064
 Alpha virt. eigenvalues --    4.75760   4.80781   4.86858   4.88563   4.89364
 Alpha virt. eigenvalues --    4.93773   4.95958   4.98052   5.01375   5.04380
 Alpha virt. eigenvalues --    5.06954   5.09994   5.16222   5.17628   5.24644
 Alpha virt. eigenvalues --    5.25676   5.31066   5.35031   5.40809   5.43930
 Alpha virt. eigenvalues --    5.46359   5.49531   5.49842   5.63131   5.70764
 Alpha virt. eigenvalues --    5.72452   5.72984   5.94181   6.02078   6.09214
 Alpha virt. eigenvalues --    6.17182   6.19911   6.23255   6.56263   6.66267
 Alpha virt. eigenvalues --    6.75654   6.83185   6.90857   6.96594   7.15722
 Alpha virt. eigenvalues --    7.35157   7.63787  12.58171  12.85211  13.01463
 Alpha virt. eigenvalues --   13.75484
  Beta  occ. eigenvalues --  -19.28806 -10.33925 -10.27597 -10.27375  -1.16649
  Beta  occ. eigenvalues --   -0.83477  -0.77263  -0.67354  -0.62264  -0.54445
  Beta  occ. eigenvalues --   -0.52445  -0.49525  -0.47964  -0.45791  -0.44009
  Beta  occ. eigenvalues --   -0.42722  -0.25998
  Beta virt. eigenvalues --    0.03813   0.05355   0.06065   0.07392   0.07632
  Beta virt. eigenvalues --    0.08814   0.10078   0.10529   0.11382   0.11903
  Beta virt. eigenvalues --    0.14878   0.15658   0.17313   0.17802   0.19595
  Beta virt. eigenvalues --    0.20894   0.21628   0.23848   0.24871   0.25320
  Beta virt. eigenvalues --    0.26447   0.26855   0.27886   0.29209   0.29490
  Beta virt. eigenvalues --    0.30437   0.31313   0.31812   0.32481   0.33832
  Beta virt. eigenvalues --    0.34558   0.35076   0.36815   0.38435   0.39388
  Beta virt. eigenvalues --    0.40930   0.42492   0.44998   0.46479   0.47519
  Beta virt. eigenvalues --    0.50004   0.51915   0.54531   0.55376   0.58387
  Beta virt. eigenvalues --    0.59480   0.60536   0.62332   0.62752   0.63416
  Beta virt. eigenvalues --    0.65869   0.66350   0.66716   0.69606   0.69941
  Beta virt. eigenvalues --    0.71871   0.73926   0.74777   0.76015   0.76617
  Beta virt. eigenvalues --    0.78608   0.81630   0.82292   0.86656   0.87072
  Beta virt. eigenvalues --    0.88618   0.90218   0.92361   0.93834   0.95833
  Beta virt. eigenvalues --    0.97879   1.00014   1.00633   1.01162   1.03166
  Beta virt. eigenvalues --    1.06405   1.09871   1.13784   1.17075   1.19068
  Beta virt. eigenvalues --    1.19890   1.20239   1.21131   1.23184   1.24941
  Beta virt. eigenvalues --    1.27331   1.29588   1.32226   1.34787   1.35502
  Beta virt. eigenvalues --    1.35956   1.40094   1.41116   1.43442   1.45094
  Beta virt. eigenvalues --    1.46621   1.47678   1.49487   1.52630   1.53002
  Beta virt. eigenvalues --    1.53658   1.57708   1.61984   1.63553   1.67630
  Beta virt. eigenvalues --    1.71799   1.72621   1.76029   1.83555   1.87433
  Beta virt. eigenvalues --    1.99387   2.09929   2.12787   2.25403   2.32615
  Beta virt. eigenvalues --    2.39370   2.47246   2.48058   2.52494   2.55346
  Beta virt. eigenvalues --    2.57866   2.59846   2.65883   2.66287   2.68567
  Beta virt. eigenvalues --    2.70444   2.77632   2.80438   2.81932   2.82754
  Beta virt. eigenvalues --    2.88656   2.90407   2.91973   2.93811   2.95023
  Beta virt. eigenvalues --    2.98967   2.99900   3.03740   3.04686   3.06985
  Beta virt. eigenvalues --    3.08409   3.10280   3.11632   3.13862   3.14533
  Beta virt. eigenvalues --    3.15771   3.16291   3.17233   3.21587   3.23035
  Beta virt. eigenvalues --    3.23720   3.25558   3.27067   3.31001   3.37368
  Beta virt. eigenvalues --    3.38961   3.41697   3.44323   3.46489   3.47815
  Beta virt. eigenvalues --    3.50816   3.51814   3.54128   3.55333   3.56996
  Beta virt. eigenvalues --    3.59733   3.60207   3.60961   3.64074   3.70451
  Beta virt. eigenvalues --    3.72771   3.78715   3.79985   3.86827   3.88010
  Beta virt. eigenvalues --    3.91027   3.95505   3.96281   3.98991   4.01088
  Beta virt. eigenvalues --    4.01670   4.01890   4.02959   4.03316   4.08088
  Beta virt. eigenvalues --    4.09970   4.11491   4.12806   4.14336   4.15082
  Beta virt. eigenvalues --    4.19289   4.22237   4.23370   4.29951   4.32895
  Beta virt. eigenvalues --    4.33728   4.36884   4.37132   4.39542   4.40865
  Beta virt. eigenvalues --    4.44102   4.49657   4.57985   4.65107   4.72648
  Beta virt. eigenvalues --    4.76041   4.80114   4.88127   4.88528   4.89653
  Beta virt. eigenvalues --    4.94176   4.96537   4.97715   5.01765   5.05031
  Beta virt. eigenvalues --    5.05574   5.09065   5.15709   5.18219   5.24287
  Beta virt. eigenvalues --    5.25966   5.31402   5.35464   5.41526   5.43319
  Beta virt. eigenvalues --    5.45639   5.49741   5.50033   5.63661   5.71423
  Beta virt. eigenvalues --    5.72076   5.73181   5.93628   6.00896   6.09637
  Beta virt. eigenvalues --    6.17380   6.20099   6.22469   6.55381   6.65243
  Beta virt. eigenvalues --    6.74689   6.82777   6.90235   6.95411   7.15165
  Beta virt. eigenvalues --    7.34720   7.63354  12.59479  12.83946  13.00935
  Beta virt. eigenvalues --   13.75575
          Condensed to atoms (all electrons):
               1          2          3          4          5          6
     1  C    5.164205   0.141833   0.418095   0.413766   0.011338   0.129436
     2  O    0.141833   7.979995  -0.050913  -0.028197   0.209988  -0.013922
     3  H    0.418095  -0.050913   0.495614  -0.022731   0.007006  -0.011071
     4  H    0.413766  -0.028197  -0.022731   0.487611  -0.012809  -0.010926
     5  H    0.011338   0.209988   0.007006  -0.012809   0.615806  -0.003673
     6  C    0.129436  -0.013922  -0.011071  -0.010926  -0.003673   5.409577
     7  C   -0.033144   0.002360   0.004602   0.003923   0.001090   0.254791
     8  H   -0.006975   0.001117   0.000558  -0.000104   0.000255   0.412125
     9  H   -0.007728   0.001496   0.000143   0.000547   0.000423   0.420080
    10  H    0.003796  -0.000156  -0.000098  -0.000086  -0.000005  -0.034487
    11  H   -0.002826  -0.000045   0.000185   0.000030   0.000015  -0.028231
    12  H   -0.002784   0.000070  -0.000051   0.000124  -0.000008  -0.031835
               7          8          9         10         11         12
     1  C   -0.033144  -0.006975  -0.007728   0.003796  -0.002826  -0.002784
     2  O    0.002360   0.001117   0.001496  -0.000156  -0.000045   0.000070
     3  H    0.004602   0.000558   0.000143  -0.000098   0.000185  -0.000051
     4  H    0.003923  -0.000104   0.000547  -0.000086   0.000030   0.000124
     5  H    0.001090   0.000255   0.000423  -0.000005   0.000015  -0.000008
     6  C    0.254791   0.412125   0.420080  -0.034487  -0.028231  -0.031835
     7  C    4.988289  -0.021629  -0.024436   0.389674   0.412399   0.415797
     8  H   -0.021629   0.466263  -0.023624  -0.004001  -0.005245   0.003782
     9  H   -0.024436  -0.023624   0.457640  -0.003037   0.003458  -0.005403
    10  H    0.389674  -0.004001  -0.003037   0.499583  -0.014629  -0.015453
    11  H    0.412399  -0.005245   0.003458  -0.014629   0.494449  -0.020275
    12  H    0.415797   0.003782  -0.005403  -0.015453  -0.020275   0.493436
          Atomic-Atomic Spin Densities.
               1          2          3          4          5          6
     1  C   -0.880251   0.125994   0.000899   0.001261   0.006708  -0.025287
     2  O    0.125994  -0.219744  -0.001499   0.001238  -0.003720   0.000886
     3  H    0.000899  -0.001499   0.020382  -0.006468   0.000135  -0.002897
     4  H    0.001261   0.001238  -0.006468   0.018131  -0.001715  -0.004048
     5  H    0.006708  -0.003720   0.000135  -0.001715   0.003515  -0.000593
     6  C   -0.025287   0.000886  -0.002897  -0.004048  -0.000593   0.908751
     7  C    0.017811  -0.002003  -0.000493  -0.000473  -0.000216  -0.045581
     8  H    0.005801  -0.000844  -0.000037  -0.000080  -0.000067   0.003174
     9  H    0.007016  -0.001205  -0.000179  -0.000097  -0.000056   0.004270
    10  H   -0.000152   0.000019  -0.000026  -0.000029  -0.000001  -0.022966
    11  H   -0.000570   0.000017   0.000097   0.000134   0.000006  -0.006783
    12  H   -0.000655   0.000046   0.000136   0.000106   0.000003  -0.006608
               7          8          9         10         11         12
     1  C    0.017811   0.005801   0.007016  -0.000152  -0.000570  -0.000655
     2  O   -0.002003  -0.000844  -0.001205   0.000019   0.000017   0.000046
     3  H   -0.000493  -0.000037  -0.000179  -0.000026   0.000097   0.000136
     4  H   -0.000473  -0.000080  -0.000097  -0.000029   0.000134   0.000106
     5  H   -0.000216  -0.000067  -0.000056  -0.000001   0.000006   0.000003
     6  C   -0.045581   0.003174   0.004270  -0.022966  -0.006783  -0.006608
     7  C   -0.025461   0.003307   0.002685   0.014993   0.007700   0.007098
     8  H    0.003307  -0.028579   0.005094  -0.001378   0.000853   0.000128
     9  H    0.002685   0.005094  -0.029469  -0.001025   0.000084   0.000787
    10  H    0.014993  -0.001378  -0.001025   0.067362  -0.005126  -0.005242
    11  H    0.007700   0.000853   0.000084  -0.005126   0.011978   0.000675
    12  H    0.007098   0.000128   0.000787  -0.005242   0.000675   0.011298
 Mulliken charges and spin densities:
               1          2
     1  C   -0.229013  -0.741427
     2  O   -0.243628  -0.100814
     3  H    0.158659   0.010050
     4  H    0.168853   0.007961
     5  H    0.170575   0.003999
     6  C   -0.491865   0.802318
     7  C   -0.393716  -0.020634
     8  H    0.177479  -0.012628
     9  H    0.180442  -0.012095
    10  H    0.178899   0.046431
    11  H    0.160716   0.009066
    12  H    0.162600   0.007773
 Sum of Mulliken charges =  -0.00000  -0.00000
 Mulliken charges and spin densities with hydrogens summed into heavy atoms:
               1          2
     1  C    0.098499  -0.723416
     2  O   -0.073053  -0.096816
     6  C   -0.133945   0.777595
     7  C    0.108498   0.042636
 APT charges:
               1
     1  C    0.469804
     2  O   -0.734826
     3  H    0.002620
     4  H   -0.032157
     5  H    0.283361
     6  C    0.107057
     7  C    0.015017
     8  H   -0.028964
     9  H   -0.022005
    10  H   -0.037423
    11  H   -0.012239
    12  H   -0.010244
 Sum of APT charges =   0.00000
 APT charges with hydrogens summed into heavy atoms:
               1
     1  C    0.440266
     2  O   -0.451465
     6  C    0.056088
     7  C   -0.044889
 Electronic spatial extent (au):  <R**2>=            783.8591
 Charge=             -0.0000 electrons
 Dipole moment (field-independent basis, Debye):
    X=             -1.2493    Y=              0.5566    Z=             -0.2231  Tot=              1.3857
 Quadrupole moment (field-independent basis, Debye-Ang):
   XX=            -24.5243   YY=            -28.5185   ZZ=            -26.6245
   XY=             -1.0122   XZ=             -3.0110   YZ=              0.1200
 Traceless Quadrupole moment (field-independent basis, Debye-Ang):
   XX=              2.0315   YY=             -1.9628   ZZ=             -0.0687
   XY=             -1.0122   XZ=             -3.0110   YZ=              0.1200
 Octapole moment (field-independent basis, Debye-Ang**2):
  XXX=             23.6178  YYY=            104.9334  ZZZ=             59.3852  XYY=             10.1111
  XXY=             34.2011  XXZ=             21.0570  XZZ=              2.6813  YZZ=             34.0758
  YYZ=             18.7651  XYZ=              0.1450
 Hexadecapole moment (field-independent basis, Debye-Ang**3):
 XXXX=            -75.3983 YYYY=           -557.2157 ZZZZ=           -463.9347 XXXY=            -57.4899
 XXXZ=            -41.4570 YYYX=            -66.1115 YYYZ=           -188.2166 ZZZX=            -46.0549
 ZZZY=           -186.8517 XXYY=           -104.5612 XXZZ=            -84.6871 YYZZ=           -165.6794
 XXYZ=            -62.7968 YYXZ=            -12.5176 ZZXY=            -19.5976
 N-N= 1.145222729199D+02 E-N=-6.818855425247D+02  KE= 1.929142431203D+02
  Exact polarizability:  45.106   6.286  68.470   2.359  16.125  62.544
 Approx polarizability:  47.517   3.836  59.592   1.450   8.831  55.229
                          Isotropic Fermi Contact Couplings
        Atom                 a.u.       MegaHertz       Gauss      10(-4) cm-1
     1  C(13)             -0.07945     -44.65855     -15.93528     -14.89649
     2  O(17)             -0.01665       5.04543       1.80034       1.68298
     3  H(1)               0.00826      18.45770       6.58617       6.15683
     4  H(1)               0.00617      13.78355       4.91831       4.59770
     5  H(1)               0.00144       3.21645       1.14771       1.07289
     6  C(13)              0.05293      29.75360      10.61682       9.92473
     7  C(13)             -0.02136     -12.00834      -4.28487      -4.00555
     8  H(1)              -0.01067     -23.85638      -8.51255      -7.95763
     9  H(1)              -0.01093     -24.41971      -8.71356      -8.14554
    10  H(1)               0.02431      54.34214      19.39062      18.12659
    11  H(1)               0.00577      12.89958       4.60289       4.30284
    12  H(1)               0.00506      11.30148       4.03265       3.76977
 --------------------------------------------------------
       Center         ----  Spin Dipole Couplings  ----
                      3XX-RR        3YY-RR        3ZZ-RR
 --------------------------------------------------------
     1   Atom        0.323657     -0.732320      0.408664
     2   Atom        0.288397     -0.622958      0.334561
     3   Atom       -0.041599      0.007324      0.034274
     4   Atom       -0.021125     -0.004762      0.025887
     5   Atom       -0.019326      0.013190      0.006136
     6   Atom       -0.373801      0.707174     -0.333374
     7   Atom       -0.009843     -0.001960      0.011803
     8   Atom        0.051495     -0.011733     -0.039762
     9   Atom        0.001248      0.009680     -0.010929
    10   Atom       -0.006772     -0.003345      0.010117
    11   Atom       -0.004334     -0.002454      0.006788
    12   Atom        0.002961     -0.005972      0.003011
 --------------------------------------------------------
                        XY            XZ            YZ
 --------------------------------------------------------
     1   Atom       -0.339518     -0.054334     -0.187800
     2   Atom       -0.202787     -0.026354     -0.176808
     3   Atom        0.000163      0.039995     -0.007716
     4   Atom        0.017979     -0.043718      0.018179
     5   Atom        0.006385      0.024365     -0.003919
     6   Atom        0.316954      0.107176      0.392316
     7   Atom        0.002265     -0.003028      0.002376
     8   Atom        0.002382     -0.034569      0.016816
     9   Atom       -0.023747      0.051767     -0.018382
    10   Atom        0.000835     -0.001409      0.003754
    11   Atom       -0.001690      0.001493     -0.010995
    12   Atom        0.002380     -0.009456     -0.006213
 --------------------------------------------------------


 ---------------------------------------------------------------------------------
              Anisotropic Spin Dipole Couplings in Principal Axis System
 ---------------------------------------------------------------------------------

       Atom             a.u.   MegaHertz   Gauss  10(-4) cm-1        Axes

              Baa    -0.8621  -115.691   -41.281   -38.590  0.2785  0.9483  0.1521
     1 C(13)  Bbb     0.4234    56.810    20.271    18.950  0.9604 -0.2739 -0.0509
              Bcc     0.4388    58.880    21.010    19.640  0.0066 -0.1602  0.9871
 
              Baa    -0.6969    50.428    17.994    16.821  0.2030  0.9642  0.1705
     2 O(17)  Bbb     0.3283   -23.758    -8.478    -7.925  0.9494 -0.1512 -0.2753
              Bcc     0.3686   -26.670    -9.516    -8.896  0.2397 -0.2177  0.9461
 
              Baa    -0.0589   -31.449   -11.222   -10.490  0.9164 -0.0485 -0.3972
     3 H(1)   Bbb     0.0064     3.407     1.216     1.137  0.1052  0.9869  0.1222
              Bcc     0.0526    28.041    10.006     9.354  0.3861 -0.1538  0.9096
 
              Baa    -0.0587   -31.319   -11.175   -10.447  0.7665 -0.4194  0.4863
     4 H(1)   Bbb     0.0059     3.143     1.121     1.048  0.4235  0.8994  0.1082
              Bcc     0.0528    28.176    10.054     9.399 -0.4828  0.1230  0.8671
 
              Baa    -0.0352   -18.805    -6.710    -6.273  0.8452 -0.1529 -0.5121
     5 H(1)   Bbb     0.0143     7.656     2.732     2.554  0.1342  0.9882 -0.0735
              Bcc     0.0209    11.149     3.978     3.719  0.5173 -0.0066  0.8558
 
              Baa    -0.4649   -62.386   -22.261   -20.810 -0.1903 -0.2649  0.9453
     6 C(13)  Bbb    -0.4598   -61.703   -22.017   -20.582  0.9495 -0.2944  0.1086
              Bcc     0.9247   124.089    44.278    41.392  0.2495  0.9182  0.3076
 
              Baa    -0.0110    -1.476    -0.527    -0.492  0.9480 -0.2782  0.1549
     7 C(13)  Bbb    -0.0015    -0.203    -0.072    -0.068  0.2954  0.9499 -0.1024
              Bcc     0.0125     1.679     0.599     0.560 -0.1186  0.1428  0.9826
 
              Baa    -0.0575   -30.671   -10.944   -10.231  0.2908 -0.3434  0.8930
     8 H(1)   Bbb    -0.0058    -3.073    -1.097    -1.025  0.1494  0.9382  0.3121
              Bcc     0.0632    33.744    12.041    11.256  0.9451 -0.0427 -0.3241
 
              Baa    -0.0570   -30.432   -10.859   -10.151 -0.6716 -0.0351  0.7401
     9 H(1)   Bbb    -0.0068    -3.642    -1.300    -1.215  0.3381  0.8743  0.3483
              Bcc     0.0639    34.074    12.158    11.366  0.6593 -0.4841  0.5753
 
              Baa    -0.0073    -3.894    -1.390    -1.299  0.9299 -0.3368  0.1478
    10 H(1)   Bbb    -0.0039    -2.064    -0.737    -0.689  0.3621  0.9088 -0.2074
              Bcc     0.0112     5.958     2.126     1.988 -0.0645  0.2464  0.9670
 
              Baa    -0.0098    -5.241    -1.870    -1.748  0.1092  0.8334  0.5418
    11 H(1)   Bbb    -0.0045    -2.414    -0.861    -0.805  0.9872 -0.0273 -0.1569
              Bcc     0.0143     7.655     2.732     2.554  0.1159 -0.5520  0.8257
 
              Baa    -0.0098    -5.237    -1.869    -1.747  0.2884  0.7609  0.5812
    12 H(1)   Bbb    -0.0045    -2.392    -0.853    -0.798  0.7049 -0.5796  0.4090
              Bcc     0.0143     7.629     2.722     2.545 -0.6481 -0.2917  0.7035
 

 ---------------------------------------------------------------------------------

 Entering OneElI...
 Calculate overlap and kinetic energy integrals
    NBasis = 300  MinDer = 2  MaxDer = 2
 Requested accuracy = 0.1000D-12
 PrsmSu:  NPrtUS=  32 ThrOK=T IAlg=1 NPAlg=1 LenDen=           0.
 PRISM was handed    12993051 working-precision words and  5027 shell-pairs
 PRISM was handed    12993051 working-precision words and  5027 shell-pairs
 PRISM was handed    12993051 working-precision words and  5027 shell-pairs
 PRISM was handed    12993051 working-precision words and  5027 shell-pairs
 PRISM was handed    12993051 working-precision words and  5027 shell-pairs
 PRISM was handed    12993051 working-precision words and  5027 shell-pairs
 PRISM was handed    12993051 working-precision words and  5027 shell-pairs
 PRISM was handed    12993051 working-precision words and  5027 shell-pairs
 PRISM was handed    12993051 working-precision words and  5027 shell-pairs
 PRISM was handed    12993051 working-precision words and  5027 shell-pairs
 PRISM was handed    12993051 working-precision words and  5027 shell-pairs
 Prism:   IPart=     0 DynPar=F LinDyn=F Incr=           1.
 PRISM was handed    12993051 working-precision words and  5027 shell-pairs
 PRISM was handed    12993051 working-precision words and  5027 shell-pairs
 PRISM was handed    12993051 working-precision words and  5027 shell-pairs
 PRISM was handed    12993051 working-precision words and  5027 shell-pairs
 PRISM was handed    12993051 working-precision words and  5027 shell-pairs
 PRISM was handed    12993051 working-precision words and  5027 shell-pairs
 PRISM was handed    12993051 working-precision words and  5027 shell-pairs
 PRISM was handed    12993051 working-precision words and  5027 shell-pairs
 PRISM was handed    12993051 working-precision words and  5027 shell-pairs
 PRISM was handed    12993051 working-precision words and  5027 shell-pairs
 PRISM was handed    12993051 working-precision words and  5027 shell-pairs
 PRISM was handed    12993051 working-precision words and  5027 shell-pairs
 PRISM was handed    12993051 working-precision words and  5027 shell-pairs
 PRISM was handed    12993051 working-precision words and  5027 shell-pairs
 PRISM was handed    12993051 working-precision words and  5027 shell-pairs
 PRISM was handed    12993051 working-precision words and  5027 shell-pairs
 PRISM was handed    12993051 working-precision words and  5027 shell-pairs
 PRISM was handed    12993051 working-precision words and  5027 shell-pairs
 PRISM was handed    12993051 working-precision words and  5027 shell-pairs
 PRISM was handed    12993051 working-precision words and  5027 shell-pairs
 PRISM was handed    12993051 working-precision words and  5027 shell-pairs
 IPart= 14 NShTot=         156 NBatch=          25 AvBLen=         6.2
 IPart= 22 NShTot=         144 NBatch=          21 AvBLen=         6.9
 IPart=  6 NShTot=         171 NBatch=          34 AvBLen=         5.0
 IPart= 26 NShTot=         142 NBatch=          21 AvBLen=         6.8
 IPart= 21 NShTot=         145 NBatch=          21 AvBLen=         6.9
 IPart= 10 NShTot=         164 NBatch=          28 AvBLen=         5.9
 IPart= 12 NShTot=         157 NBatch=          26 AvBLen=         6.0
 IPart= 17 NShTot=         148 NBatch=          22 AvBLen=         6.7
 IPart=  1 NShTot=         190 NBatch=          53 AvBLen=         3.6
 IPart= 20 NShTot=         146 NBatch=          21 AvBLen=         7.0
 IPart=  0 NShTot=         200 NBatch=          62 AvBLen=         3.2
 IPart= 19 NShTot=         147 NBatch=          21 AvBLen=         7.0
 IPart=  2 NShTot=         186 NBatch=          49 AvBLen=         3.8
 IPart= 15 NShTot=         153 NBatch=          22 AvBLen=         7.0
 IPart= 27 NShTot=         142 NBatch=          21 AvBLen=         6.8
 IPart= 18 NShTot=         147 NBatch=          21 AvBLen=         7.0
 IPart= 23 NShTot=         144 NBatch=          21 AvBLen=         6.9
 IPart= 31 NShTot=         139 NBatch=          20 AvBLen=         7.0
 IPart= 24 NShTot=         144 NBatch=          21 AvBLen=         6.9
 IPart= 11 NShTot=         161 NBatch=          28 AvBLen=         5.8
 IPart=  8 NShTot=         167 NBatch=          31 AvBLen=         5.4
 IPart=  3 NShTot=         183 NBatch=          46 AvBLen=         4.0
 IPart=  5 NShTot=         172 NBatch=          35 AvBLen=         4.9
 IPart= 13 NShTot=         157 NBatch=          26 AvBLen=         6.0
 IPart=  7 NShTot=         171 NBatch=          34 AvBLen=         5.0
 IPart= 28 NShTot=         142 NBatch=          21 AvBLen=         6.8
 IPart= 30 NShTot=         139 NBatch=          20 AvBLen=         7.0
 IPart= 29 NShTot=         140 NBatch=          20 AvBLen=         7.0
 IPart=  9 NShTot=         165 NBatch=          29 AvBLen=         5.7
 IPart= 25 NShTot=         143 NBatch=          21 AvBLen=         6.8
 IPart=  4 NShTot=         173 NBatch=          36 AvBLen=         4.8
 IPart= 16 NShTot=         149 NBatch=          22 AvBLen=         6.8
 PrSmSu:  NxtVal=             33.
 Entering OneElI...
 Calculate potential energy integrals
    NBasis = 300  MinDer = 2  MaxDer = 2
 Requested accuracy = 0.1000D-12
 PrsmSu:  NPrtUS=  32 ThrOK=T IAlg=1 NPAlg=1 LenDen=           0.
 Prism:   IPart=     0 DynPar=F LinDyn=F Incr=          17.
 PRISM was handed    13009143 working-precision words and  4739 shell-pairs
 PRISM was handed    13009143 working-precision words and  4739 shell-pairs
 PRISM was handed    13009143 working-precision words and  4739 shell-pairs
 PRISM was handed    13009143 working-precision words and  4739 shell-pairs
 PRISM was handed    13009143 working-precision words and  4739 shell-pairs
 PRISM was handed    13009143 working-precision words and  4739 shell-pairs
 PRISM was handed    13009143 working-precision words and  4739 shell-pairs
 PRISM was handed    13009143 working-precision words and  4739 shell-pairs
 PRISM was handed    13009143 working-precision words and  4739 shell-pairs
 PRISM was handed    13009143 working-precision words and  4739 shell-pairs
 PRISM was handed    13009143 working-precision words and  4739 shell-pairs
 PRISM was handed    13009143 working-precision words and  4739 shell-pairs
 PRISM was handed    13009143 working-precision words and  4739 shell-pairs
 PRISM was handed    13009143 working-precision words and  4739 shell-pairs
 PRISM was handed    13009143 working-precision words and  4739 shell-pairs
 PRISM was handed    13009143 working-precision words and  4739 shell-pairs
 PRISM was handed    13009143 working-precision words and  4739 shell-pairs
 PRISM was handed    13009143 working-precision words and  4739 shell-pairs
 PRISM was handed    13009143 working-precision words and  4739 shell-pairs
 PRISM was handed    13009143 working-precision words and  4739 shell-pairs
 PRISM was handed    13009143 working-precision words and  4739 shell-pairs
 PRISM was handed    13009143 working-precision words and  4739 shell-pairs
 PRISM was handed    13009143 working-precision words and  4739 shell-pairs
 PRISM was handed    13009143 working-precision words and  4739 shell-pairs
 PRISM was handed    13009143 working-precision words and  4739 shell-pairs
 PRISM was handed    13009143 working-precision words and  4739 shell-pairs
 PRISM was handed    13009143 working-precision words and  4739 shell-pairs
 PRISM was handed    13009143 working-precision words and  4739 shell-pairs
 PRISM was handed    13009143 working-precision words and  4739 shell-pairs
 PRISM was handed    13009143 working-precision words and  4739 shell-pairs
 PRISM was handed    13009143 working-precision words and  4739 shell-pairs
 PRISM was handed    13009143 working-precision words and  4739 shell-pairs
 IPart= 15 NShTot=        1704 NBatch=         142 AvBLen=        12.0
 IPart=  6 NShTot=        1956 NBatch=         163 AvBLen=        12.0
 IPart=  8 NShTot=        1908 NBatch=         159 AvBLen=        12.0
 IPart= 16 NShTot=        1704 NBatch=         142 AvBLen=        12.0
 IPart= 10 NShTot=        1824 NBatch=         152 AvBLen=        12.0
 IPart= 31 NShTot=        1560 NBatch=         130 AvBLen=        12.0
 IPart= 18 NShTot=        1704 NBatch=         142 AvBLen=        12.0
 IPart= 14 NShTot=        1704 NBatch=         142 AvBLen=        12.0
 IPart= 21 NShTot=        1692 NBatch=         141 AvBLen=        12.0
 IPart=  9 NShTot=        1848 NBatch=         154 AvBLen=        12.0
 IPart=  2 NShTot=        2076 NBatch=         173 AvBLen=        12.0
 IPart=  1 NShTot=        2124 NBatch=         177 AvBLen=        12.0
 IPart=  7 NShTot=        1932 NBatch=         161 AvBLen=        12.0
 IPart= 22 NShTot=        1692 NBatch=         141 AvBLen=        12.0
 IPart= 29 NShTot=        1584 NBatch=         132 AvBLen=        12.0
 IPart=  5 NShTot=        1956 NBatch=         163 AvBLen=        12.0
 IPart= 30 NShTot=        1572 NBatch=         131 AvBLen=        12.0
 IPart= 25 NShTot=        1620 NBatch=         135 AvBLen=        12.0
 IPart=  4 NShTot=        1968 NBatch=         164 AvBLen=        12.0
 IPart= 26 NShTot=        1608 NBatch=         134 AvBLen=        12.0
 IPart= 27 NShTot=        1596 NBatch=         133 AvBLen=        12.0
 IPart= 17 NShTot=        1704 NBatch=         142 AvBLen=        12.0
 IPart=  0 NShTot=        2268 NBatch=         189 AvBLen=        12.0
 IPart=  3 NShTot=        2052 NBatch=         171 AvBLen=        12.0
 IPart= 12 NShTot=        1752 NBatch=         146 AvBLen=        12.0
 IPart= 20 NShTot=        1692 NBatch=         141 AvBLen=        12.0
 IPart= 24 NShTot=        1632 NBatch=         136 AvBLen=        12.0
 IPart= 13 NShTot=        1716 NBatch=         143 AvBLen=        12.0
 IPart= 23 NShTot=        1656 NBatch=         138 AvBLen=        12.0
 IPart= 19 NShTot=        1692 NBatch=         141 AvBLen=        12.0
 IPart= 28 NShTot=        1596 NBatch=         133 AvBLen=        12.0
 IPart= 11 NShTot=        1776 NBatch=         148 AvBLen=        12.0
 PrSmSu:  NxtVal=            545.
 Polarizability after L701:
                1             2             3 
      1  0.451056D+02
      2  0.628565D+01  0.684700D+02
      3  0.235853D+01  0.161247D+02  0.625438D+02
 Dipole Derivatives after L701:
                 1             2             3             4             5 
      1   0.172252D+00 -0.828468D-01  0.723474D-01 -0.237824D+00  0.358215D-02
      2  -0.690152D-01  0.307427D-01  0.520073D+00  0.431408D-01 -0.448840D+00
      3  -0.873284D-02  0.670508D-01  0.120642D+01  0.839568D-01 -0.137130D+00
                 6             7             8             9            10 
      1  -0.774869D-01 -0.551889D-01 -0.232582D-01  0.125291D-01 -0.223051D-01
      2  -0.655616D+00 -0.101047D-01  0.501422D-01  0.280089D-01  0.570091D-01
      3  -0.151782D+01  0.554329D-01 -0.182389D-01  0.129056D-01 -0.799984D-01
                11            12            13            14            15 
      1   0.749129D-01 -0.534590D-03  0.168773D+00  0.358473D-02 -0.219446D-01
      2  -0.416041D-01  0.415354D-01 -0.419119D-01  0.356303D+00  0.312127D-01
      3  -0.441650D-02 -0.325620D-01 -0.653932D-01  0.470413D-01  0.325008D+00
                16            17            18            19            20 
      1   0.838155D-01 -0.149642D-01  0.288372D-01  0.482047D-01 -0.421142D-02
      2  -0.310025D-01  0.399643D-01  0.129074D+00 -0.216250D-01 -0.241625D-02
      3  -0.138863D-02  0.558976D-01  0.197391D+00 -0.237730D-01 -0.954589D-01
                21            22            23            24            25 
      1   0.521109D-02 -0.104324D+00 -0.163716D-01  0.363483D-01 -0.984521D-02
      2  -0.154254D-01 -0.166752D-01  0.427044D-01  0.140651D-01  0.531718D-01
      3  -0.736195D-03  0.637784D-01  0.363621D-03 -0.252725D-01 -0.459046D-01
                26            27            28            29            30 
      1   0.513854D-01 -0.166921D-01  0.772918D-01 -0.349653D-01 -0.229585D-01
      2  -0.894748D-02  0.460796D-01 -0.276286D-01 -0.689061D-01 -0.160553D+00
      3   0.484524D-01 -0.472234D-01 -0.906419D-02 -0.120459D+00 -0.120653D+00
                31            32            33            34            35 
      1   0.336504D-02  0.896673D-01 -0.276452D-01 -0.124215D+00 -0.465149D-01
      2   0.953134D-01 -0.274264D-01  0.302999D-01 -0.306719D-01  0.782841D-01
      3  -0.397964D-01  0.112626D+00 -0.126564D-01  0.708833D-01  0.442712D-01
                36 
      1   0.119890D-01
      2  -0.875425D-02
      3   0.151979D-01
 Hessian after L701:
                1             2             3             4             5 
      1  0.113027D+02
      2  0.505971D+00  0.129046D+02
      3  0.205987D+00 -0.150699D+00  0.419404D+01
      4 -0.688103D+01  0.481413D-01 -0.116276D+00  0.947316D+01
      5  0.419618D-01 -0.690024D+01  0.623261D-01  0.133878D+00  0.117876D+02
      6 -0.200961D+00  0.536268D-01  0.167522D+01  0.145354D+01 -0.493519D+00
      7 -0.153939D+01 -0.897046D-01 -0.988587D+00  0.145439D+00  0.676330D-02
      8 -0.651321D-02 -0.341603D+01 -0.216821D-01 -0.524298D-02  0.353335D-01
      9 -0.976761D+00  0.314826D-01 -0.290372D+01  0.212344D-01 -0.129964D-01
     10 -0.216133D+01 -0.780155D+00  0.879218D+00  0.102205D+00 -0.835162D-01
     11 -0.851836D+00 -0.279433D+01 -0.673830D+00 -0.845896D-01  0.674950D-01
     12  0.887587D+00 -0.619091D+00 -0.265579D+01  0.566785D-01 -0.783855D-01
     13  0.207394D-01 -0.450515D-02 -0.176469D+00 -0.256684D+01 -0.207927D+00
     14 -0.947797D-02 -0.149308D+00  0.776207D-02 -0.223169D+00 -0.510351D+01
     15 -0.926775D-01 -0.319715D-02  0.210651D-01 -0.154360D+01  0.113529D+00
     16 -0.594252D+00  0.242220D+00  0.123659D+00 -0.154245D+00  0.768077D-01
     17  0.245209D+00  0.185869D+00  0.465718D+00  0.873319D-01  0.104493D+00
     18  0.131432D+00  0.477442D+00 -0.390801D+00  0.871146D-01  0.265540D+00
     19 -0.123360D+00  0.554327D-01  0.529180D-01 -0.883289D-01  0.135611D-01
     20  0.506497D-01  0.102470D+00  0.227468D+00  0.158946D-01 -0.325659D-01
     21  0.352222D-01  0.167767D+00  0.405460D-01  0.180116D-01  0.801073D-01
     22  0.253031D-01  0.558047D-01  0.262892D-01  0.183510D-01  0.473422D-01
     23  0.204360D-01  0.123175D-01  0.134532D-01  0.238443D-01  0.571551D-02
     24 -0.618122D-02 -0.685867D-02 -0.229097D-01  0.128164D-01  0.155085D-01
     25 -0.186925D-01 -0.322877D-01 -0.837189D-02 -0.296064D-01 -0.259159D-01
     26  0.701380D-04  0.532982D-01  0.220407D-01  0.372757D-02  0.472240D-01
     27  0.152627D-02 -0.242467D-01 -0.259360D-01 -0.237417D-02  0.100715D-01
     28 -0.127091D-01  0.741873D-02  0.878797D-02 -0.488439D-02  0.357680D-02
     29  0.772306D-02  0.224486D-01  0.431050D-01  0.585797D-02  0.818994D-02
     30  0.746223D-02  0.350205D-01  0.271879D-01  0.471397D-02  0.121165D-01
     31 -0.863070D-02  0.116951D-01  0.296911D-01 -0.389022D-02  0.617314D-02
     32 -0.206248D-02 -0.160455D-01 -0.914996D-02 -0.439346D-02 -0.127941D-01
     33  0.128083D-01  0.190749D-01  0.274625D-01  0.105353D-01  0.116233D-01
     34 -0.934601D-02 -0.200311D-01 -0.368464D-01 -0.103272D-01 -0.127044D-01
     35 -0.213155D-02 -0.503098D-02  0.134888D-01 -0.127981D-02 -0.696433D-02
     36 -0.544357D-02  0.196784D-01  0.136297D-01 -0.240245D-02  0.140779D-01
                6             7             8             9            10 
      6  0.247567D+01
      7 -0.368409D-01  0.147785D+01
      8  0.139130D-01 -0.980994D-01  0.333973D+01
      9 -0.110390D+00  0.103869D+01 -0.318237D-01  0.292445D+01
     10  0.105793D+00 -0.162397D+00  0.714389D-01 -0.245797D-01  0.223620D+01
     11 -0.103087D+00  0.660447D-01  0.449146D-01  0.196138D-02  0.879203D+00
     12 -0.977932D-02 -0.555967D-02 -0.423858D-02  0.746096D-01 -0.933754D+00
     13 -0.142797D+01  0.472031D-01 -0.882130D-03 -0.620579D-01  0.228265D-01
     14  0.119857D+00 -0.400810D-02 -0.192302D-01  0.455843D-02 -0.211958D-02
     15 -0.417993D+01 -0.761829D-01  0.143677D-02  0.432919D-01  0.918904D-02
     16  0.577961D-01  0.177029D-01  0.859168D-02 -0.917051D-02 -0.841170D-02
     17  0.216442D+00  0.409497D-01 -0.436250D-03 -0.107035D-01 -0.348391D-01
     18  0.512844D-01  0.255531D-01  0.891730D-02 -0.189296D-01 -0.154709D-01
     19  0.237841D-01  0.446381D-02  0.194243D-01  0.111793D-01 -0.209814D-01
     20  0.102541D+00  0.464359D-01  0.556733D-02  0.183332D-01 -0.312081D-01
     21  0.758907D-01  0.303725D-01  0.274065D-01 -0.481251D-02 -0.131769D-01
     22  0.413069D-01  0.196384D-01  0.987729D-02 -0.382331D-02 -0.981483D-02
     23  0.251525D-01  0.103763D-01  0.248553D-02 -0.674382D-03 -0.198119D-02
     24 -0.755033D-02 -0.319795D-02 -0.544049D-03 -0.237167D-02  0.247727D-02
     25 -0.151387D-01 -0.838355D-02 -0.498905D-03  0.232285D-02  0.323404D-02
     26  0.457074D-01  0.148039D-01  0.867294D-02 -0.446588D-02 -0.114594D-01
     27 -0.181840D-01 -0.725747D-02 -0.275958D-02 -0.817442D-03  0.498843D-02
     28  0.448277D-02  0.175596D-02  0.122246D-02 -0.103491D-03 -0.201607D-02
     29  0.177661D-01  0.847066D-02  0.137017D-02 -0.105482D-02 -0.586368D-02
     30  0.878357D-02  0.572342D-02  0.144291D-02 -0.173286D-02 -0.403869D-02
     31  0.176223D-01  0.843405D-02  0.297741D-02  0.237766D-02 -0.739369D-02
     32 -0.660841D-02 -0.397991D-02 -0.222282D-02  0.240361D-02  0.318712D-02
     33  0.221852D-01  0.111377D-01  0.339167D-02  0.556669D-03 -0.553558D-02
     34 -0.234127D-01 -0.123203D-01 -0.229538D-02  0.692555D-03  0.787705D-02
     35  0.820941D-02  0.194762D-02 -0.163309D-03  0.297951D-02 -0.268724D-02
     36  0.167925D-01  0.615035D-02  0.453982D-02 -0.127582D-03 -0.511048D-02
               11            12            13            14            15 
     11  0.256862D+01
     12  0.689607D+00  0.268620D+01
     13  0.333412D-02 -0.224670D-02  0.249278D+01
     14  0.195396D-01  0.172183D-01  0.239283D+00  0.524017D+01
     15  0.162355D-01 -0.633849D-01  0.170415D+01 -0.190698D+00  0.412684D+01
     16 -0.517234D-02  0.241772D-02 -0.633227D-02  0.316793D-03 -0.171460D-02
     17  0.273114D-01 -0.179871D-01 -0.101083D-01  0.529576D-02  0.247633D-01
     18  0.232310D-01 -0.189699D-01 -0.202185D-01  0.219771D-01  0.266745D-01
     19 -0.660827D-02 -0.313386D-02 -0.602429D-02 -0.721279D-03 -0.888362D-03
     20  0.370610D-01  0.160251D-01 -0.915671D-02 -0.134596D-02  0.176871D-01
     21  0.352319D-01 -0.752383D-02 -0.867151D-02  0.900692D-02  0.151039D-01
     22  0.138063D-01 -0.555199D-02 -0.784720D-02  0.535546D-02  0.107916D-01
     23  0.700800D-02 -0.217575D-02 -0.129816D-02  0.223835D-02  0.625626D-02
     24 -0.305289D-02 -0.139373D-02  0.101528D-02  0.299428D-02  0.204178D-03
     25 -0.101800D-01  0.360316D-02  0.313666D-02 -0.457492D-02 -0.699448D-02
     26  0.181110D-01 -0.533324D-02 -0.800307D-02  0.716600D-02  0.120026D-01
     27 -0.652652D-02 -0.757892D-03  0.102057D-02  0.267435D-02 -0.227662D-02
     28  0.933193D-03 -0.544535D-03 -0.102961D-02  0.180467D-03  0.848795D-03
     29  0.646932D-02 -0.163393D-02 -0.357649D-02  0.122378D-02  0.516309D-02
     30  0.426511D-02 -0.218807D-02 -0.299866D-02  0.167613D-02  0.393048D-02
     31  0.533579D-02 -0.102662D-03 -0.295310D-02  0.773054D-03  0.351822D-02
     32 -0.385397D-02  0.359595D-02  0.260731D-02 -0.155539D-02 -0.325847D-02
     33  0.988664D-02 -0.811651D-04 -0.320663D-02  0.172383D-02  0.547137D-02
     34 -0.102716D-01  0.606915D-03  0.434903D-02 -0.183722D-02 -0.644059D-02
     35  0.165007D-02  0.239811D-02  0.232937D-03 -0.691072D-03  0.794908D-04
     36  0.607827D-02 -0.943360D-03 -0.233876D-02  0.124944D-02  0.301036D-02
               16            17            18            19            20 
     16  0.864129D+01
     17  0.294177D+00  0.993860D+01
     18  0.501488D+00  0.470887D+00  0.617027D+01
     19 -0.452163D+01  0.127244D+00 -0.806628D+00  0.110580D+02
     20  0.118567D+00 -0.457057D+01 -0.476643D+00 -0.974191D-01  0.109442D+02
     21 -0.826746D+00 -0.522766D+00 -0.557653D+00  0.426801D+00  0.660765D-02
     22 -0.116534D+01 -0.446064D-01 -0.812925D+00  0.769316D-01  0.740222D-02
     23  0.413324D-01 -0.320590D+01 -0.205910D-01  0.255557D-03 -0.127473D-01
     24 -0.777451D+00  0.183291D-01 -0.292736D+01 -0.568286D-02 -0.542184D-02
     25 -0.232638D+01 -0.707346D+00  0.891929D+00  0.314406D-01 -0.352006D-01
     26 -0.786178D+00 -0.263158D+01 -0.777235D+00 -0.268618D-01  0.187996D-01
     27  0.897096D+00 -0.698085D+00 -0.239453D+01  0.114151D-01 -0.140738D-01
     28  0.532425D-02  0.216582D-01  0.327910D-01 -0.282729D+01  0.315507D+00
     29  0.169438D-01  0.101458D+00  0.112962D+00  0.316420D+00 -0.156250D+01
     30  0.227210D-01  0.841356D-01  0.450196D-01  0.223101D+00  0.949907D+00
     31  0.928141D-02 -0.494863D-01  0.511235D-01 -0.246636D+01 -0.850536D+00
     32 -0.424286D-01  0.508622D-01 -0.828393D-01 -0.825148D+00 -0.193496D+01
     33  0.175608D-01 -0.293405D-01  0.233762D-01  0.514950D+00 -0.725360D+00
     34  0.102994D+00  0.298162D-01 -0.661885D-01 -0.111683D+01  0.469064D+00
     35  0.348219D-01 -0.540999D-02 -0.236481D-01  0.424421D+00 -0.299337D+01
     36 -0.765630D-02 -0.139194D-02 -0.838217D-02 -0.447815D+00 -0.117070D+00
               21            22            23            24            25 
     21  0.845768D+01
     22 -0.450412D-01  0.112224D+01
     23  0.274359D-02 -0.159241D+00  0.315271D+01
     24 -0.174975D-01  0.845638D+00 -0.271055D-01  0.292479D+01
     25  0.496420D-01 -0.121475D+00  0.643923D-01 -0.478666D-01  0.246338D+01
     26 -0.288580D-01  0.547071D-01  0.397524D-01  0.996495D-02  0.769035D+00
     27 -0.180403D-02 -0.142804D-01  0.365582D-03  0.580795D-01 -0.910494D+00
     28  0.219919D+00 -0.627435D-03  0.806568D-03  0.620941D-02  0.385491D-02
     29  0.938016D+00 -0.107418D-01  0.352495D-02  0.373552D-02  0.779001D-02
     30 -0.223674D+01 -0.405436D-02 -0.113547D-02 -0.435136D-02  0.650825D-02
     31  0.463986D+00 -0.205110D-02 -0.504798D-02  0.975316D-02  0.234973D-02
     32 -0.631501D+00  0.991230D-02  0.293222D-02 -0.797278D-03 -0.191863D-01
     33 -0.272104D+01 -0.326702D-02  0.786875D-02 -0.857478D-02  0.247691D-01
     34 -0.350319D+00  0.446927D-01  0.612506D-02 -0.375296D-01 -0.285336D-02
     35 -0.837614D-01  0.103818D-01 -0.100417D-01 -0.675216D-02 -0.602650D-02
     36 -0.304216D+01 -0.350824D-01 -0.415782D-02  0.893603D-02  0.100912D-01
               26            27            28            29            30 
     26  0.242663D+01
     27  0.753563D+00  0.236731D+01
     28 -0.155295D-02  0.180166D-02  0.283654D+01
     29 -0.433482D-02  0.974021D-02 -0.323417D+00  0.148053D+01
     30 -0.442215D-02  0.111699D-02 -0.258885D+00 -0.109825D+01  0.211782D+01
     31 -0.154821D-01  0.240194D-01  0.175111D-01 -0.413257D-02  0.274300D-02
     32  0.118614D-01 -0.334302D-01  0.354619D-01 -0.497853D-01  0.153216D-01
     33 -0.288428D-01  0.279313D-01  0.137801D-01 -0.205070D-01  0.230557D-01
     34  0.719378D-02 -0.746204D-02 -0.164363D-01 -0.154734D-01 -0.299598D-02
     35  0.440418D-02  0.270739D-02 -0.617950D-01 -0.859510D-02 -0.748002D-04
     36  0.587898D-02 -0.101355D-01 -0.290876D-01 -0.903915D-02  0.180961D-01
               31            32            33            34            35 
     31  0.252396D+01
     32  0.831092D+00  0.192477D+01
     33 -0.580111D+00  0.749568D+00  0.256541D+01
     34 -0.702571D-01  0.149386D-01 -0.134208D-01  0.107846D+01
     35  0.666387D-01  0.307906D-01  0.913419D-03 -0.464524D+00  0.299342D+01
     36 -0.246203D-01 -0.330440D-02  0.342418D-01  0.543316D+00  0.834604D-01
               36 
     36  0.296704D+01
 ICntrl=    100127.
 Calling FoFJK, ICntrl=    100127 FMM=F ISym2X=0 I1Cent= 0 IOpClX= 1 NMat=1 NMatS=1 NMatT=0.
 FoFJK:  IHMeth= 1 ICntrl=  100127 DoSepK=T KAlg= 0 I1Cent=   0 FoldK=F
 IRaf=         1 NMat=   1 IRICut=       1 DoRegI=T DoRafI=F ISym2E= 0.
 FoFCou: FMM=F IPFlag=           0 FMFlag=      100000 FMFlg1=         800
         NFxFlg=           0 DoJE=F BraDBF=F KetDBF=F FulRan=T
         wScrn=  0.000000 ICntrl=  100527 IOpCl=  0 I1Cent=           0 NGrid=           0
         NMat0=    1 NMatS0=      1 NMatT0=    0 NMatD0=    1 NMtDS0=    0 NMtDT0=    0
 Symmetry not used in FoFCou.
 FoFCou:  KetSym=F NOpSet=  1 NOpAb=1 NOp=  1.
 FoFCou:  CnvScl= 1.00D+00 Thresh= 1.00D-10 IAcrcy=      10.
 PrismS was handed   418918260 working-precision words and  4921 shell-pairs
 FoFCou: LinMIO=F DoNuc=F BraDBF=F KetDBF=F HaveP=T PDBF=F HaveZ=T HaveW=F
         NIJTC =      10 NIJTAt=       0 NIJTCD=       0 NIJTT =      10
         IJTBeg=       1 IJTEnd=      10 KLTBeg=       1 KLTEnd=      10
         IPTBeg=       1 IPTEnd=      10 IPTBCv=       1 IPTECv=      10
         IZTBeg=       1 IZTEnd=      10 IZTBCv=       1 IZTECv=      10
         IWTBeg=      11 IWTEnd=      10 IWTBCv=      11 IWTECv=      10
         INTBeg=       1 INTEnd=       0 IFTBCv=       1 IFTECv=      10
 NCel replicated for PrismC:     1
 CoulSu:  IncDef=  1024 NBBP=       12110581 NTPThr=   100 NPartT=   32 Incr=        1024 LDynOK=F.
 CoulSu:  NPrtUS=  32 ThrOK=T IAlg=1 NPAlg=1 LenDen=           0 LWGrdD=           0 DoCopy=F.
 Enter PrismC: JobTyp=22 DoJE=F Cont=F.
 Enter PrismC: JobTyp=22 DoJE=F Cont=F.
 Enter PrismC: JobTyp=22 DoJE=F Cont=F.
 Enter PrismC: JobTyp=22 DoJE=F Cont=F.
 PrismC was handed    12999695 working-precision words and  4921 shell-pairs
 Enter PrismC: JobTyp=22 DoJE=F Cont=F.
 PrismC was handed    12999695 working-precision words and  4921 shell-pairs
 Enter PrismC: JobTyp=22 DoJE=F Cont=F.
 Enter PrismC: JobTyp=22 DoJE=F Cont=F.
 Enter PrismC: JobTyp=22 DoJE=F Cont=F.
 PrismC:  IPart=     0 DynPar=T LinDyn=F Incr=        1024 UseFst=F UseS4=T IGathr=2.
 Enter PrismC: JobTyp=22 DoJE=F Cont=F.
 PrismC was handed    12999695 working-precision words and  4921 shell-pairs
 Enter PrismC: JobTyp=22 DoJE=F Cont=F.
 PrismC was handed    12999695 working-precision words and  4921 shell-pairs
 Enter PrismC: JobTyp=22 DoJE=F Cont=F.
 PrismC was handed    12999695 working-precision words and  4921 shell-pairs
 Enter PrismC: JobTyp=22 DoJE=F Cont=F.
 PrismC was handed    12999695 working-precision words and  4921 shell-pairs
 Enter PrismC: JobTyp=22 DoJE=F Cont=F.
 Enter PrismC: JobTyp=22 DoJE=F Cont=F.
 Enter PrismC: JobTyp=22 DoJE=F Cont=F.
 PrismC was handed    12999695 working-precision words and  4921 shell-pairs
 Enter PrismC: JobTyp=22 DoJE=F Cont=F.
 PrismC was handed    12999695 working-precision words and  4921 shell-pairs
 Enter PrismC: JobTyp=22 DoJE=F Cont=F.
 PrismC was handed    12999695 working-precision words and  4921 shell-pairs
 Enter PrismC: JobTyp=22 DoJE=F Cont=F.
 Enter PrismC: JobTyp=22 DoJE=F Cont=F.
 PrismC was handed    12999695 working-precision words and  4921 shell-pairs
 Enter PrismC: JobTyp=22 DoJE=F Cont=F.
 PrismC was handed    12999695 working-precision words and  4921 shell-pairs
 Enter PrismC: JobTyp=22 DoJE=F Cont=F.
 Enter PrismC: JobTyp=22 DoJE=F Cont=F.
 PrismC was handed    12999695 working-precision words and  4921 shell-pairs
 PrismC was handed    12999695 working-precision words and  4921 shell-pairs
 PrismC was handed    12999695 working-precision words and  4921 shell-pairs
 Enter PrismC: JobTyp=22 DoJE=F Cont=F.
 PrismC was handed    12999695 working-precision words and  4921 shell-pairs
 Enter PrismC: JobTyp=22 DoJE=F Cont=F.
 PrismC was handed    12999695 working-precision words and  4921 shell-pairs
 PrismC was handed    12999695 working-precision words and  4921 shell-pairs
 PrismC was handed    12999695 working-precision words and  4921 shell-pairs
 Enter PrismC: JobTyp=22 DoJE=F Cont=F.
 Enter PrismC: JobTyp=22 DoJE=F Cont=F.
 Enter PrismC: JobTyp=22 DoJE=F Cont=F.
 PrismC was handed    12999695 working-precision words and  4921 shell-pairs
 PrismC was handed    12999695 working-precision words and  4921 shell-pairs
 PrismC was handed    12999695 working-precision words and  4921 shell-pairs
 Enter PrismC: JobTyp=22 DoJE=F Cont=F.
 Enter PrismC: JobTyp=22 DoJE=F Cont=F.
 Enter PrismC: JobTyp=22 DoJE=F Cont=F.
 PrismC was handed    12999695 working-precision words and  4921 shell-pairs
 Enter PrismC: JobTyp=22 DoJE=F Cont=F.
 PrismC was handed    12999695 working-precision words and  4921 shell-pairs
 PrismC was handed    12999695 working-precision words and  4921 shell-pairs
 PrismC was handed    12999695 working-precision words and  4921 shell-pairs
 PrismC was handed    12999695 working-precision words and  4921 shell-pairs
 PrismC was handed    12999695 working-precision words and  4921 shell-pairs
 Enter PrismC: JobTyp=22 DoJE=F Cont=F.
 PrismC was handed    12999695 working-precision words and  4921 shell-pairs
 PrismC was handed    12999695 working-precision words and  4921 shell-pairs
 PrismC was handed    12999695 working-precision words and  4921 shell-pairs
 PrismC was handed    12999695 working-precision words and  4921 shell-pairs
 PrismC was handed    12999695 working-precision words and  4921 shell-pairs
 IPart= 19 NShTot=      291998 NShNF=      291998 NShFF=           0 NBatch=        5818 AvBLen=        50.2
 IPart= 25 NShTot=      283114 NShNF=      283114 NShFF=           0 NBatch=        5531 AvBLen=        51.2
 IPart= 29 NShTot=      313881 NShNF=      313881 NShFF=           0 NBatch=        6736 AvBLen=        46.6
 IPart=  7 NShTot=      278570 NShNF=      278570 NShFF=           0 NBatch=        5122 AvBLen=        54.4
 IPart= 24 NShTot=      259149 NShNF=      259149 NShFF=           0 NBatch=        5429 AvBLen=        47.7
 IPart= 28 NShTot=      242108 NShNF=      242108 NShFF=           0 NBatch=        5309 AvBLen=        45.6
 IPart=  1 NShTot=      293496 NShNF=      293496 NShFF=           0 NBatch=        6143 AvBLen=        47.8
 IPart=  4 NShTot=      284066 NShNF=      284066 NShFF=           0 NBatch=        5842 AvBLen=        48.6
 IPart= 10 NShTot=      269225 NShNF=      269225 NShFF=           0 NBatch=        5734 AvBLen=        47.0
 IPart= 17 NShTot=      262513 NShNF=      262513 NShFF=           0 NBatch=        5226 AvBLen=        50.2
 IPart= 12 NShTot=      280604 NShNF=      280604 NShFF=           0 NBatch=        5805 AvBLen=        48.3
 IPart= 11 NShTot=      306511 NShNF=      306511 NShFF=           0 NBatch=        6274 AvBLen=        48.9
 IPart= 15 NShTot=      286429 NShNF=      286429 NShFF=           0 NBatch=        5652 AvBLen=        50.7
 IPart=  3 NShTot=      286446 NShNF=      286446 NShFF=           0 NBatch=        5707 AvBLen=        50.2
 IPart=  5 NShTot=      276585 NShNF=      276585 NShFF=           0 NBatch=        5348 AvBLen=        51.7
 IPart= 16 NShTot=      309486 NShNF=      309486 NShFF=           0 NBatch=        6043 AvBLen=        51.2
 IPart=  6 NShTot=      274103 NShNF=      274103 NShFF=           0 NBatch=        5037 AvBLen=        54.4
 IPart= 22 NShTot=      289433 NShNF=      289433 NShFF=           0 NBatch=        6355 AvBLen=        45.5
 IPart= 23 NShTot=      265496 NShNF=      265496 NShFF=           0 NBatch=        6014 AvBLen=        44.1
 IPart=  0 NShTot=      267820 NShNF=      267820 NShFF=           0 NBatch=        6539 AvBLen=        41.0
 IPart= 13 NShTot=      284035 NShNF=      284035 NShFF=           0 NBatch=        6434 AvBLen=        44.1
 IPart= 14 NShTot=      297680 NShNF=      297680 NShFF=           0 NBatch=        6799 AvBLen=        43.8
 IPart= 31 NShTot=      274184 NShNF=      274184 NShFF=           0 NBatch=        6510 AvBLen=        42.1
 IPart= 21 NShTot=      293825 NShNF=      293825 NShFF=           0 NBatch=        5566 AvBLen=        52.8
 IPart= 27 NShTot=      307197 NShNF=      307197 NShFF=           0 NBatch=        5824 AvBLen=        52.7
 IPart= 18 NShTot=      303537 NShNF=      303537 NShFF=           0 NBatch=        5763 AvBLen=        52.7
 IPart=  9 NShTot=      295835 NShNF=      295835 NShFF=           0 NBatch=        6578 AvBLen=        45.0
 IPart= 20 NShTot=      268768 NShNF=      268768 NShFF=           0 NBatch=        5995 AvBLen=        44.8
 IPart=  8 NShTot=      256021 NShNF=      256021 NShFF=           0 NBatch=        4480 AvBLen=        57.1
 IPart= 30 NShTot=      286534 NShNF=      286534 NShFF=           0 NBatch=        6398 AvBLen=        44.8
 IPart=  2 NShTot=      308451 NShNF=      308451 NShFF=           0 NBatch=        6655 AvBLen=        46.3
 IPart= 26 NShTot=      285703 NShNF=      285703 NShFF=           0 NBatch=        6184 AvBLen=        46.2
 CoulSu:  NxtVal=       13112321.
 FoFCou: FMM=F IPFlag=           0 FMFlag=      100000 FMFlg1=         800
         NFxFlg=           0 DoJE=F BraDBF=F KetDBF=F FulRan=T
         wScrn=  0.000000 ICntrl=  100127 IOpCl=  1 I1Cent=           0 NGrid=           0
         NMat0=    1 NMatS0=      0 NMatT0=    1 NMatD0=    1 NMtDS0=    0 NMtDT0=    0
         CW=    0.222036    0.777964
         WU=    0.000000   12.500000
 Symmetry not used in FoFCou.
 FoFCou:  KetSym=F NOpSet=  1 NOpAb=1 NOp=  1.
 FoFCou:  CnvScl= 1.00D+00 Thresh= 1.00D-10 IAcrcy=      10.
 PrismS was handed   418913294 working-precision words and  4921 shell-pairs
 FoFCou: LinMIO=F DoNuc=F BraDBF=F KetDBF=F HaveP=T PDBF=F HaveZ=T HaveW=F
         NIJTC =      10 NIJTAt=       0 NIJTCD=       0 NIJTT =      10
         IJTBeg=       1 IJTEnd=      10 KLTBeg=       1 KLTEnd=      10
         IPTBeg=       1 IPTEnd=      10 IPTBCv=       1 IPTECv=      10
         IZTBeg=       1 IZTEnd=      10 IZTBCv=       1 IZTECv=      10
         IWTBeg=      11 IWTEnd=      10 IWTBCv=      11 IWTECv=      10
         INTBeg=       1 INTEnd=       0 IFTBCv=       1 IFTECv=      10
 NCel replicated for PrismC:     1
 CoulSu:  IncDef=  1024 NBBP=       12110581 NTPThr=   100 NPartT=   32 Incr=        1024 LDynOK=F.
 CoulSu:  NPrtUS=  32 ThrOK=T IAlg=1 NPAlg=1 LenDen=           0 LWGrdD=           0 DoCopy=F.
 Enter PrismC: JobTyp=22 DoJE=F Cont=F.
 Linear combination for Coulomb/exchange, wScrn=  0.000000
 CW=    0.222036    0.777964
 WU=    0.000000   12.500000
 PrismC:  IPart=     0 DynPar=T LinDyn=F Incr=        1024 UseFst=F UseS4=T IGathr=2.
 PrismC was handed    12999539 working-precision words and  4921 shell-pairs
 Enter PrismC: JobTyp=22 DoJE=F Cont=F.
 Linear combination for Coulomb/exchange, wScrn=  0.000000
 CW=    0.222036    0.777964
 Enter PrismC: JobTyp=22 DoJE=F Cont=F.
 Linear combination for Coulomb/exchange, wScrn=  0.000000
 CW=    0.222036    0.777964
 WU=    0.000000   12.500000
 Enter PrismC: JobTyp=22 DoJE=F Cont=F.
 Enter PrismC: JobTyp=22 DoJE=F Cont=F.
 Enter PrismC: JobTyp=22 DoJE=F Cont=F.
 Linear combination for Coulomb/exchange, wScrn=  0.000000
 CW=    0.222036    0.777964
 WU=    0.000000   12.500000
 PrismC was handed    12999539 working-precision words and  4921 shell-pairs
 Enter PrismC: JobTyp=22 DoJE=F Cont=F.
 Linear combination for Coulomb/exchange, wScrn=  0.000000
 CW=    0.222036    0.777964
 WU=    0.000000   12.500000
 Linear combination for Coulomb/exchange, wScrn=  0.000000
 CW=    0.222036    0.777964
 WU=    0.000000   12.500000
 Enter PrismC: JobTyp=22 DoJE=F Cont=F.
 Linear combination for Coulomb/exchange, wScrn=  0.000000
 CW=    0.222036    0.777964
 WU=    0.000000   12.500000
 PrismC was handed    12999539 working-precision words and  4921 shell-pairs
 PrismC was handed    12999539 working-precision words and  4921 shell-pairs
 Enter PrismC: JobTyp=22 DoJE=F Cont=F.
 Linear combination for Coulomb/exchange, wScrn=  0.000000
 CW=    0.222036    0.777964
 Enter PrismC: JobTyp=22 DoJE=F Cont=F.
 Linear combination for Coulomb/exchange, wScrn=  0.000000
 CW=    0.222036    0.777964
 WU=    0.000000   12.500000
 Enter PrismC: JobTyp=22 DoJE=F Cont=F.
 Linear combination for Coulomb/exchange, wScrn=  0.000000
 CW=    0.222036    0.777964
 WU=    0.000000   12.500000
 WU=    0.000000   12.500000
 PrismC was handed    12999539 working-precision words and  4921 shell-pairs
 Enter PrismC: JobTyp=22 DoJE=F Cont=F.
 Linear combination for Coulomb/exchange, wScrn=  0.000000
 CW=    0.222036    0.777964
 WU=    0.000000   12.500000
 Enter PrismC: JobTyp=22 DoJE=F Cont=F.
 Linear combination for Coulomb/exchange, wScrn=  0.000000
 CW=    0.222036    0.777964
 WU=    0.000000   12.500000
 Enter PrismC: JobTyp=22 DoJE=F Cont=F.
 Linear combination for Coulomb/exchange, wScrn=  0.000000
 CW=    0.222036    0.777964
 WU=    0.000000   12.500000
 Enter PrismC: JobTyp=22 DoJE=F Cont=F.
 Linear combination for Coulomb/exchange, wScrn=  0.000000
 CW=    0.222036    0.777964
 WU=    0.000000   12.500000
 PrismC was handed    12999539 working-precision words and  4921 shell-pairs
 Enter PrismC: JobTyp=22 DoJE=F Cont=F.
 Linear combination for Coulomb/exchange, wScrn=  0.000000
 CW=    0.222036    0.777964
 WU=    0.000000   12.500000
 Enter PrismC: JobTyp=22 DoJE=F Cont=F.
 PrismC was handed    12999539 working-precision words and  4921 shell-pairs
 Enter PrismC: JobTyp=22 DoJE=F Cont=F.
 Linear combination for Coulomb/exchange, wScrn=  0.000000
 CW=    0.222036    0.777964
 WU=    0.000000   12.500000
 PrismC was handed    12999539 working-precision words and  4921 shell-pairs
 Enter PrismC: JobTyp=22 DoJE=F Cont=F.
 Linear combination for Coulomb/exchange, wScrn=  0.000000
 CW=    0.222036    0.777964
 WU=    0.000000   12.500000
 Enter PrismC: JobTyp=22 DoJE=F Cont=F.
 Enter PrismC: JobTyp=22 DoJE=F Cont=F.
 Linear combination for Coulomb/exchange, wScrn=  0.000000
 CW=    0.222036    0.777964
 WU=    0.000000   12.500000
 PrismC was handed    12999539 working-precision words and  4921 shell-pairs
 Enter PrismC: JobTyp=22 DoJE=F Cont=F.
 Linear combination for Coulomb/exchange, wScrn=  0.000000
 CW=    0.222036    0.777964
 WU=    0.000000   12.500000
 PrismC was handed    12999539 working-precision words and  4921 shell-pairs
 Enter PrismC: JobTyp=22 DoJE=F Cont=F.
 Linear combination for Coulomb/exchange, wScrn=  0.000000
 CW=    0.222036    0.777964
 WU=    0.000000   12.500000
 PrismC was handed    12999539 working-precision words and  4921 shell-pairs
 PrismC was handed    12999539 working-precision words and  4921 shell-pairs
 Enter PrismC: JobTyp=22 DoJE=F Cont=F.
 Linear combination for Coulomb/exchange, wScrn=  0.000000
 CW=    0.222036    0.777964
 WU=    0.000000   12.500000
 Linear combination for Coulomb/exchange, wScrn=  0.000000
 CW=    0.222036    0.777964
 WU=    0.000000   12.500000
 PrismC was handed    12999539 working-precision words and  4921 shell-pairs
 Enter PrismC: JobTyp=22 DoJE=F Cont=F.
 PrismC was handed    12999539 working-precision words and  4921 shell-pairs
 Enter PrismC: JobTyp=22 DoJE=F Cont=F.
 Linear combination for Coulomb/exchange, wScrn=  0.000000
 CW=    0.222036    0.777964
 PrismC was handed    12999539 working-precision words and  4921 shell-pairs
 PrismC was handed    12999539 working-precision words and  4921 shell-pairs
 Enter PrismC: JobTyp=22 DoJE=F Cont=F.
 Linear combination for Coulomb/exchange, wScrn=  0.000000
 CW=    0.222036    0.777964
 WU=    0.000000   12.500000
 PrismC was handed    12999539 working-precision words and  4921 shell-pairs
 Enter PrismC: JobTyp=22 DoJE=F Cont=F.
 PrismC was handed    12999539 working-precision words and  4921 shell-pairs
 Enter PrismC: JobTyp=22 DoJE=F Cont=F.
 Linear combination for Coulomb/exchange, wScrn=  0.000000
 CW=    0.222036    0.777964
 WU=    0.000000   12.500000
 PrismC was handed    12999539 working-precision words and  4921 shell-pairs
 PrismC was handed    12999539 working-precision words and  4921 shell-pairs
 PrismC was handed    12999539 working-precision words and  4921 shell-pairs
 Linear combination for Coulomb/exchange, wScrn=  0.000000
 CW=    0.222036    0.777964
 WU=    0.000000   12.500000
 PrismC was handed    12999539 working-precision words and  4921 shell-pairs
 Enter PrismC: JobTyp=22 DoJE=F Cont=F.
 Linear combination for Coulomb/exchange, wScrn=  0.000000
 CW=    0.222036    0.777964
 WU=    0.000000   12.500000
 WU=    0.000000   12.500000
 Linear combination for Coulomb/exchange, wScrn=  0.000000
 CW=    0.222036    0.777964
 WU=    0.000000   12.500000
 PrismC was handed    12999539 working-precision words and  4921 shell-pairs
 PrismC was handed    12999539 working-precision words and  4921 shell-pairs
 Enter PrismC: JobTyp=22 DoJE=F Cont=F.
 Linear combination for Coulomb/exchange, wScrn=  0.000000
 CW=    0.222036    0.777964
 WU=    0.000000   12.500000
 Linear combination for Coulomb/exchange, wScrn=  0.000000
 CW=    0.222036    0.777964
 WU=    0.000000   12.500000
 PrismC was handed    12999539 working-precision words and  4921 shell-pairs
 WU=    0.000000   12.500000
 Linear combination for Coulomb/exchange, wScrn=  0.000000
 CW=    0.222036    0.777964
 WU=    0.000000   12.500000
 PrismC was handed    12999539 working-precision words and  4921 shell-pairs
 PrismC was handed    12999539 working-precision words and  4921 shell-pairs
 PrismC was handed    12999539 working-precision words and  4921 shell-pairs
 PrismC was handed    12999539 working-precision words and  4921 shell-pairs
 PrismC was handed    12999539 working-precision words and  4921 shell-pairs
 Enter PrismC: JobTyp=22 DoJE=F Cont=F.
 Linear combination for Coulomb/exchange, wScrn=  0.000000
 CW=    0.222036    0.777964
 WU=    0.000000   12.500000
 PrismC was handed    12999539 working-precision words and  4921 shell-pairs
 PrismC was handed    12999539 working-precision words and  4921 shell-pairs
 IPart= 14 NShTot=      271350 NShNF=      271350 NShFF=           0 NBatch=        6495 AvBLen=        41.8
 IPart=  5 NShTot=      299019 NShNF=      299019 NShFF=           0 NBatch=        7235 AvBLen=        41.3
 IPart= 23 NShTot=      283232 NShNF=      283232 NShFF=           0 NBatch=        7323 AvBLen=        38.7
 IPart=  4 NShTot=      290787 NShNF=      290787 NShFF=           0 NBatch=        7419 AvBLen=        39.2
 IPart= 21 NShTot=      281328 NShNF=      281328 NShFF=           0 NBatch=        7659 AvBLen=        36.7
 IPart=  7 NShTot=      274324 NShNF=      274324 NShFF=           0 NBatch=        6887 AvBLen=        39.8
 IPart= 29 NShTot=      300032 NShNF=      300032 NShFF=           0 NBatch=        7497 AvBLen=        40.0
 IPart= 16 NShTot=      288928 NShNF=      288928 NShFF=           0 NBatch=        7837 AvBLen=        36.9
 IPart=  3 NShTot=      278569 NShNF=      278569 NShFF=           0 NBatch=        7100 AvBLen=        39.2
 IPart= 25 NShTot=      299308 NShNF=      299308 NShFF=           0 NBatch=        7659 AvBLen=        39.1
 IPart= 10 NShTot=      267202 NShNF=      267202 NShFF=           0 NBatch=        6306 AvBLen=        42.4
 IPart=  2 NShTot=      284803 NShNF=      284803 NShFF=           0 NBatch=        7260 AvBLen=        39.2
 IPart=  1 NShTot=      273254 NShNF=      273254 NShFF=           0 NBatch=        6568 AvBLen=        41.6
 IPart=  8 NShTot=      296403 NShNF=      296403 NShFF=           0 NBatch=        7479 AvBLen=        39.6
 IPart= 20 NShTot=      293287 NShNF=      293287 NShFF=           0 NBatch=        7850 AvBLen=        37.4
 IPart=  0 NShTot=      301360 NShNF=      301360 NShFF=           0 NBatch=        7285 AvBLen=        41.4
 IPart=  9 NShTot=      284521 NShNF=      284521 NShFF=           0 NBatch=        7462 AvBLen=        38.1
 IPart= 24 NShTot=      297423 NShNF=      297423 NShFF=           0 NBatch=        7652 AvBLen=        38.9
 IPart= 13 NShTot=      281678 NShNF=      281678 NShFF=           0 NBatch=        7414 AvBLen=        38.0
 IPart= 30 NShTot=      283133 NShNF=      283133 NShFF=           0 NBatch=        7593 AvBLen=        37.3
 IPart= 12 NShTot=      296188 NShNF=      296188 NShFF=           0 NBatch=        7597 AvBLen=        39.0
 IPart= 17 NShTot=      287773 NShNF=      287773 NShFF=           0 NBatch=        7673 AvBLen=        37.5
 IPart= 28 NShTot=      255388 NShNF=      255388 NShFF=           0 NBatch=        7024 AvBLen=        36.4
 IPart= 18 NShTot=      280910 NShNF=      280910 NShFF=           0 NBatch=        6808 AvBLen=        41.3
 IPart= 31 NShTot=      262927 NShNF=      262927 NShFF=           0 NBatch=        6985 AvBLen=        37.6
 IPart= 15 NShTot=      264181 NShNF=      264181 NShFF=           0 NBatch=        6849 AvBLen=        38.6
 IPart= 27 NShTot=      303955 NShNF=      303955 NShFF=           0 NBatch=        7437 AvBLen=        40.9
 IPart=  6 NShTot=      256059 NShNF=      256059 NShFF=           0 NBatch=        6104 AvBLen=        41.9
 IPart= 19 NShTot=      303977 NShNF=      303977 NShFF=           0 NBatch=        7669 AvBLen=        39.6
 IPart= 11 NShTot=      298077 NShNF=      298077 NShFF=           0 NBatch=        7310 AvBLen=        40.8
 IPart= 22 NShTot=      286911 NShNF=      286911 NShFF=           0 NBatch=        7396 AvBLen=        38.8
 IPart= 26 NShTot=      268000 NShNF=      268000 NShFF=           0 NBatch=        6600 AvBLen=        40.6
 CoulSu:  NxtVal=       13112321.
 ReadGW:  IGet=0 IStart=           1 Next=           1 LGW=           0.
 Remaining memory in FofDFT      399.83 Mw
 CkSvGd:  ISavGI=        -1 IRadAn=       5 IRASav=       5 ISavGd=        -1.
 CalDSu:  NPrtUS=  32 ThrOK=T IAlg=1 NPAlg=2 DoDPD=T LenP=       45150 LenD1P=             0.
 IPart=  0 IRanGd=          0 ScrnBf=T ScrnGd=T RCrit=4.00D+00 DoMicB=T.
 IPart= 22         7387 of         8942 points in      15 batches and       47 microbatches, Max-NSigAt=      12 Max-NSgAt2=      12
 IPart= 11         6897 of         7522 points in      14 batches and       38 microbatches, Max-NSigAt=      12 Max-NSgAt2=      12
 IPart= 31         7699 of         8944 points in      15 batches and       66 microbatches, Max-NSigAt=      12 Max-NSgAt2=      12
 IPart= 19         6316 of         7092 points in      12 batches and       55 microbatches, Max-NSigAt=      12 Max-NSgAt2=      12
 IPart= 12         7812 of         8660 points in      15 batches and       45 microbatches, Max-NSigAt=      12 Max-NSgAt2=      12
 IPart= 24         6198 of         6544 points in      11 batches and       41 microbatches, Max-NSigAt=      12 Max-NSgAt2=      12
 IPart=  8         7297 of         8360 points in      14 batches and       52 microbatches, Max-NSigAt=      12 Max-NSgAt2=      12
 IPart=  9         8390 of         9440 points in      17 batches and       43 microbatches, Max-NSigAt=      12 Max-NSgAt2=      12
 IPart= 25         7360 of         8018 points in      14 batches and       55 microbatches, Max-NSigAt=      12 Max-NSgAt2=      12
 IPart= 26         8297 of         8742 points in      15 batches and       45 microbatches, Max-NSigAt=      12 Max-NSgAt2=      12
 IPart= 15         6587 of         7544 points in      13 batches and       57 microbatches, Max-NSigAt=      12 Max-NSgAt2=      12
 IPart=  6         7610 of         7904 points in      14 batches and       38 microbatches, Max-NSigAt=      12 Max-NSgAt2=      12
 IPart= 20         7284 of         7854 points in      14 batches and       47 microbatches, Max-NSigAt=      12 Max-NSgAt2=      12
 IPart= 21         7765 of         8320 points in      14 batches and       36 microbatches, Max-NSigAt=      12 Max-NSgAt2=      12
 IPart=  7         7910 of         8736 points in      15 batches and       49 microbatches, Max-NSigAt=      12 Max-NSgAt2=      12
 IPart= 29         8666 of         9372 points in      16 batches and       55 microbatches, Max-NSigAt=      12 Max-NSgAt2=      12
 IPart=  2         8728 of        10418 points in      18 batches and       61 microbatches, Max-NSigAt=      12 Max-NSgAt2=      12
 IPart= 17         8715 of        10012 points in      17 batches and       57 microbatches, Max-NSigAt=      12 Max-NSgAt2=      12
 IPart=  0         8136 of         9506 points in      16 batches and       47 microbatches, Max-NSigAt=      12 Max-NSgAt2=      12
 IPart= 27         7160 of         8346 points in      14 batches and       53 microbatches, Max-NSigAt=      12 Max-NSgAt2=      12
 IPart= 28         7125 of         9532 points in      16 batches and       55 microbatches, Max-NSigAt=      12 Max-NSgAt2=      12
 IPart= 30         7314 of         7950 points in      14 batches and       53 microbatches, Max-NSigAt=      12 Max-NSgAt2=      12
 IPart= 23         7779 of         8168 points in      14 batches and       31 microbatches, Max-NSigAt=      12 Max-NSgAt2=      12
 IPart= 10         6442 of         8498 points in      15 batches and       60 microbatches, Max-NSigAt=      12 Max-NSgAt2=      12
 IPart= 18         6206 of         7480 points in      13 batches and       79 microbatches, Max-NSigAt=      12 Max-NSgAt2=      12
 IPart=  3         8471 of        10536 points in      18 batches and       46 microbatches, Max-NSigAt=      12 Max-NSgAt2=      12
 IPart=  5         6171 of         7134 points in      12 batches and       64 microbatches, Max-NSigAt=      12 Max-NSgAt2=      12
 IPart=  1         7852 of         8166 points in      14 batches and       39 microbatches, Max-NSigAt=      12 Max-NSgAt2=      12
 IPart=  4         7170 of         7302 points in      13 batches and       30 microbatches, Max-NSigAt=      12 Max-NSgAt2=      12
 IPart= 16         8565 of         9310 points in      16 batches and       33 microbatches, Max-NSigAt=      12 Max-NSgAt2=      12
 IPart= 13         9066 of        10726 points in      18 batches and       66 microbatches, Max-NSigAt=      12 Max-NSgAt2=      12
 IPart= 14         8012 of        10274 points in      18 batches and       79 microbatches, Max-NSigAt=      12 Max-NSgAt2=      12
 Polarizability after L703:
                1             2             3 
      1  0.451056D+02
      2  0.628565D+01  0.684700D+02
      3  0.235853D+01  0.161247D+02  0.625438D+02
 Dipole Derivatives after L703:
                 1             2             3             4             5 
      1   0.172252D+00 -0.828468D-01  0.723474D-01 -0.237824D+00  0.358215D-02
      2  -0.690152D-01  0.307427D-01  0.520073D+00  0.431408D-01 -0.448840D+00
      3  -0.873284D-02  0.670508D-01  0.120642D+01  0.839568D-01 -0.137130D+00
                 6             7             8             9            10 
      1  -0.774869D-01 -0.551889D-01 -0.232582D-01  0.125291D-01 -0.223051D-01
      2  -0.655616D+00 -0.101047D-01  0.501422D-01  0.280089D-01  0.570091D-01
      3  -0.151782D+01  0.554329D-01 -0.182389D-01  0.129056D-01 -0.799984D-01
                11            12            13            14            15 
      1   0.749129D-01 -0.534590D-03  0.168773D+00  0.358473D-02 -0.219446D-01
      2  -0.416041D-01  0.415354D-01 -0.419119D-01  0.356303D+00  0.312127D-01
      3  -0.441650D-02 -0.325620D-01 -0.653932D-01  0.470413D-01  0.325008D+00
                16            17            18            19            20 
      1   0.838155D-01 -0.149642D-01  0.288372D-01  0.482047D-01 -0.421142D-02
      2  -0.310025D-01  0.399643D-01  0.129074D+00 -0.216250D-01 -0.241625D-02
      3  -0.138863D-02  0.558976D-01  0.197391D+00 -0.237730D-01 -0.954589D-01
                21            22            23            24            25 
      1   0.521109D-02 -0.104324D+00 -0.163716D-01  0.363483D-01 -0.984521D-02
      2  -0.154254D-01 -0.166752D-01  0.427044D-01  0.140651D-01  0.531718D-01
      3  -0.736195D-03  0.637784D-01  0.363621D-03 -0.252725D-01 -0.459046D-01
                26            27            28            29            30 
      1   0.513854D-01 -0.166921D-01  0.772918D-01 -0.349653D-01 -0.229585D-01
      2  -0.894748D-02  0.460796D-01 -0.276286D-01 -0.689061D-01 -0.160553D+00
      3   0.484524D-01 -0.472234D-01 -0.906419D-02 -0.120459D+00 -0.120653D+00
                31            32            33            34            35 
      1   0.336504D-02  0.896673D-01 -0.276452D-01 -0.124215D+00 -0.465149D-01
      2   0.953134D-01 -0.274264D-01  0.302999D-01 -0.306719D-01  0.782841D-01
      3  -0.397964D-01  0.112626D+00 -0.126564D-01  0.708833D-01  0.442712D-01
                36 
      1   0.119890D-01
      2  -0.875425D-02
      3   0.151979D-01
 Hessian after L703:
                1             2             3             4             5 
      1  0.637029D+00
      2 -0.155227D+00  0.118821D+00
      3 -0.360907D-01 -0.900099D-01  0.576269D+00
      4 -0.992528D-01  0.176143D-01  0.214391D-01  0.572618D+00
      5  0.169907D-01 -0.222759D-01 -0.766475D-02 -0.500031D-01  0.260478D-01
      6 -0.222060D-01  0.133479D-01 -0.354920D+00 -0.153360D+00  0.168626D-02
      7 -0.317925D+00  0.140296D-01  0.107199D+00  0.642194D-02 -0.125878D-02
      8 -0.213840D-02 -0.188488D-01  0.110532D-01  0.978238D-04 -0.604285D-03
      9  0.888598D-01  0.524701D-02 -0.874944D-01  0.371047D-01 -0.502416D-03
     10 -0.212701D+00  0.114405D+00 -0.901825D-01  0.779538D-02 -0.103738D-02
     11  0.131340D+00 -0.959024D-01  0.757367D-01 -0.478227D-02  0.560020D-02
     12 -0.830936D-01  0.612600D-01 -0.106914D+00 -0.234581D-01  0.192502D-01
     13 -0.881345D-03  0.526295D-03 -0.565226D-02 -0.488595D+00  0.358373D-01
     14  0.152243D-03 -0.139599D-02  0.240214D-04  0.372934D-01 -0.884350D-02
     15  0.476799D-01 -0.518185D-02 -0.236371D-01  0.119577D+00 -0.793641D-02
     16 -0.698981D-02  0.106379D-01  0.314121D-02  0.795702D-03 -0.319763D-03
     17  0.109066D-01  0.260947D-01  0.102331D-01 -0.306423D-03  0.125980D-02
     18  0.539160D-02  0.186245D-01 -0.422146D-02 -0.137527D-02 -0.374660D-02
     19  0.494869D-03  0.424171D-03 -0.500303D-04 -0.291413D-03 -0.689302D-03
     20  0.719524D-03  0.355763D-03 -0.119081D-02 -0.345325D-03 -0.236645D-02
     21 -0.195891D-03 -0.165865D-02 -0.273710D-02 -0.282103D-03 -0.100947D-02
     22 -0.608487D-04  0.564871D-03  0.693601D-03  0.209431D-03 -0.141365D-03
     23 -0.399355D-02 -0.255019D-02  0.134273D-02  0.749084D-03  0.277516D-03
     24 -0.171763D-02 -0.973532D-03  0.555118D-03  0.308187D-03  0.177242D-03
     25  0.255273D-03 -0.253693D-02  0.270204D-03  0.392803D-04  0.423683D-03
     26  0.123301D-02 -0.448161D-02  0.208834D-02 -0.658665D-04  0.950355D-03
     27  0.575482D-03 -0.263361D-02  0.847920D-03  0.390022D-04  0.622794D-03
     28  0.976405D-04 -0.239658D-03 -0.178964D-03  0.124569D-03  0.167865D-03
     29 -0.236471D-04  0.285846D-03 -0.173867D-03 -0.482708D-04 -0.891295D-04
     30  0.590155D-03  0.121822D-02  0.126771D-02 -0.569388D-04 -0.871920D-03
     31 -0.583307D-04  0.371866D-04  0.534635D-04  0.570392D-04  0.754659D-04
     32 -0.306637D-03  0.416659D-04 -0.897392D-03 -0.852994D-04 -0.656100D-04
     33 -0.389573D-04  0.430214D-03  0.558667D-03  0.176012D-03 -0.321130D-04
     34 -0.794747D-05 -0.235710D-03 -0.641582D-03  0.778537D-04 -0.452577D-04
     35  0.347664D-03 -0.143702D-03 -0.541405D-03 -0.118063D-03  0.109222D-03
     36  0.245816D-03  0.329699D-03  0.425179D-03 -0.111988D-03  0.271997D-04
                6             7             8             9            10 
      6  0.492515D+00
      7 -0.107785D-03  0.319541D+00
      8 -0.518580D-03 -0.912890D-02  0.166302D-01
      9 -0.207056D-01 -0.113017D+00 -0.478440D-02  0.106365D+00
     10  0.251935D-02 -0.108429D-01  0.138562D-01 -0.121860D-01  0.213176D+00
     11 -0.243987D-02 -0.403633D-02  0.248470D-02 -0.631213D-03 -0.122630D+00
     12 -0.271344D-01  0.785030D-02 -0.582011D-02  0.819066D-02  0.100683D+00
     13  0.172966D+00  0.245688D-02  0.285361D-03  0.171141D-04  0.201736D-02
     14 -0.125785D-01  0.875655D-04  0.286682D-02  0.108343D-02 -0.175419D-02
     15 -0.887056D-01 -0.185062D-02  0.412640D-03 -0.657734D-02 -0.576084D-03
     16  0.165372D-02  0.919537D-04 -0.355464D-02 -0.105390D-02  0.689076D-03
     17  0.731580D-02  0.821848D-03 -0.209451D-02 -0.752164D-03 -0.309239D-02
     18  0.403354D-02  0.588863D-03 -0.198306D-03  0.351244D-04 -0.654966D-03
     19 -0.131765D-02 -0.461317D-04 -0.362355D-03 -0.236368D-03 -0.112049D-03
     20 -0.429375D-02 -0.105965D-03  0.147863D-04  0.255216D-03 -0.628442D-04
     21 -0.109534D-02 -0.284325D-03  0.600334D-03  0.416811D-03  0.552683D-03
     22 -0.884034D-03  0.197777D-03  0.256715D-04  0.426447D-04 -0.123269D-04
     23 -0.181267D-02 -0.260458D-04 -0.781520D-03 -0.992602D-04  0.341108D-03
     24 -0.750627D-03 -0.535530D-04 -0.300005D-03 -0.162986D-03  0.201648D-03
     25 -0.159850D-03  0.000000D+00  0.143648D-03  0.956425D-04 -0.582584D-04
     26 -0.211019D-02 -0.246250D-03  0.774449D-05  0.117127D-03 -0.417649D-03
     27 -0.714948D-03 -0.377923D-04  0.279441D-03  0.211753D-04 -0.825940D-04
     28  0.379217D-03  0.630664D-04  0.333913D-03  0.162104D-03 -0.195008D-04
     29  0.661621D-04  0.345077D-04  0.127071D-03  0.833320D-04  0.101324D-03
     30 -0.228396D-02 -0.921463D-04 -0.223855D-03  0.655042D-05 -0.144794D-03
     31  0.346326D-03 -0.330569D-04  0.188849D-04 -0.654439D-04 -0.475541D-05
     32  0.669103D-03 -0.290793D-04  0.705054D-04  0.296732D-04  0.274835D-03
     33 -0.698118D-04  0.142880D-04 -0.113401D-03  0.787750D-05 -0.238515D-04
     34  0.169719D-03  0.740943D-04  0.422823D-03  0.276839D-03  0.732485D-04
     35  0.668420D-03 -0.142210D-03  0.127321D-03 -0.463387D-04  0.161270D-04
     36 -0.169054D-03 -0.208621D-03 -0.386962D-03 -0.103143D-03 -0.106265D-03
               11            12            13            14            15 
     11  0.917161D-01
     12 -0.732489D-01  0.123768D+00
     13 -0.539356D-03 -0.242662D-02  0.485095D+00
     14 -0.535654D-03 -0.456839D-03 -0.359909D-01  0.781066D-02
     15  0.984809D-03  0.163272D-02 -0.164611D+00  0.116462D-01  0.116977D+00
     16  0.156092D-02  0.503355D-03  0.254635D-03  0.508520D-03 -0.127578D-04
     17 -0.277068D-02 -0.149295D-02  0.363452D-03  0.234591D-03  0.625258D-04
     18  0.557679D-03  0.194790D-03  0.128652D-03  0.287757D-03  0.109230D-03
     19  0.213035D-04  0.257515D-03 -0.205816D-03  0.286385D-04  0.959223D-04
     20 -0.525825D-03  0.130814D-03 -0.407849D-03  0.147730D-03  0.245712D-03
     21  0.275846D-03  0.565367D-03 -0.100915D-03 -0.146865D-03  0.326310D-04
     22 -0.359958D-03 -0.280787D-05 -0.150688D-03 -0.223430D-03 -0.109404D-03
     23 -0.907740D-04  0.181569D-03 -0.159784D-03 -0.637204D-04 -0.236365D-03
     24  0.140775D-03  0.406434D-04 -0.536141D-04 -0.128222D-03 -0.432547D-04
     25 -0.378243D-03 -0.332737D-04 -0.765729D-04  0.582981D-04 -0.681706D-04
     26 -0.544439D-03 -0.149474D-03 -0.479982D-04 -0.145905D-03  0.201969D-04
     27 -0.348963D-03 -0.187750D-03  0.371030D-05 -0.633447D-04  0.299480D-04
     28 -0.932485D-04 -0.122130D-03  0.436829D-04 -0.752521D-04 -0.488385D-04
     29  0.247971D-03  0.162105D-03  0.107438D-05  0.129055D-04  0.362966D-04
     30 -0.447263D-03 -0.308597D-04 -0.232205D-03  0.160104D-03  0.177437D-03
     31 -0.117466D-03 -0.182228D-03  0.392701D-04  0.324295D-04 -0.162865D-04
     32  0.265327D-03  0.188001D-03  0.751788D-04 -0.337795D-04 -0.352368D-04
     33 -0.523428D-03 -0.160069D-03 -0.433713D-04  0.899571D-04 -0.481879D-04
     34  0.151801D-04  0.242219D-04  0.216116D-05 -0.117385D-03 -0.599414D-04
     35  0.554136D-04 -0.449467D-05  0.571664D-04 -0.541665D-04 -0.185612D-04
     36 -0.562298D-04  0.345613D-04  0.372960D-05  0.822814D-04  0.526182D-04
               16            17            18            19            20 
     16  0.587123D+00
     17 -0.133359D+00  0.144948D+00
     18 -0.273715D-01 -0.156807D+00  0.489235D+00
     19 -0.907065D-01  0.551198D-02  0.315748D-01  0.565796D+00
     20  0.651884D-02 -0.548385D-01  0.288551D-01 -0.136193D-01  0.518268D+00
     21  0.326699D-01  0.333626D-01 -0.227586D+00  0.658719D-02 -0.195162D-01
     22 -0.317678D+00  0.133409D-01  0.877618D-01 -0.576776D-03 -0.351594D-03
     23  0.337920D-02 -0.194701D-01  0.141314D-01 -0.156801D-02  0.152374D-02
     24  0.818204D-01  0.104811D-01 -0.758902D-01  0.294363D-01  0.104449D-02
     25 -0.175955D+00  0.105942D+00 -0.102535D+00  0.655222D-02 -0.422163D-02
     26  0.113541D+00 -0.991507D-01  0.100830D+00  0.926737D-04  0.168739D-02
     27 -0.100765D+00  0.922903D-01 -0.139573D+00 -0.195065D-01  0.167657D-01
     28  0.181567D-02  0.563089D-02  0.298847D-02 -0.551898D-01 -0.426140D-01
     29  0.252624D-02  0.694758D-02 -0.165504D-02 -0.442464D-01 -0.215952D+00
     30 -0.393806D-02 -0.219152D-01 -0.234260D-01 -0.283375D-01 -0.109299D+00
     31  0.493622D-02 -0.579384D-02  0.117134D-02 -0.131003D+00  0.107602D+00
     32  0.988064D-03 -0.641463D-03  0.274998D-03  0.108373D+00 -0.189320D+00
     33 -0.211290D-01  0.228358D-01 -0.160665D-01 -0.546070D-01  0.760044D-01
     34 -0.437632D-02  0.346024D-04  0.233140D-02 -0.294711D+00 -0.531123D-01
     35 -0.242652D-02 -0.518834D-03 -0.115463D-02 -0.539665D-01 -0.589956D-01
     36  0.344814D-01  0.438622D-02 -0.684459D-02  0.361033D-01  0.109979D-01
               21            22            23            24            25 
     21  0.482947D+00
     22 -0.204259D-02  0.329293D+00
     23  0.333900D-03 -0.110245D-01  0.170587D-01
     24 -0.418869D-02 -0.940804D-01 -0.102388D-01  0.776674D-01
     25  0.542159D-02 -0.128190D-01  0.146721D-01 -0.156170D-01  0.180109D+00
     26 -0.147089D-02 -0.193485D-02  0.301613D-02 -0.261537D-03 -0.113054D+00
     27 -0.108009D-01  0.714722D-02 -0.507719D-02  0.693722D-02  0.110872D+00
     28 -0.246887D-01 -0.205107D-03 -0.619319D-03 -0.310653D-03  0.136921D-03
     29 -0.989325D-01  0.647684D-04  0.895377D-04 -0.539844D-03  0.668760D-04
     30 -0.104372D+00  0.320474D-03  0.713835D-03  0.265908D-03  0.156306D-03
     31 -0.541692D-01  0.558483D-03 -0.599047D-03 -0.618773D-03  0.915290D-03
     32  0.765658D-01 -0.225974D-03  0.124651D-03  0.226972D-03 -0.783882D-03
     33 -0.824310D-01  0.426001D-03 -0.780674D-03  0.133810D-02  0.248193D-02
     34  0.365324D-01  0.124421D-02 -0.115121D-02  0.685061D-03  0.900726D-03
     35  0.115961D-01  0.265473D-03  0.866061D-03  0.371370D-03 -0.331401D-03
     36 -0.507513D-01  0.727492D-03  0.154154D-02 -0.576864D-02 -0.884018D-03
               26            27            28            29            30 
     26  0.986401D-01
     27 -0.100966D+00  0.147237D+00
     28  0.334325D-03 -0.139027D-03  0.561507D-01
     29 -0.382039D-03 -0.545986D-03  0.485628D-01  0.236091D+00
     30  0.861460D-03  0.114102D-03  0.283931D-01  0.116165D+00  0.119828D+00
     31  0.344490D-03  0.147792D-02  0.373306D-02 -0.566344D-02  0.289846D-02
     32  0.588450D-03 -0.166324D-03  0.158995D-01 -0.211008D-01  0.100030D-01
     33  0.122909D-02 -0.522460D-02  0.954703D-02 -0.118024D-01  0.627829D-02
     34  0.221709D-03  0.415557D-03 -0.675095D-02 -0.137577D-02  0.443092D-03
     35 -0.185506D-03 -0.156413D-03 -0.272877D-01 -0.627805D-02  0.363485D-02
     36 -0.188090D-03  0.131425D-02 -0.159816D-01 -0.286349D-02  0.217467D-02
               31            32            33            34            35 
     31  0.136307D+00
     32 -0.119600D+00  0.203889D+00
     33  0.608165D-01 -0.827298D-01  0.949253D-01
     34 -0.154469D-01 -0.457939D-02  0.238039D-02  0.318921D+00
     35  0.236634D-01  0.618154D-02 -0.460767D-02  0.599227D-01  0.588363D-01
     36 -0.117121D-01 -0.412881D-02  0.891865D-03 -0.425571D-01 -0.974123D-02
               36 
     36  0.587436D-01
 FrcOut:
 IF    =    61 IFX   =    97 IFXYZ =   133
 IFFX  =   169 IFFFX =   835 IFLen =    36
 IFFLen=   666 IFFFLn=     0 IEDerv=   835
 LEDerv=  1781 IFroze=  3022 ICStrt=147347
 DipoleDeriv   = 1.72251732D-01-6.90152093D-02-8.73284373D-03
                -8.28468322D-02 3.07426684D-02 6.70507634D-02
                 7.23473512D-02 5.20072759D-01 1.20641705D+00
                -2.37823571D-01 4.31407888D-02 8.39567968D-02
                 3.58215263D-03-4.48840318D-01-1.37130461D-01
                -7.74869211D-02-6.55615788D-01-1.51781551D+00
                -5.51889318D-02-1.01047216D-02 5.54328639D-02
                -2.32582236D-02 5.01422040D-02-1.82388529D-02
                 1.25291073D-02 2.80089037D-02 1.29055561D-02
                -2.23051184D-02 5.70090979D-02-7.99984392D-02
                 7.49129248D-02-4.16040500D-02-4.41649674D-03
                -5.34590493D-04 4.15354346D-02-3.25619914D-02
                 1.68772856D-01-4.19119404D-02-6.53932184D-02
                 3.58472795D-03 3.56302840D-01 4.70412622D-02
                -2.19446122D-02 3.12127458D-02 3.25008033D-01
                 8.38155490D-02-3.10024653D-02-1.38862870D-03
                -1.49642380D-02 3.99642904D-02 5.58976314D-02
                 2.88371586D-02 1.29074351D-01 1.97390809D-01
                 4.82047028D-02-2.16249712D-02-2.37729742D-02
                -4.21142268D-03-2.41625136D-03-9.54589087D-02
                 5.21109096D-03-1.54254376D-02-7.36194996D-04
                -1.04323823D-01-1.66752156D-02 6.37783651D-02
                -1.63715745D-02 4.27044131D-02 3.63620651D-04
                 3.63482512D-02 1.40651487D-02-2.52725305D-02
                -9.84521476D-03 5.31718210D-02-4.59046008D-02
                 5.13854112D-02-8.94747940D-03 4.84523792D-02
                -1.66920834D-02 4.60795934D-02-4.72233533D-02
                 7.72918035D-02-2.76286345D-02-9.06419438D-03
                -3.49653025D-02-6.89060947D-02-1.20458547D-01
                -2.29584600D-02-1.60553328D-01-1.20653344D-01
                 3.36504219D-03 9.53133773D-02-3.97964212D-02
                 8.96672618D-02-2.74263613D-02 1.12626457D-01
                -2.76452487D-02 3.02998702D-02-1.26564056D-02
                -1.24215026D-01-3.06719270D-02 7.08832949D-02
                -4.65148848D-02 7.82841395D-02 4.42711530D-02
                 1.19889566D-02-8.75425317D-03 1.51978774D-02
 VibFq2-Diag1:  N=     36 IV=          13 MDV=   419278281 NE2=    11646618
 Full mass-weighted force constant matrix:
 Low frequencies --- -282.5702   -7.2158   -0.0011   -0.0010   -0.0004   24.1704
 Low frequencies ---   49.3173   84.2140   87.5638
 OrtVCM:  Ph=1 IPass= 1 DotMx1= 0.00D+00
 OrtVCM:  IS=    1 I=    1 IndO=    1 Dot= 1.00D+00 DotN= 1.00D+00 ElMax1= 5.16D-01 ElMax1N= 5.16D-01
 OrtVCM:  Ph=2 NNew=    0 IAdd=    2 IPass= 1 DotMx2= 0.00D+00
 OrtVCM:  IS=    1 I=    2 IndO=    2 Dot= 1.00D+00 DotN= 1.00D+00 ElMax1= 5.16D-01 ElMax1N= 5.16D-01
 OrtVCM:  Ph=2 NNew=    0 IAdd=    3 IPass= 1 DotMx2= 0.00D+00
 OrtVCM:  IS=    1 I=    3 IndO=    3 Dot= 1.00D+00 DotN= 1.00D+00 ElMax1= 5.16D-01 ElMax1N= 5.16D-01
 OrtVCM:  Ph=2 NNew=    0 IAdd=    4 IPass= 1 DotMx2= 3.89D-16
 OrtVCM:  IS=    1 I=    4 IndO=    4 Dot= 1.00D+00 DotN= 1.00D+00 ElMax1= 4.53D-01 ElMax1N= 4.53D-01
 OrtVCM:  Ph=2 NNew=    0 IAdd=    5 IPass= 1 DotMx2= 2.36D-16
 OrtVCM:  IS=    1 I=    5 IndO=    5 Dot= 1.00D+00 DotN= 1.00D+00 ElMax1= 5.61D-01 ElMax1N= 5.61D-01
 OrtVCM:  Ph=2 NNew=    0 IAdd=    6 IPass= 1 DotMx2= 2.36D-16
 OrtVCM:  IS=    1 I=    6 IndO=    6 Dot= 1.00D+00 DotN= 1.00D+00 ElMax1= 4.54D-01 ElMax1N= 4.54D-01
 OrtVCM:  Ph=1 IPass= 1 DotMx1= 5.61D-01
 OrtVCM:  Ph=1 IPass= 2 DotMx1= 1.20D-16
 OrtVCM:  IS=    1 I=    1 IndO=    7 Dot= 5.84D-01 DotN= 5.84D-01 ElMax1= 5.84D-01 ElMax1N= 5.84D-01
 OrtVCM:  Ph=2 NNew=    0 IAdd=    2 IPass= 1 DotMx2= 6.96D-02
 OrtVCM:  Ph=2 NNew=    0 IAdd=    2 IPass= 2 DotMx2= 1.39D-17
 OrtVCM:  IS=    1 I=    2 IndO=    8 Dot= 7.67D-01 DotN= 7.67D-01 ElMax1= 7.67D-01 ElMax1N= 7.67D-01
 OrtVCM:  Ph=2 NNew=    0 IAdd=    3 IPass= 1 DotMx2= 3.80D-02
 OrtVCM:  Ph=2 NNew=    0 IAdd=    3 IPass= 2 DotMx2= 1.39D-17
 OrtVCM:  IS=    1 I=    3 IndO=    9 Dot= 7.25D-01 DotN= 7.25D-01 ElMax1= 7.25D-01 ElMax1N= 7.25D-01
 OrtVCM:  Ph=2 NNew=    0 IAdd=    4 IPass= 1 DotMx2= 4.10D-01
 OrtVCM:  Ph=2 NNew=    0 IAdd=    4 IPass= 2 DotMx2= 1.25D-16
 OrtVCM:  IS=    1 I=    4 IndO=   10 Dot= 1.71D-01 DotN= 1.71D-01 ElMax1= 2.23D-01 ElMax1N= 2.23D-01
 OrtVCM:  Ph=2 NNew=    0 IAdd=    5 IPass= 1 DotMx2= 3.38D-01
 OrtVCM:  Ph=2 NNew=    0 IAdd=    5 IPass= 2 DotMx2= 6.25D-17
 OrtVCM:  IS=    1 I=    5 IndO=   11 Dot= 3.22D-01 DotN= 3.22D-01 ElMax1= 3.22D-01 ElMax1N= 3.22D-01
 OrtVCM:  Ph=2 NNew=    0 IAdd=    6 IPass= 1 DotMx2= 3.75D-01
 OrtVCM:  Ph=2 NNew=    0 IAdd=    6 IPass= 2 DotMx2= 1.39D-16
 OrtVCM:  IS=    1 I=    6 IndO=   12 Dot= 3.38D-01 DotN= 3.38D-01 ElMax1= 3.38D-01 ElMax1N= 3.38D-01
 OrtVCM:  Ph=2 NNew=    0 IAdd=    7 IPass= 1 DotMx2= 3.41D-01
 OrtVCM:  Ph=2 NNew=    0 IAdd=    7 IPass= 2 DotMx2= 1.11D-16
 OrtVCM:  IS=    1 I=    7 IndO=   13 Dot= 7.94D-01 DotN= 7.94D-01 ElMax1= 7.94D-01 ElMax1N= 7.94D-01
 OrtVCM:  Ph=2 NNew=    0 IAdd=    8 IPass= 1 DotMx2= 2.26D-01
 OrtVCM:  Ph=2 NNew=    0 IAdd=    8 IPass= 2 DotMx2= 1.39D-16
 OrtVCM:  IS=    1 I=    8 IndO=   14 Dot= 8.18D-01 DotN= 8.18D-01 ElMax1= 8.18D-01 ElMax1N= 8.18D-01
 OrtVCM:  Ph=2 NNew=    0 IAdd=    9 IPass= 1 DotMx2= 3.18D-01
 OrtVCM:  Ph=2 NNew=    0 IAdd=    9 IPass= 2 DotMx2= 2.78D-17
 OrtVCM:  IS=    1 I=    9 IndO=   15 Dot= 8.13D-01 DotN= 8.13D-01 ElMax1= 8.13D-01 ElMax1N= 8.13D-01
 OrtVCM:  Ph=2 NNew=    0 IAdd=   10 IPass= 1 DotMx2= 3.76D-01
 OrtVCM:  Ph=2 NNew=    0 IAdd=   10 IPass= 2 DotMx2= 6.59D-17
 OrtVCM:  IS=    1 I=   10 IndO=   16 Dot= 5.74D-01 DotN= 5.74D-01 ElMax1= 5.74D-01 ElMax1N= 5.74D-01
 OrtVCM:  Ph=2 NNew=    0 IAdd=   11 IPass= 1 DotMx2= 1.36D-01
 OrtVCM:  Ph=2 NNew=    0 IAdd=   11 IPass= 2 DotMx2= 2.78D-17
 OrtVCM:  IS=    1 I=   11 IndO=   17 Dot= 9.38D-01 DotN= 9.38D-01 ElMax1= 9.38D-01 ElMax1N= 9.38D-01
 OrtVCM:  Ph=2 NNew=    0 IAdd=   12 IPass= 1 DotMx2= 3.09D-01
 OrtVCM:  Ph=2 NNew=    0 IAdd=   12 IPass= 2 DotMx2= 8.33D-17
 OrtVCM:  IS=    1 I=   12 IndO=   18 Dot= 8.00D-01 DotN= 8.00D-01 ElMax1= 8.00D-01 ElMax1N= 8.00D-01
 OrtVCM:  Ph=2 NNew=    0 IAdd=   13 IPass= 1 DotMx2= 5.39D-01
 OrtVCM:  Ph=2 NNew=    0 IAdd=   13 IPass= 2 DotMx2= 8.67D-17
 OrtVCM:  IS=    1 I=   13 IndO=   19 Dot= 3.18D-01 DotN= 3.18D-01 ElMax1= 3.18D-01 ElMax1N= 3.18D-01
 OrtVCM:  Ph=2 NNew=    0 IAdd=   14 IPass= 1 DotMx2= 2.94D-01
 OrtVCM:  Ph=2 NNew=    0 IAdd=   14 IPass= 2 DotMx2= 1.73D-16
 OrtVCM:  IS=    1 I=   14 IndO=   20 Dot= 6.70D-01 DotN= 6.70D-01 ElMax1= 6.70D-01 ElMax1N= 6.70D-01
 OrtVCM:  Ph=2 NNew=    0 IAdd=   15 IPass= 1 DotMx2= 2.63D-01
 OrtVCM:  Ph=2 NNew=    0 IAdd=   15 IPass= 2 DotMx2= 6.94D-17
 OrtVCM:  IS=    1 I=   15 IndO=   21 Dot= 7.35D-01 DotN= 7.35D-01 ElMax1= 7.35D-01 ElMax1N= 7.35D-01
 OrtVCM:  Ph=2 NNew=    0 IAdd=   16 IPass= 1 DotMx2= 3.02D-01
 OrtVCM:  Ph=2 NNew=    0 IAdd=   16 IPass= 2 DotMx2= 8.33D-17
 OrtVCM:  IS=    1 I=   16 IndO=   22 Dot= 2.90D-01 DotN= 2.90D-01 ElMax1= 2.90D-01 ElMax1N= 2.90D-01
 OrtVCM:  Ph=2 NNew=    0 IAdd=   17 IPass= 1 DotMx2= 3.72D-01
 OrtVCM:  Ph=2 NNew=    0 IAdd=   17 IPass= 2 DotMx2= 1.53D-16
 OrtVCM:  IS=    1 I=   17 IndO=   23 Dot= 2.66D-01 DotN= 2.66D-01 ElMax1= 2.75D-01 ElMax1N= 2.75D-01
 OrtVCM:  Ph=2 NNew=    0 IAdd=   18 IPass= 1 DotMx2= 2.32D-01
 OrtVCM:  Ph=2 NNew=    0 IAdd=   18 IPass= 2 DotMx2= 1.25D-16
 OrtVCM:  IS=    1 I=   18 IndO=   24 Dot= 5.57D-01 DotN= 5.57D-01 ElMax1= 5.57D-01 ElMax1N= 5.57D-01
 OrtVCM:  Ph=2 NNew=    0 IAdd=   19 IPass= 1 DotMx2= 2.66D-01
 OrtVCM:  Ph=2 NNew=    0 IAdd=   19 IPass= 2 DotMx2= 1.15D-16
 OrtVCM:  IS=    1 I=   19 IndO=   25 Dot= 2.67D-01 DotN= 2.67D-01 ElMax1= 2.67D-01 ElMax1N= 2.67D-01
 OrtVCM:  Ph=2 NNew=    0 IAdd=   20 IPass= 1 DotMx2= 2.70D-01
 OrtVCM:  Ph=2 NNew=    0 IAdd=   20 IPass= 2 DotMx2= 1.01D-16
 OrtVCM:  IS=    1 I=   20 IndO=   26 Dot= 2.64D-01 DotN= 2.64D-01 ElMax1= 2.64D-01 ElMax1N= 2.64D-01
 OrtVCM:  Ph=2 NNew=    0 IAdd=   21 IPass= 1 DotMx2= 5.12D-01
 OrtVCM:  Ph=2 NNew=    0 IAdd=   21 IPass= 2 DotMx2= 1.39D-16
 OrtVCM:  IS=    1 I=   21 IndO=   27 Dot= 2.91D-01 DotN= 2.91D-01 ElMax1= 2.91D-01 ElMax1N= 2.91D-01
 OrtVCM:  Ph=2 NNew=    0 IAdd=   22 IPass= 1 DotMx2= 4.55D-01
 OrtVCM:  Ph=2 NNew=    0 IAdd=   22 IPass= 2 DotMx2= 6.94D-17
 OrtVCM:  IS=    1 I=   22 IndO=   28 Dot= 6.37D-01 DotN= 6.37D-01 ElMax1= 6.37D-01 ElMax1N= 6.37D-01
 OrtVCM:  Ph=2 NNew=    0 IAdd=   23 IPass= 1 DotMx2= 5.22D-01
 OrtVCM:  Ph=2 NNew=    0 IAdd=   23 IPass= 2 DotMx2= 1.67D-16
 OrtVCM:  IS=    1 I=   23 IndO=   29 Dot= 3.97D-01 DotN= 3.97D-01 ElMax1= 3.97D-01 ElMax1N= 3.97D-01
 OrtVCM:  Ph=2 NNew=    0 IAdd=   24 IPass= 1 DotMx2= 3.41D-01
 OrtVCM:  Ph=2 NNew=    0 IAdd=   24 IPass= 2 DotMx2= 1.16D-16
 OrtVCM:  IS=    1 I=   24 IndO=   30 Dot= 6.13D-01 DotN= 6.13D-01 ElMax1= 6.13D-01 ElMax1N= 6.13D-01
 OrtVCM:  Ph=2 NNew=    0 IAdd=   25 IPass= 1 DotMx2= 5.04D-01
 OrtVCM:  Ph=2 NNew=    0 IAdd=   25 IPass= 2 DotMx2= 1.80D-16
 OrtVCM:  IS=    1 I=   25 IndO=   31 Dot= 1.88D-01 DotN= 1.88D-01 ElMax1= 2.55D-01 ElMax1N= 2.55D-01
 OrtVCM:  Ph=2 NNew=    0 IAdd=   26 IPass= 1 DotMx2= 5.33D-01
 OrtVCM:  Ph=2 NNew=    0 IAdd=   26 IPass= 2 DotMx2= 1.39D-16
 OrtVCM:  IS=    1 I=   26 IndO=   32 Dot= 2.31D-01 DotN= 2.31D-01 ElMax1= 2.38D-01 ElMax1N= 2.38D-01
 OrtVCM:  Ph=2 NNew=    0 IAdd=   27 IPass= 1 DotMx2= 3.67D-01
 OrtVCM:  Ph=2 NNew=    0 IAdd=   27 IPass= 2 DotMx2= 1.11D-16
 OrtVCM:  IS=    1 I=   27 IndO=   33 Dot= 5.61D-01 DotN= 5.61D-01 ElMax1= 5.61D-01 ElMax1N= 5.61D-01
 OrtVCM:  Ph=2 NNew=    0 IAdd=   28 IPass= 1 DotMx2= 4.35D-01
 OrtVCM:  Ph=2 NNew=    0 IAdd=   28 IPass= 2 DotMx2= 2.08D-16
 OrtVCM:  IS=    1 I=   28 IndO=   34 Dot= 3.52D-01 DotN= 3.52D-01 ElMax1= 3.52D-01 ElMax1N= 3.52D-01
 OrtVCM:  Ph=2 NNew=    0 IAdd=   29 IPass= 1 DotMx2= 4.70D-01
 OrtVCM:  Ph=2 NNew=    0 IAdd=   29 IPass= 2 DotMx2= 5.55D-17
 OrtVCM:  IS=    1 I=   29 IndO=   35 Dot= 6.02D-01 DotN= 6.02D-01 ElMax1= 6.02D-01 ElMax1N= 6.02D-01
 OrtVCM:  Ph=2 NNew=    0 IAdd=   30 IPass= 1 DotMx2= 5.51D-01
 OrtVCM:  Ph=2 NNew=    0 IAdd=   30 IPass= 2 DotMx2= 1.59D-16
 OrtVCM:  IS=    1 I=   30 IndO=    0 Dot= 7.44D-31 DotN= 7.44D-31 ElMax1= 5.44D-16 ElMax1N= 5.44D-16
 SchOr2:  IPass= 1 Test2A= 1.00D-01 IOff=     0 NDo=    30 NNew=    29
 OrtVCM:  Ph=1 IPass= 1 DotMx1= 4.76D-01
 OrtVCM:  Ph=1 IPass= 2 DotMx1= 2.78D-16
 OrtVCM:  IS=    1 I=    1 IndO=   36 Dot= 4.37D-01 DotN= 4.37D-01 ElMax1= 4.37D-01 ElMax1N= 4.37D-01
 SchOr2:  IPass= 1 Test2A= 1.00D-01 IOff=    30 NDo=     1 NNew=     1
 VibFq2-Diag2:  N=     30 IV=          13 MDV=   419278281 NE2=    13975942
 ******    1 imaginary frequencies (negative Signs) ****** 
 Dipole derivatives wrt mode   1: -8.41134D-02 -3.30000D-03 -6.88675D-02
 Vibrational polarizability contributions from mode   1       0.0023846       0.0000037       0.0015985
 Vibrational hyperpolarizability contributions from mode   1      -0.0000000      -0.0000000      -0.0000000
 Dipole derivatives wrt mode   2:  2.43312D-01  5.63334D-01 -1.59602D+00
 Vibrational polarizability contributions from mode   2       2.4044027      12.8887852     103.4561712
 Vibrational hyperpolarizability contributions from mode   2       0.0000000       0.0000000      -0.0000000
 Dipole derivatives wrt mode   3:  1.27029D-02  3.59101D-01 -7.49319D-02
 Vibrational polarizability contributions from mode   3       0.0005695       0.4551328       0.0198170
 Vibrational hyperpolarizability contributions from mode   3       0.0000000       0.0000000      -0.0000000
 Dipole derivatives wrt mode   4:  7.29315D-01  1.15641D+00  4.95098D-02
 Vibrational polarizability contributions from mode   4       0.7723155       1.9417242       0.0035592
 Vibrational hyperpolarizability contributions from mode   4       0.0000000       0.0000000       0.0000000
 Dipole derivatives wrt mode   5: -1.53806D-01  5.04029D-01  1.16957D-01
 Vibrational polarizability contributions from mode   5       0.0184433       0.1980632       0.0106646
 Vibrational hyperpolarizability contributions from mode   5      -0.0000000       0.0000000       0.0000000
 Dipole derivatives wrt mode   6:  1.43756D+00  7.57916D+00  1.45560D+00
 Vibrational polarizability contributions from mode   6       0.6576257      18.2797424       0.6742374
 Vibrational hyperpolarizability contributions from mode   6       0.0000000       0.0000000       0.0000000
 Dipole derivatives wrt mode   7: -1.07075D+00  5.20881D+00  8.62396D-01
 Vibrational polarizability contributions from mode   7       0.1737541       4.1118373       0.1127123
 Vibrational hyperpolarizability contributions from mode   7      -0.0000000       0.0000000       0.0000000
 Dipole derivatives wrt mode   8:  4.11618D-01 -6.90041D+00 -1.10856D+00
 Vibrational polarizability contributions from mode   8       0.0176987       4.9739390       0.1283713
 Vibrational hyperpolarizability contributions from mode   8       0.0000000      -0.0000000      -0.0000000
 Dipole derivatives wrt mode   9: -4.08849D-01 -1.16004D+00 -2.71170D-01
 Vibrational polarizability contributions from mode   9       0.0102902       0.0828413       0.0045267
 Vibrational hyperpolarizability contributions from mode   9      -0.0000000      -0.0000000      -0.0000000
 Dipole derivatives wrt mode  10:  6.85416D-01  1.14826D+00 -2.26636D+00
 Vibrational polarizability contributions from mode  10       0.0208592       0.0585420       0.2280586
 Vibrational hyperpolarizability contributions from mode  10       0.0000000       0.0000000      -0.0000000
 Dipole derivatives wrt mode  11:  1.07233D+00 -3.46212D-01  2.44641D-01
 Vibrational polarizability contributions from mode  11       0.0461799       0.0048137       0.0024036
 Vibrational hyperpolarizability contributions from mode  11       0.0000000      -0.0000000       0.0000000
 Dipole derivatives wrt mode  12: -8.13173D-01 -3.80200D+00 -3.71998D+00
 Vibrational polarizability contributions from mode  12       0.0177399       0.3878022       0.3712492
 Vibrational hyperpolarizability contributions from mode  12      -0.0000000      -0.0000000      -0.0000000
 Dipole derivatives wrt mode  13:  2.88949D-01  7.42850D-01 -8.03270D-02
 Vibrational polarizability contributions from mode  13       0.0019440       0.0128483       0.0001502
 Vibrational hyperpolarizability contributions from mode  13       0.0000000       0.0000000      -0.0000000
 Dipole derivatives wrt mode  14: -6.30703D-02 -1.75336D+00 -8.34116D+00
 Vibrational polarizability contributions from mode  14       0.0000915       0.0707150       1.6003725
 Vibrational hyperpolarizability contributions from mode  14      -0.0000000      -0.0000000      -0.0000000
 Dipole derivatives wrt mode  15:  1.09393D+00 -5.80765D-01 -3.90607D-01
 Vibrational polarizability contributions from mode  15       0.0219523       0.0061873       0.0027988
 Vibrational hyperpolarizability contributions from mode  15       0.0000000      -0.0000000      -0.0000000
 Dipole derivatives wrt mode  16:  1.49031D+00  6.33454D+00  1.38927D+01
 Vibrational polarizability contributions from mode  16       0.0406317       0.7340825       3.5309289
 Vibrational hyperpolarizability contributions from mode  16       0.0000000       0.0000000       0.0000000
 Dipole derivatives wrt mode  17:  1.68250D+00 -1.20397D+00  4.54160D+00
 Vibrational polarizability contributions from mode  17       0.0402946       0.0206332       0.2935978
 Vibrational hyperpolarizability contributions from mode  17       0.0000000      -0.0000000       0.0000000
 Dipole derivatives wrt mode  18:  6.11640D-01  1.67414D+00 -5.82974D-01
 Vibrational polarizability contributions from mode  18       0.0050852       0.0380979       0.0046197
 Vibrational hyperpolarizability contributions from mode  18       0.0000000       0.0000000      -0.0000000
 Dipole derivatives wrt mode  19: -3.56227D-01 -1.65657D+00 -1.17673D+00
 Vibrational polarizability contributions from mode  19       0.0015716       0.0339870       0.0171494
 Vibrational hyperpolarizability contributions from mode  19      -0.0000000      -0.0000000      -0.0000000
 Dipole derivatives wrt mode  20:  1.26425D+00 -1.43597D+00  7.06311D-01
 Vibrational polarizability contributions from mode  20       0.0193745       0.0249953       0.0060472
 Vibrational hyperpolarizability contributions from mode  20       0.0000000      -0.0000000       0.0000000
 Dipole derivatives wrt mode  21: -2.24256D+00  3.44257D-02  3.24658D-01
 Vibrational polarizability contributions from mode  21       0.0609381       0.0000144       0.0012772
 Vibrational hyperpolarizability contributions from mode  21      -0.0000000       0.0000000       0.0000000
 Dipole derivatives wrt mode  22: -4.23695D-01 -2.14588D+00 -3.58157D+00
 Vibrational polarizability contributions from mode  22       0.0021504       0.0551607       0.1536622
 Vibrational hyperpolarizability contributions from mode  22      -0.0000000      -0.0000000      -0.0000000
 Dipole derivatives wrt mode  23: -3.07932D-01 -3.41581D+00 -5.96741D+00
 Vibrational polarizability contributions from mode  23       0.0002852       0.0350944       0.1071082
 Vibrational hyperpolarizability contributions from mode  23      -0.0000000      -0.0000000      -0.0000000
 Dipole derivatives wrt mode  24:  1.13984D+00  3.49785D+00 -2.38450D+00
 Vibrational polarizability contributions from mode  24       0.0037065       0.0349045       0.0162208
 Vibrational hyperpolarizability contributions from mode  24       0.0000000       0.0000000      -0.0000000
 Dipole derivatives wrt mode  25:  4.31369D+00 -1.36733D+00  6.15838D-01
 Vibrational polarizability contributions from mode  25       0.0516438       0.0051888       0.0010526
 Vibrational hyperpolarizability contributions from mode  25       0.0000000      -0.0000000       0.0000000
 Dipole derivatives wrt mode  26:  6.69375D-01 -1.56773D+00  4.53496D+00
 Vibrational polarizability contributions from mode  26       0.0012266       0.0067284       0.0563011
 Vibrational hyperpolarizability contributions from mode  26       0.0000000      -0.0000000       0.0000000
 Dipole derivatives wrt mode  27: -1.71180D+00 -1.66739D+00  3.47273D+00
 Vibrational polarizability contributions from mode  27       0.0079313       0.0075250       0.0326421
 Vibrational hyperpolarizability contributions from mode  27      -0.0000000      -0.0000000       0.0000000
 Dipole derivatives wrt mode  28:  3.64718D+00 -1.16524D+00  5.30243D-01
 Vibrational polarizability contributions from mode  28       0.0338997       0.0034603       0.0007165
 Vibrational hyperpolarizability contributions from mode  28       0.0000000      -0.0000000       0.0000000
 Dipole derivatives wrt mode  29: -2.92262D+00  1.15440D+00  3.83203D-01
 Vibrational polarizability contributions from mode  29       0.0214814       0.0033514       0.0003693
 Vibrational hyperpolarizability contributions from mode  29      -0.0000000       0.0000000       0.0000000
 Dipole derivatives wrt mode  30: -5.28531D+00  2.84529D+00  6.61726D+00
 Vibrational polarizability contributions from mode  30       0.0490659       0.0142197       0.0769123
 Vibrational hyperpolarizability contributions from mode  30      -0.0000000       0.0000000       0.0000000
 Diagonal vibrational polarizability:
        4.5055377      44.4904212     110.9152963
 NorSel:  MapVib=      1      2      3      4      5      6      7      8      9     10
 NorSel:  MapVib=     11     12     13     14     15     16     17     18     19     20
 NorSel:  MapVib=     21     22     23     24     25     26     27     28     29     30
 Harmonic frequencies (cm**-1), IR intensities (KM/Mole), Raman scattering
 activities (A**4/AMU), depolarization ratios for plane and unpolarized
 incident light, reduced masses (AMU), force constants (mDyne/A),
 and normal coordinates:
                      1                      2                      3
                      A                      A                      A
 Frequencies --   -282.5676                25.7411                87.3201
 Red. masses --      6.5209                 2.2598                 2.5644
 Frc consts  --      0.3068                 0.0009                 0.0115
 IR Inten    --  0.1183E-01              2.924                 0.1347    
  Atom  AN      X      Y      Z        X      Y      Z        X      Y      Z
     1   6     0.12   0.41   0.14     0.18  -0.06   0.01    -0.05  -0.18  -0.03
     2   8     0.02   0.08   0.12    -0.15   0.05   0.01     0.05   0.13  -0.03
     3   1     0.11   0.30   0.13     0.29  -0.20   0.26    -0.08  -0.29  -0.10
     4   1     0.04   0.28   0.14     0.37  -0.02  -0.23    -0.07  -0.27  -0.10
     5   1     0.01   0.07   0.08    -0.22   0.17  -0.22     0.07   0.24   0.02
     6   6    -0.14  -0.45  -0.19     0.13  -0.05   0.02    -0.06  -0.18   0.00
     7   6    -0.01  -0.08  -0.10    -0.14   0.04  -0.03     0.05   0.19   0.07
     8   1    -0.11  -0.26  -0.13     0.19  -0.11   0.20    -0.09  -0.25  -0.07
     9   1    -0.05  -0.21  -0.09     0.27  -0.05  -0.14    -0.10  -0.31  -0.07
    10   1     0.08   0.05  -0.34    -0.18   0.06  -0.03     0.07   0.35  -0.19
    11   1    -0.01  -0.01   0.04    -0.27   0.03   0.12     0.12   0.32   0.24
    12   1    -0.01   0.00   0.05    -0.18   0.12  -0.20     0.08   0.20   0.22
                      4                      5                      6
                      A                      A                      A
 Frequencies --    136.1395               185.7890               290.8054
 Red. masses --      1.0477                 3.5825                 1.1606
 Frc consts  --      0.0114                 0.0729                 0.0578
 IR Inten    --   1.872                 0.2914                  61.63    
  Atom  AN      X      Y      Z        X      Y      Z        X      Y      Z
     1   6     0.02  -0.01  -0.00    -0.08  -0.17   0.15    -0.06   0.04  -0.01
     2   8     0.01  -0.01  -0.00     0.06   0.21   0.15     0.00  -0.07  -0.01
     3   1     0.02  -0.14   0.01    -0.12  -0.28   0.06    -0.09  -0.38  -0.06
     4   1     0.09   0.08  -0.01    -0.09  -0.21   0.11     0.14   0.41   0.07
     5   1     0.02   0.12  -0.01     0.11   0.46   0.24     0.08   0.70   0.05
     6   6    -0.05   0.01  -0.00     0.04   0.07  -0.13     0.03  -0.01   0.01
     7   6     0.01   0.01   0.01    -0.02  -0.14  -0.18     0.01   0.00   0.01
     8   1    -0.06  -0.08  -0.04     0.03   0.07  -0.14     0.02  -0.20   0.01
     9   1    -0.03   0.08   0.03    -0.00   0.01  -0.15     0.15   0.19   0.05
    10   1     0.56  -0.17   0.08    -0.06  -0.24  -0.01    -0.11   0.05  -0.02
    11   1    -0.36  -0.35  -0.14    -0.03  -0.21  -0.29     0.08   0.08   0.05
    12   1    -0.09   0.54   0.10    -0.03  -0.19  -0.28     0.02  -0.10  -0.02
                      7                      8                      9
                      A                      A                      A
 Frequencies --    421.3931               507.5644               661.1771
 Red. masses --      1.0744                 1.0867                 1.0840
 Frc consts  --      0.1124                 0.1650                 0.2792
 IR Inten    --   29.02                  49.01                  1.586    
  Atom  AN      X      Y      Z        X      Y      Z        X      Y      Z
     1   6    -0.02   0.02  -0.00    -0.06   0.01  -0.00     0.01   0.02   0.00
     2   8    -0.01  -0.04  -0.01     0.01   0.04   0.00    -0.00  -0.00  -0.00
     3   1    -0.03   0.11  -0.03    -0.06  -0.51  -0.01     0.02   0.12   0.03
     4   1    -0.09  -0.05   0.03     0.26   0.52   0.03     0.03   0.08   0.03
     5   1     0.03   0.39   0.01    -0.01  -0.53   0.05     0.00   0.05  -0.01
     6   6     0.05  -0.02   0.01     0.03  -0.01   0.00     0.02   0.07   0.03
     7   6    -0.00   0.00   0.00     0.00  -0.00  -0.00     0.00   0.01   0.01
     8   1     0.10   0.62   0.13     0.05   0.19   0.04    -0.11  -0.62  -0.28
     9   1    -0.24  -0.56  -0.14    -0.08  -0.25  -0.07    -0.18  -0.57  -0.29
    10   1     0.06  -0.02   0.01    -0.00  -0.01   0.01    -0.06  -0.09   0.18
    11   1    -0.07  -0.04   0.04    -0.02  -0.01   0.03    -0.01  -0.05  -0.08
    12   1    -0.02   0.08  -0.04    -0.01   0.01  -0.04     0.00  -0.06  -0.07
                     10                     11                     12
                      A                      A                      A
 Frequencies --    778.5236               818.5953              1001.5528
 Red. masses --      1.2123                 1.0454                 1.4495
 Frc consts  --      0.4329                 0.4127                 0.8567
 IR Inten    --   6.925                  1.330                  28.95    
  Atom  AN      X      Y      Z        X      Y      Z        X      Y      Z
     1   6    -0.03  -0.12  -0.03    -0.00   0.00   0.00    -0.00  -0.01  -0.01
     2   8     0.01   0.02   0.01    -0.00  -0.00  -0.00    -0.00  -0.00   0.01
     3   1     0.09   0.69   0.20    -0.00  -0.01  -0.00    -0.00   0.01  -0.02
     4   1     0.26   0.58   0.18    -0.00   0.00  -0.00     0.00   0.01  -0.00
     5   1     0.02   0.07   0.03     0.00  -0.01   0.00    -0.01   0.00  -0.01
     6   6    -0.01  -0.03  -0.01    -0.04   0.01  -0.01    -0.01  -0.08  -0.09
     7   6    -0.00  -0.00  -0.00    -0.04   0.01  -0.01     0.03   0.12   0.10
     8   1     0.00   0.04   0.03     0.13  -0.06   0.50     0.01   0.15  -0.07
     9   1     0.02   0.05   0.02     0.28  -0.07  -0.43     0.10   0.12  -0.05
    10   1     0.01   0.02  -0.04     0.20  -0.07   0.02    -0.19  -0.24   0.73
    11   1     0.00   0.02   0.03     0.26   0.03  -0.37    -0.09  -0.19  -0.31
    12   1     0.00   0.01   0.04     0.07  -0.14   0.43     0.04  -0.24  -0.27
                     13                     14                     15
                      A                      A                      A
 Frequencies --   1075.0886              1081.6390              1211.2047
 Red. masses --      2.8109                 1.0870                 1.4569
 Frc consts  --      1.9142                 0.7493                 1.2592
 IR Inten    --  0.6418                  72.65                  1.687    
  Atom  AN      X      Y      Z        X      Y      Z        X      Y      Z
     1   6     0.00   0.00   0.00     0.05  -0.03  -0.01    -0.00   0.00  -0.01
     2   8    -0.00  -0.00  -0.00    -0.01   0.01   0.05     0.00  -0.00   0.01
     3   1    -0.01   0.02  -0.03    -0.18  -0.01  -0.54     0.00  -0.00  -0.00
     4   1    -0.00   0.02   0.04    -0.15   0.13   0.47     0.01   0.00  -0.02
     5   1    -0.02  -0.00  -0.05    -0.24   0.01  -0.59    -0.00   0.00   0.00
     6   6    -0.07  -0.08   0.27     0.00   0.00  -0.01     0.12  -0.04   0.02
     7   6     0.07   0.10  -0.25    -0.00  -0.00   0.00    -0.14   0.05  -0.02
     8   1    -0.06  -0.06   0.35     0.00  -0.00  -0.01    -0.04   0.06  -0.47
     9   1    -0.09  -0.05   0.35     0.00  -0.00  -0.01    -0.20   0.01   0.43
    10   1    -0.02  -0.06   0.06     0.01   0.00  -0.02     0.27  -0.09   0.03
    11   1     0.06  -0.05  -0.52     0.00   0.01   0.02     0.22   0.11  -0.39
    12   1     0.06  -0.05  -0.52    -0.00   0.00   0.02    -0.01  -0.17   0.43
                     16                     17                     18
                      A                      A                      A
 Frequencies --   1212.8557              1374.9883              1407.0485
 Red. masses --      4.8769                 1.2809                 1.2088
 Frc consts  --      4.2268                 1.4268                 1.4100
 IR Inten    --   235.4                  24.91                  3.517    
  Atom  AN      X      Y      Z        X      Y      Z        X      Y      Z
     1   6     0.03  -0.03   0.41     0.11  -0.02  -0.05    -0.00  -0.00  -0.00
     2   8    -0.02   0.02  -0.36    -0.09   0.01  -0.01     0.00   0.00   0.00
     3   1    -0.04  -0.04   0.27    -0.04  -0.02  -0.41    -0.00   0.01  -0.01
     4   1    -0.12   0.05   0.76    -0.10   0.06   0.36     0.01   0.01  -0.01
     5   1     0.09  -0.02  -0.09     0.21  -0.04   0.78    -0.00  -0.00  -0.00
     6   6     0.01  -0.01  -0.01    -0.00   0.00   0.00    -0.00  -0.00   0.01
     7   6    -0.01   0.01   0.01    -0.00   0.00  -0.00    -0.02  -0.01   0.13
     8   1    -0.00   0.05  -0.05    -0.00  -0.01  -0.00    -0.05   0.06  -0.14
     9   1     0.01   0.05   0.03     0.00   0.00   0.00     0.11   0.01  -0.12
    10   1     0.02  -0.02   0.03     0.01  -0.00   0.00     0.18   0.30  -0.50
    11   1     0.02  -0.00  -0.06     0.00   0.00   0.01     0.16  -0.18  -0.47
    12   1    -0.00  -0.03   0.01     0.00  -0.01  -0.01    -0.10  -0.09  -0.51
                     19                     20                     21
                      A                      A                      A
 Frequencies --   1474.0754              1489.9901              1490.2766
 Red. masses --      1.1383                 1.0645                 1.0569
 Frc consts  --      1.4572                 1.3925                 1.3829
 IR Inten    --   4.256                  4.159                  5.136    
  Atom  AN      X      Y      Z        X      Y      Z        X      Y      Z
     1   6    -0.00   0.00  -0.00    -0.00  -0.00   0.02     0.00  -0.00   0.02
     2   8     0.00   0.00  -0.00    -0.00  -0.00  -0.00    -0.00  -0.00  -0.00
     3   1     0.02  -0.01   0.04    -0.05   0.04  -0.09    -0.05   0.04  -0.11
     4   1    -0.02  -0.00   0.03     0.07  -0.00  -0.09     0.07   0.00  -0.09
     5   1    -0.00  -0.00  -0.00     0.00  -0.00   0.00     0.00  -0.00   0.02
     6   6     0.02   0.03  -0.09    -0.02   0.00   0.04     0.01  -0.01   0.03
     7   6     0.01   0.03   0.03    -0.01   0.05  -0.03     0.05   0.02  -0.02
     8   1     0.21  -0.28   0.50    -0.07   0.07  -0.14    -0.05   0.09  -0.17
     9   1    -0.47  -0.06   0.40     0.16   0.03  -0.16     0.11  -0.00  -0.08
    10   1     0.06   0.12  -0.16     0.47  -0.05  -0.09    -0.46   0.24  -0.20
    11   1    -0.23  -0.19  -0.05    -0.34  -0.02   0.35    -0.40  -0.42  -0.23
    12   1     0.07  -0.29   0.00     0.14  -0.63  -0.07     0.12  -0.07   0.44
                     22                     23                     24
                      A                      A                      A
 Frequencies --   1498.8431              2991.1694              3071.3358
 Red. masses --      1.1478                 1.0544                 1.0772
 Frc consts  --      1.5193                 5.5581                 5.9869
 IR Inten    --   17.61                  47.37                  19.22    
  Atom  AN      X      Y      Z        X      Y      Z        X      Y      Z
     1   6     0.00   0.01  -0.11     0.00   0.00   0.00    -0.00   0.00  -0.00
     2   8     0.01   0.01   0.01    -0.00  -0.00  -0.00    -0.00   0.00  -0.00
     3   1     0.29  -0.23   0.58    -0.00  -0.00   0.00    -0.01  -0.00   0.00
     4   1    -0.41  -0.01   0.53     0.00  -0.00   0.00     0.01  -0.01   0.00
     5   1    -0.02   0.01  -0.05     0.00   0.00  -0.00     0.00   0.00  -0.00
     6   6    -0.00  -0.00   0.02     0.00  -0.00  -0.00    -0.00  -0.00   0.00
     7   6     0.01   0.01  -0.01    -0.01  -0.04  -0.05     0.02   0.07  -0.02
     8   1    -0.04   0.04  -0.09    -0.01   0.00  -0.00     0.01   0.00  -0.00
     9   1     0.08   0.00  -0.07     0.00  -0.00   0.00    -0.01   0.01  -0.01
    10   1    -0.01   0.04  -0.05     0.20   0.78   0.48    -0.06  -0.26  -0.17
    11   1    -0.12  -0.08   0.01     0.13  -0.19   0.08     0.40  -0.51   0.28
    12   1     0.04  -0.11   0.07    -0.23  -0.07   0.03    -0.61  -0.12   0.09
                     25                     26                     27
                      A                      A                      A
 Frequencies --   3113.9154              3135.3177              3153.1766
 Red. masses --      1.1022                 1.0493                 1.0520
 Frc consts  --      6.2971                 6.0772                 6.1625
 IR Inten    --   20.86                  23.47                  17.77    
  Atom  AN      X      Y      Z        X      Y      Z        X      Y      Z
     1   6     0.00  -0.00   0.00     0.01  -0.03   0.05     0.00   0.00   0.00
     2   8    -0.00  -0.00  -0.00    -0.00  -0.00  -0.00    -0.00  -0.00  -0.00
     3   1    -0.00  -0.00  -0.00     0.51  -0.02  -0.21     0.00   0.00   0.00
     4   1    -0.00   0.00   0.00    -0.62   0.39  -0.39    -0.00  -0.00   0.00
     5   1     0.00   0.00   0.00    -0.00   0.00   0.00     0.00  -0.00  -0.00
     6   6    -0.01   0.00  -0.00    -0.00   0.00   0.00    -0.02  -0.03   0.05
     7   6     0.09  -0.03   0.01     0.00   0.00  -0.00    -0.00  -0.00  -0.00
     8   1     0.06   0.00  -0.02     0.00  -0.00  -0.00     0.70  -0.02  -0.22
     9   1     0.03  -0.03   0.02     0.00   0.00   0.00    -0.45   0.33  -0.38
    10   1     0.02  -0.02  -0.00    -0.00  -0.00  -0.00     0.00   0.01   0.00
    11   1    -0.36   0.49  -0.26     0.00  -0.01   0.00     0.00  -0.00   0.00
    12   1    -0.71  -0.17   0.12    -0.01  -0.00   0.00     0.02   0.00  -0.00
                     28                     29                     30
                      A                      A                      A
 Frequencies --   3249.5637              3271.2091              3914.2355
 Red. masses --      1.1173                 1.1216                 1.0663
 Frc consts  --      6.9513                 7.0715                 9.6256
 IR Inten    --   14.94                  10.02                  79.82    
  Atom  AN      X      Y      Z        X      Y      Z        X      Y      Z
     1   6    -0.00   0.00   0.00    -0.10   0.02   0.01     0.00  -0.00   0.00
     2   8     0.00  -0.00  -0.00     0.00  -0.00  -0.00     0.06  -0.00  -0.02
     3   1     0.01  -0.00  -0.00     0.77  -0.01  -0.33    -0.01   0.00   0.00
     4   1     0.01  -0.00   0.00     0.39  -0.26   0.25    -0.01   0.00   0.00
     5   1    -0.00   0.00   0.00    -0.02  -0.00  -0.00    -0.93   0.07   0.35
     6   6     0.09  -0.03   0.02    -0.00   0.00  -0.00    -0.00  -0.00  -0.00
     7   6     0.01  -0.00   0.00    -0.00  -0.00  -0.00     0.00   0.00  -0.00
     8   1    -0.63   0.01   0.21     0.01   0.00  -0.00     0.00   0.00   0.00
     9   1    -0.47   0.37  -0.42     0.01  -0.01   0.01     0.00   0.00   0.00
    10   1     0.00  -0.00  -0.00    -0.00   0.00  -0.00    -0.00   0.00   0.00
    11   1    -0.03   0.04  -0.02     0.00   0.00   0.00     0.00  -0.00   0.00
    12   1    -0.05  -0.01   0.01     0.00  -0.00  -0.00    -0.00  -0.00   0.00

 -------------------
 - Thermochemistry -
 -------------------
 Temperature   298.150 Kelvin.  Pressure   1.00000 Atm.
 Atom     1 has atomic number  6 and mass  12.00000
 Atom     2 has atomic number  8 and mass  15.99491
 Atom     3 has atomic number  1 and mass   1.00783
 Atom     4 has atomic number  1 and mass   1.00783
 Atom     5 has atomic number  1 and mass   1.00783
 Atom     6 has atomic number  6 and mass  12.00000
 Atom     7 has atomic number  6 and mass  12.00000
 Atom     8 has atomic number  1 and mass   1.00783
 Atom     9 has atomic number  1 and mass   1.00783
 Atom    10 has atomic number  1 and mass   1.00783
 Atom    11 has atomic number  1 and mass   1.00783
 Atom    12 has atomic number  1 and mass   1.00783
 Molecular mass:    60.05751 amu.
 Principal axes and moments of inertia in atomic units:
                           1         2         3
     Eigenvalues --    98.38254 765.27011 822.48406
           X            0.12413   0.32947   0.93597
           Y            0.61407   0.71543  -0.33328
           Z            0.77943  -0.61612   0.11352
 This molecule is an asymmetric top.
 Rotational symmetry number  1.
 Rotational temperatures (Kelvin)      0.88038     0.11318     0.10531
 Rotational constants (GHZ):          18.34412     2.35831     2.19426
    1 imaginary frequencies ignored.
 Zero-point vibrational energy     263959.2 (Joules/Mol)
                                   63.08777 (Kcal/Mol)
 Warning -- explicit consideration of   7 degrees of freedom as
           vibrations may cause significant error
 Vibrational temperatures:     37.04   125.63   195.87   267.31   418.40
          (Kelvin)            606.29   730.27   951.29  1120.12  1177.77
                             1441.01  1546.81  1556.24  1742.65  1745.03
                             1978.30  2024.43  2120.86  2143.76  2144.17
                             2156.50  4303.62  4418.96  4480.22  4511.02
                             4536.71  4675.39  4706.53  5631.70
 
 Zero-point correction=                           0.100537 (Hartree/Particle)
 Thermal correction to Energy=                    0.107652
 Thermal correction to Enthalpy=                  0.108596
 Thermal correction to Gibbs Free Energy=         0.069174
 Sum of electronic and zero-point Energies=           -194.142059
 Sum of electronic and thermal Energies=              -194.134943
 Sum of electronic and thermal Enthalpies=            -194.133999
 Sum of electronic and thermal Free Energies=         -194.173422
 
                     E (Thermal)             CV                S
                      KCal/Mol        Cal/Mol-Kelvin    Cal/Mol-Kelvin
 Total                   67.553             22.141             82.972
 Electronic               0.000              0.000              0.000
 Translational            0.889              2.981             38.198
 Rotational               0.889              2.981             25.630
 Vibrational             65.775             16.179             19.144
 Vibration     1          0.593              1.985              6.133
 Vibration     2          0.601              1.958              3.719
 Vibration     3          0.614              1.917              2.857
 Vibration     4          0.632              1.859              2.269
 Vibration     5          0.687              1.691              1.469
 Vibration     6          0.784              1.424              0.887
 Vibration     7          0.863              1.233              0.639
                       Q            Log10(Q)             Ln(Q)
 Total Bot       0.152176D-31        -31.817654        -73.262857
 Total V=0       0.266652D+15         14.425944         33.216964
 Vib (Bot)       0.933819D-44        -44.029737       -101.382217
 Vib (Bot)    1  0.804518D+01          0.905536          2.085074
 Vib (Bot)    2  0.235570D+01          0.372119          0.856836
 Vib (Bot)    3  0.149512D+01          0.174676          0.402205
 Vib (Bot)    4  0.107888D+01          0.032973          0.075922
 Vib (Bot)    5  0.657310D+00         -0.182230         -0.419600
 Vib (Bot)    6  0.416244D+00         -0.380652         -0.876484
 Vib (Bot)    7  0.321627D+00         -0.492647         -1.134362
 Vib (V=0)       0.163629D+03          2.213861          5.097604
 Vib (V=0)    1  0.856071D+01          0.932510          2.147183
 Vib (V=0)    2  0.290817D+01          0.463620          1.067525
 Vib (V=0)    3  0.207651D+01          0.317334          0.730688
 Vib (V=0)    4  0.168911D+01          0.227658          0.524201
 Vib (V=0)    5  0.132587D+01          0.122500          0.282067
 Vib (V=0)    6  0.115058D+01          0.060918          0.140269
 Vib (V=0)    7  0.109451D+01          0.039220          0.090308
 Electronic      0.100000D+01          0.000000          0.000000
 Translational   0.182939D+08          7.262306         16.722078
 Rotational      0.890792D+05          4.949777         11.397282
 -------------------------------------------------------------------
 Center     Atomic                   Forces (Hartrees/Bohr)
 Number     Number              X              Y              Z
 -------------------------------------------------------------------
      1        6          -0.004018292   -0.013970930   -0.006141942
      2        8          -0.000004940    0.000015280   -0.000012967
      3        1           0.000020980    0.000009484   -0.000010019
      4        1           0.000024689    0.000007433    0.000017840
      5        1          -0.000002089   -0.000012507   -0.000003846
      6        6           0.003967728    0.013871643    0.006145377
      7        6           0.000013765    0.000044362    0.000005188
      8        1           0.000012355    0.000030743   -0.000012046
      9        1           0.000001092    0.000013565   -0.000012090
     10        1           0.000005381    0.000005389    0.000008983
     11        1           0.000007997   -0.000005811    0.000009633
     12        1          -0.000028665   -0.000008652    0.000005891
 -------------------------------------------------------------------
 Cartesian Forces:  Max     0.013970930 RMS     0.003708081
 From PutF, contents of force:
   1   -0.1681385883D-04
   2    0.2322841861D-04
   3   -0.2272572187D-04
   4   -0.1960773144D-06
   5    0.2047508151D-05
   6   -0.1649213924D-04
   7   -0.7264343719D-05
   8    0.3614815485D-04
   9   -0.2493911954D-04
  10   -0.1531855889D-04
  11   -0.1307511071D-04
  12   -0.1025642060D-04
  13   -0.1249224084D-04
  14   -0.3041579543D-04
  15   -0.2427413452D-04
  16   -0.1691075698D-04
  17   -0.7322817327D-05
  18   -0.8727086325D-05
  19   -0.2402613186D-05
  20    0.1706427726D-04
  21    0.7792093309D-05
  22    0.4182644638D-05
  23   -0.7793417588D-04
  24   -0.2904580655D-05
  25   -0.3866154101D-04
  26    0.2149796766D-04
  27    0.3129009989D-05
  28    0.2774395459D-05
  29   -0.2818274681D-04
  30   -0.1575779991D-01
 -----------------------------------------------------------------------------------------------
                       Internal Coordinate Forces (Hartree/Bohr or radian)
  Cent   Atom   N1       Length/X         N2         Alpha/Y        N3         Beta/Z          J
 -----------------------------------------------------------------------------------------------
      1  C 
      2  O        1  -0.000017(     1)
      3  H        1   0.000023(     2)      2   0.000002(    12)
      4  H        1  -0.000023(     3)      2  -0.000016(    13)      3   0.000036(    22)     0
      5  H        2  -0.000000(     4)      1  -0.000007(    14)      3   0.000021(    23)     0
      6  C        1  -0.015758(     5)      2  -0.000028(    15)      3   0.000003(    24)     0
      7  C        6  -0.000025(     6)      1  -0.000078(    16)      2  -0.000003(    25)     0
      8  H        6  -0.000015(     7)      7  -0.000024(    17)      1  -0.000039(    26)     0
      9  H        6  -0.000013(     8)      7  -0.000017(    18)      8   0.000017(    27)     0
     10  H        7  -0.000010(     9)      6  -0.000007(    19)      8   0.000003(    28)     0
     11  H        7  -0.000012(    10)      6  -0.000009(    20)     10   0.000008(    29)     0
     12  H        7  -0.000030(    11)      6  -0.000002(    21)     10   0.000004(    30)     0
 -----------------------------------------------------------------------------------------------
 Internal  Forces:  Max     0.015757800 RMS     0.002877057
 Force constants in Cartesian coordinates: 
                1             2             3             4             5 
      1  0.637029D+00
      2 -0.155227D+00  0.118821D+00
      3 -0.360907D-01 -0.900099D-01  0.576269D+00
      4 -0.992528D-01  0.176143D-01  0.214391D-01  0.572618D+00
      5  0.169907D-01 -0.222759D-01 -0.766475D-02 -0.500031D-01  0.260478D-01
      6 -0.222060D-01  0.133479D-01 -0.354920D+00 -0.153360D+00  0.168626D-02
      7 -0.317925D+00  0.140296D-01  0.107199D+00  0.642194D-02 -0.125878D-02
      8 -0.213840D-02 -0.188488D-01  0.110532D-01  0.978238D-04 -0.604285D-03
      9  0.888598D-01  0.524701D-02 -0.874944D-01  0.371047D-01 -0.502416D-03
     10 -0.212701D+00  0.114405D+00 -0.901825D-01  0.779538D-02 -0.103738D-02
     11  0.131340D+00 -0.959024D-01  0.757367D-01 -0.478227D-02  0.560020D-02
     12 -0.830936D-01  0.612600D-01 -0.106914D+00 -0.234581D-01  0.192502D-01
     13 -0.881345D-03  0.526295D-03 -0.565226D-02 -0.488595D+00  0.358373D-01
     14  0.152243D-03 -0.139599D-02  0.240214D-04  0.372934D-01 -0.884350D-02
     15  0.476799D-01 -0.518185D-02 -0.236371D-01  0.119577D+00 -0.793641D-02
     16 -0.698981D-02  0.106379D-01  0.314121D-02  0.795702D-03 -0.319763D-03
     17  0.109066D-01  0.260947D-01  0.102331D-01 -0.306423D-03  0.125980D-02
     18  0.539160D-02  0.186245D-01 -0.422146D-02 -0.137527D-02 -0.374660D-02
     19  0.494869D-03  0.424171D-03 -0.500303D-04 -0.291413D-03 -0.689302D-03
     20  0.719524D-03  0.355763D-03 -0.119081D-02 -0.345325D-03 -0.236645D-02
     21 -0.195891D-03 -0.165865D-02 -0.273710D-02 -0.282103D-03 -0.100947D-02
     22 -0.608487D-04  0.564871D-03  0.693601D-03  0.209431D-03 -0.141365D-03
     23 -0.399355D-02 -0.255019D-02  0.134273D-02  0.749084D-03  0.277516D-03
     24 -0.171763D-02 -0.973532D-03  0.555118D-03  0.308187D-03  0.177242D-03
     25  0.255273D-03 -0.253693D-02  0.270204D-03  0.392803D-04  0.423683D-03
     26  0.123301D-02 -0.448161D-02  0.208834D-02 -0.658665D-04  0.950355D-03
     27  0.575482D-03 -0.263361D-02  0.847920D-03  0.390022D-04  0.622794D-03
     28  0.976405D-04 -0.239658D-03 -0.178964D-03  0.124569D-03  0.167865D-03
     29 -0.236471D-04  0.285846D-03 -0.173867D-03 -0.482708D-04 -0.891295D-04
     30  0.590155D-03  0.121822D-02  0.126771D-02 -0.569388D-04 -0.871920D-03
     31 -0.583307D-04  0.371866D-04  0.534635D-04  0.570392D-04  0.754659D-04
     32 -0.306637D-03  0.416659D-04 -0.897392D-03 -0.852994D-04 -0.656100D-04
     33 -0.389573D-04  0.430214D-03  0.558667D-03  0.176012D-03 -0.321130D-04
     34 -0.794747D-05 -0.235710D-03 -0.641582D-03  0.778537D-04 -0.452577D-04
     35  0.347664D-03 -0.143702D-03 -0.541405D-03 -0.118063D-03  0.109222D-03
     36  0.245816D-03  0.329699D-03  0.425179D-03 -0.111988D-03  0.271997D-04
                6             7             8             9            10 
      6  0.492515D+00
      7 -0.107785D-03  0.319541D+00
      8 -0.518580D-03 -0.912890D-02  0.166302D-01
      9 -0.207056D-01 -0.113017D+00 -0.478440D-02  0.106365D+00
     10  0.251935D-02 -0.108429D-01  0.138562D-01 -0.121860D-01  0.213176D+00
     11 -0.243987D-02 -0.403633D-02  0.248470D-02 -0.631213D-03 -0.122630D+00
     12 -0.271344D-01  0.785030D-02 -0.582011D-02  0.819066D-02  0.100683D+00
     13  0.172966D+00  0.245688D-02  0.285361D-03  0.171141D-04  0.201736D-02
     14 -0.125785D-01  0.875655D-04  0.286682D-02  0.108343D-02 -0.175419D-02
     15 -0.887056D-01 -0.185062D-02  0.412640D-03 -0.657734D-02 -0.576084D-03
     16  0.165372D-02  0.919537D-04 -0.355464D-02 -0.105390D-02  0.689076D-03
     17  0.731580D-02  0.821848D-03 -0.209451D-02 -0.752164D-03 -0.309239D-02
     18  0.403354D-02  0.588863D-03 -0.198306D-03  0.351244D-04 -0.654966D-03
     19 -0.131765D-02 -0.461317D-04 -0.362355D-03 -0.236368D-03 -0.112049D-03
     20 -0.429375D-02 -0.105965D-03  0.147863D-04  0.255216D-03 -0.628442D-04
     21 -0.109534D-02 -0.284325D-03  0.600334D-03  0.416811D-03  0.552683D-03
     22 -0.884034D-03  0.197777D-03  0.256715D-04  0.426447D-04 -0.123269D-04
     23 -0.181267D-02 -0.260458D-04 -0.781520D-03 -0.992602D-04  0.341108D-03
     24 -0.750627D-03 -0.535530D-04 -0.300005D-03 -0.162986D-03  0.201648D-03
     25 -0.159850D-03  0.000000D+00  0.143648D-03  0.956425D-04 -0.582584D-04
     26 -0.211019D-02 -0.246250D-03  0.774449D-05  0.117127D-03 -0.417649D-03
     27 -0.714948D-03 -0.377923D-04  0.279441D-03  0.211753D-04 -0.825940D-04
     28  0.379217D-03  0.630664D-04  0.333913D-03  0.162104D-03 -0.195008D-04
     29  0.661621D-04  0.345077D-04  0.127071D-03  0.833320D-04  0.101324D-03
     30 -0.228396D-02 -0.921463D-04 -0.223855D-03  0.655042D-05 -0.144794D-03
     31  0.346326D-03 -0.330569D-04  0.188849D-04 -0.654439D-04 -0.475541D-05
     32  0.669103D-03 -0.290793D-04  0.705054D-04  0.296732D-04  0.274835D-03
     33 -0.698118D-04  0.142880D-04 -0.113401D-03  0.787750D-05 -0.238515D-04
     34  0.169719D-03  0.740943D-04  0.422823D-03  0.276839D-03  0.732485D-04
     35  0.668420D-03 -0.142210D-03  0.127321D-03 -0.463387D-04  0.161270D-04
     36 -0.169054D-03 -0.208621D-03 -0.386962D-03 -0.103143D-03 -0.106265D-03
               11            12            13            14            15 
     11  0.917161D-01
     12 -0.732489D-01  0.123768D+00
     13 -0.539356D-03 -0.242662D-02  0.485095D+00
     14 -0.535654D-03 -0.456839D-03 -0.359909D-01  0.781066D-02
     15  0.984809D-03  0.163272D-02 -0.164611D+00  0.116462D-01  0.116977D+00
     16  0.156092D-02  0.503355D-03  0.254635D-03  0.508520D-03 -0.127578D-04
     17 -0.277068D-02 -0.149295D-02  0.363452D-03  0.234591D-03  0.625258D-04
     18  0.557679D-03  0.194790D-03  0.128652D-03  0.287757D-03  0.109230D-03
     19  0.213035D-04  0.257515D-03 -0.205816D-03  0.286385D-04  0.959223D-04
     20 -0.525825D-03  0.130814D-03 -0.407849D-03  0.147730D-03  0.245712D-03
     21  0.275846D-03  0.565367D-03 -0.100915D-03 -0.146865D-03  0.326310D-04
     22 -0.359958D-03 -0.280787D-05 -0.150688D-03 -0.223430D-03 -0.109404D-03
     23 -0.907740D-04  0.181569D-03 -0.159784D-03 -0.637204D-04 -0.236365D-03
     24  0.140775D-03  0.406434D-04 -0.536141D-04 -0.128222D-03 -0.432547D-04
     25 -0.378243D-03 -0.332737D-04 -0.765729D-04  0.582981D-04 -0.681706D-04
     26 -0.544439D-03 -0.149474D-03 -0.479982D-04 -0.145905D-03  0.201969D-04
     27 -0.348963D-03 -0.187750D-03  0.371030D-05 -0.633447D-04  0.299480D-04
     28 -0.932485D-04 -0.122130D-03  0.436829D-04 -0.752521D-04 -0.488385D-04
     29  0.247971D-03  0.162105D-03  0.107438D-05  0.129055D-04  0.362966D-04
     30 -0.447263D-03 -0.308597D-04 -0.232205D-03  0.160104D-03  0.177437D-03
     31 -0.117466D-03 -0.182228D-03  0.392701D-04  0.324295D-04 -0.162865D-04
     32  0.265327D-03  0.188001D-03  0.751788D-04 -0.337795D-04 -0.352368D-04
     33 -0.523428D-03 -0.160069D-03 -0.433713D-04  0.899571D-04 -0.481879D-04
     34  0.151801D-04  0.242219D-04  0.216116D-05 -0.117385D-03 -0.599414D-04
     35  0.554136D-04 -0.449467D-05  0.571664D-04 -0.541665D-04 -0.185612D-04
     36 -0.562298D-04  0.345613D-04  0.372960D-05  0.822814D-04  0.526182D-04
               16            17            18            19            20 
     16  0.587123D+00
     17 -0.133359D+00  0.144948D+00
     18 -0.273715D-01 -0.156807D+00  0.489235D+00
     19 -0.907065D-01  0.551198D-02  0.315748D-01  0.565796D+00
     20  0.651884D-02 -0.548385D-01  0.288551D-01 -0.136193D-01  0.518268D+00
     21  0.326699D-01  0.333626D-01 -0.227586D+00  0.658719D-02 -0.195162D-01
     22 -0.317678D+00  0.133409D-01  0.877618D-01 -0.576776D-03 -0.351594D-03
     23  0.337920D-02 -0.194701D-01  0.141314D-01 -0.156801D-02  0.152374D-02
     24  0.818204D-01  0.104811D-01 -0.758902D-01  0.294363D-01  0.104449D-02
     25 -0.175955D+00  0.105942D+00 -0.102535D+00  0.655222D-02 -0.422163D-02
     26  0.113541D+00 -0.991507D-01  0.100830D+00  0.926737D-04  0.168739D-02
     27 -0.100765D+00  0.922903D-01 -0.139573D+00 -0.195065D-01  0.167657D-01
     28  0.181567D-02  0.563089D-02  0.298847D-02 -0.551898D-01 -0.426140D-01
     29  0.252624D-02  0.694758D-02 -0.165504D-02 -0.442464D-01 -0.215952D+00
     30 -0.393806D-02 -0.219152D-01 -0.234260D-01 -0.283375D-01 -0.109299D+00
     31  0.493622D-02 -0.579384D-02  0.117134D-02 -0.131003D+00  0.107602D+00
     32  0.988064D-03 -0.641463D-03  0.274998D-03  0.108373D+00 -0.189320D+00
     33 -0.211290D-01  0.228358D-01 -0.160665D-01 -0.546070D-01  0.760044D-01
     34 -0.437632D-02  0.346024D-04  0.233140D-02 -0.294711D+00 -0.531123D-01
     35 -0.242652D-02 -0.518834D-03 -0.115463D-02 -0.539665D-01 -0.589956D-01
     36  0.344814D-01  0.438622D-02 -0.684459D-02  0.361033D-01  0.109979D-01
               21            22            23            24            25 
     21  0.482947D+00
     22 -0.204259D-02  0.329293D+00
     23  0.333900D-03 -0.110245D-01  0.170587D-01
     24 -0.418869D-02 -0.940804D-01 -0.102388D-01  0.776674D-01
     25  0.542159D-02 -0.128190D-01  0.146721D-01 -0.156170D-01  0.180109D+00
     26 -0.147089D-02 -0.193485D-02  0.301613D-02 -0.261537D-03 -0.113054D+00
     27 -0.108009D-01  0.714722D-02 -0.507719D-02  0.693722D-02  0.110872D+00
     28 -0.246887D-01 -0.205107D-03 -0.619319D-03 -0.310653D-03  0.136921D-03
     29 -0.989325D-01  0.647684D-04  0.895377D-04 -0.539844D-03  0.668760D-04
     30 -0.104372D+00  0.320474D-03  0.713835D-03  0.265908D-03  0.156306D-03
     31 -0.541692D-01  0.558483D-03 -0.599047D-03 -0.618773D-03  0.915290D-03
     32  0.765658D-01 -0.225974D-03  0.124651D-03  0.226972D-03 -0.783882D-03
     33 -0.824310D-01  0.426001D-03 -0.780674D-03  0.133810D-02  0.248193D-02
     34  0.365324D-01  0.124421D-02 -0.115121D-02  0.685061D-03  0.900726D-03
     35  0.115961D-01  0.265473D-03  0.866061D-03  0.371370D-03 -0.331401D-03
     36 -0.507513D-01  0.727492D-03  0.154154D-02 -0.576864D-02 -0.884018D-03
               26            27            28            29            30 
     26  0.986401D-01
     27 -0.100966D+00  0.147237D+00
     28  0.334325D-03 -0.139027D-03  0.561507D-01
     29 -0.382039D-03 -0.545986D-03  0.485628D-01  0.236091D+00
     30  0.861460D-03  0.114102D-03  0.283931D-01  0.116165D+00  0.119828D+00
     31  0.344490D-03  0.147792D-02  0.373306D-02 -0.566344D-02  0.289846D-02
     32  0.588450D-03 -0.166324D-03  0.158995D-01 -0.211008D-01  0.100030D-01
     33  0.122909D-02 -0.522460D-02  0.954703D-02 -0.118024D-01  0.627829D-02
     34  0.221709D-03  0.415557D-03 -0.675095D-02 -0.137577D-02  0.443092D-03
     35 -0.185506D-03 -0.156413D-03 -0.272877D-01 -0.627805D-02  0.363485D-02
     36 -0.188090D-03  0.131425D-02 -0.159816D-01 -0.286349D-02  0.217467D-02
               31            32            33            34            35 
     31  0.136307D+00
     32 -0.119600D+00  0.203889D+00
     33  0.608165D-01 -0.827298D-01  0.949253D-01
     34 -0.154469D-01 -0.457939D-02  0.238039D-02  0.318921D+00
     35  0.236634D-01  0.618154D-02 -0.460767D-02  0.599227D-01  0.588363D-01
     36 -0.117121D-01 -0.412881D-02  0.891865D-03 -0.425571D-01 -0.974123D-02
               36 
     36  0.587436D-01
 FCInt: Cartesian first derivatives: 
                 1             2             3             4             5 
      1  -0.401829D-02 -0.494023D-05  0.209804D-04  0.246885D-04 -0.208947D-05
      2  -0.139709D-01  0.152803D-04  0.948380D-05  0.743295D-05 -0.125069D-04
      3  -0.614194D-02 -0.129674D-04 -0.100195D-04  0.178400D-04 -0.384646D-05
                 6             7             8             9            10 
      1   0.396773D-02  0.137654D-04  0.123548D-04  0.109167D-05  0.538077D-05
      2   0.138716D-01  0.443623D-04  0.307430D-04  0.135647D-04  0.538935D-05
      3   0.614538D-02  0.518839D-05 -0.120460D-04 -0.120902D-04  0.898255D-05
                11            12 
      1   0.799698D-05 -0.286651D-04
      2  -0.581083D-05 -0.865207D-05
      3   0.963332D-05  0.589080D-05
 FCInt: Cartesian force constants: 
                1             2             3             4             5 
      1  0.637029D+00
      2 -0.155227D+00  0.118821D+00
      3 -0.360907D-01 -0.900099D-01  0.576269D+00
      4 -0.992528D-01  0.176143D-01  0.214391D-01  0.572618D+00
      5  0.169907D-01 -0.222759D-01 -0.766475D-02 -0.500031D-01  0.260478D-01
      6 -0.222060D-01  0.133479D-01 -0.354920D+00 -0.153360D+00  0.168626D-02
      7 -0.317925D+00  0.140296D-01  0.107199D+00  0.642194D-02 -0.125878D-02
      8 -0.213840D-02 -0.188488D-01  0.110532D-01  0.978238D-04 -0.604285D-03
      9  0.888598D-01  0.524701D-02 -0.874944D-01  0.371047D-01 -0.502416D-03
     10 -0.212701D+00  0.114405D+00 -0.901825D-01  0.779538D-02 -0.103738D-02
     11  0.131340D+00 -0.959024D-01  0.757367D-01 -0.478227D-02  0.560020D-02
     12 -0.830936D-01  0.612600D-01 -0.106914D+00 -0.234581D-01  0.192502D-01
     13 -0.881345D-03  0.526295D-03 -0.565226D-02 -0.488595D+00  0.358373D-01
     14  0.152243D-03 -0.139599D-02  0.240214D-04  0.372934D-01 -0.884350D-02
     15  0.476799D-01 -0.518185D-02 -0.236371D-01  0.119577D+00 -0.793641D-02
     16 -0.698981D-02  0.106379D-01  0.314121D-02  0.795702D-03 -0.319763D-03
     17  0.109066D-01  0.260947D-01  0.102331D-01 -0.306423D-03  0.125980D-02
     18  0.539160D-02  0.186245D-01 -0.422146D-02 -0.137527D-02 -0.374660D-02
     19  0.494869D-03  0.424171D-03 -0.500303D-04 -0.291413D-03 -0.689302D-03
     20  0.719524D-03  0.355763D-03 -0.119081D-02 -0.345325D-03 -0.236645D-02
     21 -0.195891D-03 -0.165865D-02 -0.273710D-02 -0.282103D-03 -0.100947D-02
     22 -0.608487D-04  0.564871D-03  0.693601D-03  0.209431D-03 -0.141365D-03
     23 -0.399355D-02 -0.255019D-02  0.134273D-02  0.749084D-03  0.277516D-03
     24 -0.171763D-02 -0.973532D-03  0.555118D-03  0.308187D-03  0.177242D-03
     25  0.255273D-03 -0.253693D-02  0.270204D-03  0.392803D-04  0.423683D-03
     26  0.123301D-02 -0.448161D-02  0.208834D-02 -0.658665D-04  0.950355D-03
     27  0.575482D-03 -0.263361D-02  0.847920D-03  0.390022D-04  0.622794D-03
     28  0.976405D-04 -0.239658D-03 -0.178964D-03  0.124569D-03  0.167865D-03
     29 -0.236471D-04  0.285846D-03 -0.173867D-03 -0.482708D-04 -0.891295D-04
     30  0.590155D-03  0.121822D-02  0.126771D-02 -0.569388D-04 -0.871920D-03
     31 -0.583307D-04  0.371866D-04  0.534635D-04  0.570392D-04  0.754659D-04
     32 -0.306637D-03  0.416659D-04 -0.897392D-03 -0.852994D-04 -0.656100D-04
     33 -0.389573D-04  0.430214D-03  0.558667D-03  0.176012D-03 -0.321130D-04
     34 -0.794747D-05 -0.235710D-03 -0.641582D-03  0.778537D-04 -0.452577D-04
     35  0.347664D-03 -0.143702D-03 -0.541405D-03 -0.118063D-03  0.109222D-03
     36  0.245816D-03  0.329699D-03  0.425179D-03 -0.111988D-03  0.271997D-04
                6             7             8             9            10 
      6  0.492515D+00
      7 -0.107785D-03  0.319541D+00
      8 -0.518580D-03 -0.912890D-02  0.166302D-01
      9 -0.207056D-01 -0.113017D+00 -0.478440D-02  0.106365D+00
     10  0.251935D-02 -0.108429D-01  0.138562D-01 -0.121860D-01  0.213176D+00
     11 -0.243987D-02 -0.403633D-02  0.248470D-02 -0.631213D-03 -0.122630D+00
     12 -0.271344D-01  0.785030D-02 -0.582011D-02  0.819066D-02  0.100683D+00
     13  0.172966D+00  0.245688D-02  0.285361D-03  0.171141D-04  0.201736D-02
     14 -0.125785D-01  0.875655D-04  0.286682D-02  0.108343D-02 -0.175419D-02
     15 -0.887056D-01 -0.185062D-02  0.412640D-03 -0.657734D-02 -0.576084D-03
     16  0.165372D-02  0.919537D-04 -0.355464D-02 -0.105390D-02  0.689076D-03
     17  0.731580D-02  0.821848D-03 -0.209451D-02 -0.752164D-03 -0.309239D-02
     18  0.403354D-02  0.588863D-03 -0.198306D-03  0.351244D-04 -0.654966D-03
     19 -0.131765D-02 -0.461317D-04 -0.362355D-03 -0.236368D-03 -0.112049D-03
     20 -0.429375D-02 -0.105965D-03  0.147863D-04  0.255216D-03 -0.628442D-04
     21 -0.109534D-02 -0.284325D-03  0.600334D-03  0.416811D-03  0.552683D-03
     22 -0.884034D-03  0.197777D-03  0.256715D-04  0.426447D-04 -0.123269D-04
     23 -0.181267D-02 -0.260458D-04 -0.781520D-03 -0.992602D-04  0.341108D-03
     24 -0.750627D-03 -0.535530D-04 -0.300005D-03 -0.162986D-03  0.201648D-03
     25 -0.159850D-03  0.000000D+00  0.143648D-03  0.956425D-04 -0.582584D-04
     26 -0.211019D-02 -0.246250D-03  0.774449D-05  0.117127D-03 -0.417649D-03
     27 -0.714948D-03 -0.377923D-04  0.279441D-03  0.211753D-04 -0.825940D-04
     28  0.379217D-03  0.630664D-04  0.333913D-03  0.162104D-03 -0.195008D-04
     29  0.661621D-04  0.345077D-04  0.127071D-03  0.833320D-04  0.101324D-03
     30 -0.228396D-02 -0.921463D-04 -0.223855D-03  0.655042D-05 -0.144794D-03
     31  0.346326D-03 -0.330569D-04  0.188849D-04 -0.654439D-04 -0.475541D-05
     32  0.669103D-03 -0.290793D-04  0.705054D-04  0.296732D-04  0.274835D-03
     33 -0.698118D-04  0.142880D-04 -0.113401D-03  0.787750D-05 -0.238515D-04
     34  0.169719D-03  0.740943D-04  0.422823D-03  0.276839D-03  0.732485D-04
     35  0.668420D-03 -0.142210D-03  0.127321D-03 -0.463387D-04  0.161270D-04
     36 -0.169054D-03 -0.208621D-03 -0.386962D-03 -0.103143D-03 -0.106265D-03
               11            12            13            14            15 
     11  0.917161D-01
     12 -0.732489D-01  0.123768D+00
     13 -0.539356D-03 -0.242662D-02  0.485095D+00
     14 -0.535654D-03 -0.456839D-03 -0.359909D-01  0.781066D-02
     15  0.984809D-03  0.163272D-02 -0.164611D+00  0.116462D-01  0.116977D+00
     16  0.156092D-02  0.503355D-03  0.254635D-03  0.508520D-03 -0.127578D-04
     17 -0.277068D-02 -0.149295D-02  0.363452D-03  0.234591D-03  0.625258D-04
     18  0.557679D-03  0.194790D-03  0.128652D-03  0.287757D-03  0.109230D-03
     19  0.213035D-04  0.257515D-03 -0.205816D-03  0.286385D-04  0.959223D-04
     20 -0.525825D-03  0.130814D-03 -0.407849D-03  0.147730D-03  0.245712D-03
     21  0.275846D-03  0.565367D-03 -0.100915D-03 -0.146865D-03  0.326310D-04
     22 -0.359958D-03 -0.280787D-05 -0.150688D-03 -0.223430D-03 -0.109404D-03
     23 -0.907740D-04  0.181569D-03 -0.159784D-03 -0.637204D-04 -0.236365D-03
     24  0.140775D-03  0.406434D-04 -0.536141D-04 -0.128222D-03 -0.432547D-04
     25 -0.378243D-03 -0.332737D-04 -0.765729D-04  0.582981D-04 -0.681706D-04
     26 -0.544439D-03 -0.149474D-03 -0.479982D-04 -0.145905D-03  0.201969D-04
     27 -0.348963D-03 -0.187750D-03  0.371030D-05 -0.633447D-04  0.299480D-04
     28 -0.932485D-04 -0.122130D-03  0.436829D-04 -0.752521D-04 -0.488385D-04
     29  0.247971D-03  0.162105D-03  0.107438D-05  0.129055D-04  0.362966D-04
     30 -0.447263D-03 -0.308597D-04 -0.232205D-03  0.160104D-03  0.177437D-03
     31 -0.117466D-03 -0.182228D-03  0.392701D-04  0.324295D-04 -0.162865D-04
     32  0.265327D-03  0.188001D-03  0.751788D-04 -0.337795D-04 -0.352368D-04
     33 -0.523428D-03 -0.160069D-03 -0.433713D-04  0.899571D-04 -0.481879D-04
     34  0.151801D-04  0.242219D-04  0.216116D-05 -0.117385D-03 -0.599414D-04
     35  0.554136D-04 -0.449467D-05  0.571664D-04 -0.541665D-04 -0.185612D-04
     36 -0.562298D-04  0.345613D-04  0.372960D-05  0.822814D-04  0.526182D-04
               16            17            18            19            20 
     16  0.587123D+00
     17 -0.133359D+00  0.144948D+00
     18 -0.273715D-01 -0.156807D+00  0.489235D+00
     19 -0.907065D-01  0.551198D-02  0.315748D-01  0.565796D+00
     20  0.651884D-02 -0.548385D-01  0.288551D-01 -0.136193D-01  0.518268D+00
     21  0.326699D-01  0.333626D-01 -0.227586D+00  0.658719D-02 -0.195162D-01
     22 -0.317678D+00  0.133409D-01  0.877618D-01 -0.576776D-03 -0.351594D-03
     23  0.337920D-02 -0.194701D-01  0.141314D-01 -0.156801D-02  0.152374D-02
     24  0.818204D-01  0.104811D-01 -0.758902D-01  0.294363D-01  0.104449D-02
     25 -0.175955D+00  0.105942D+00 -0.102535D+00  0.655222D-02 -0.422163D-02
     26  0.113541D+00 -0.991507D-01  0.100830D+00  0.926737D-04  0.168739D-02
     27 -0.100765D+00  0.922903D-01 -0.139573D+00 -0.195065D-01  0.167657D-01
     28  0.181567D-02  0.563089D-02  0.298847D-02 -0.551898D-01 -0.426140D-01
     29  0.252624D-02  0.694758D-02 -0.165504D-02 -0.442464D-01 -0.215952D+00
     30 -0.393806D-02 -0.219152D-01 -0.234260D-01 -0.283375D-01 -0.109299D+00
     31  0.493622D-02 -0.579384D-02  0.117134D-02 -0.131003D+00  0.107602D+00
     32  0.988064D-03 -0.641463D-03  0.274998D-03  0.108373D+00 -0.189320D+00
     33 -0.211290D-01  0.228358D-01 -0.160665D-01 -0.546070D-01  0.760044D-01
     34 -0.437632D-02  0.346024D-04  0.233140D-02 -0.294711D+00 -0.531123D-01
     35 -0.242652D-02 -0.518834D-03 -0.115463D-02 -0.539665D-01 -0.589956D-01
     36  0.344814D-01  0.438622D-02 -0.684459D-02  0.361033D-01  0.109979D-01
               21            22            23            24            25 
     21  0.482947D+00
     22 -0.204259D-02  0.329293D+00
     23  0.333900D-03 -0.110245D-01  0.170587D-01
     24 -0.418869D-02 -0.940804D-01 -0.102388D-01  0.776674D-01
     25  0.542159D-02 -0.128190D-01  0.146721D-01 -0.156170D-01  0.180109D+00
     26 -0.147089D-02 -0.193485D-02  0.301613D-02 -0.261537D-03 -0.113054D+00
     27 -0.108009D-01  0.714722D-02 -0.507719D-02  0.693722D-02  0.110872D+00
     28 -0.246887D-01 -0.205107D-03 -0.619319D-03 -0.310653D-03  0.136921D-03
     29 -0.989325D-01  0.647684D-04  0.895377D-04 -0.539844D-03  0.668760D-04
     30 -0.104372D+00  0.320474D-03  0.713835D-03  0.265908D-03  0.156306D-03
     31 -0.541692D-01  0.558483D-03 -0.599047D-03 -0.618773D-03  0.915290D-03
     32  0.765658D-01 -0.225974D-03  0.124651D-03  0.226972D-03 -0.783882D-03
     33 -0.824310D-01  0.426001D-03 -0.780674D-03  0.133810D-02  0.248193D-02
     34  0.365324D-01  0.124421D-02 -0.115121D-02  0.685061D-03  0.900726D-03
     35  0.115961D-01  0.265473D-03  0.866061D-03  0.371370D-03 -0.331401D-03
     36 -0.507513D-01  0.727492D-03  0.154154D-02 -0.576864D-02 -0.884018D-03
               26            27            28            29            30 
     26  0.986401D-01
     27 -0.100966D+00  0.147237D+00
     28  0.334325D-03 -0.139027D-03  0.561507D-01
     29 -0.382039D-03 -0.545986D-03  0.485628D-01  0.236091D+00
     30  0.861460D-03  0.114102D-03  0.283931D-01  0.116165D+00  0.119828D+00
     31  0.344490D-03  0.147792D-02  0.373306D-02 -0.566344D-02  0.289846D-02
     32  0.588450D-03 -0.166324D-03  0.158995D-01 -0.211008D-01  0.100030D-01
     33  0.122909D-02 -0.522460D-02  0.954703D-02 -0.118024D-01  0.627829D-02
     34  0.221709D-03  0.415557D-03 -0.675095D-02 -0.137577D-02  0.443092D-03
     35 -0.185506D-03 -0.156413D-03 -0.272877D-01 -0.627805D-02  0.363485D-02
     36 -0.188090D-03  0.131425D-02 -0.159816D-01 -0.286349D-02  0.217467D-02
               31            32            33            34            35 
     31  0.136307D+00
     32 -0.119600D+00  0.203889D+00
     33  0.608165D-01 -0.827298D-01  0.949253D-01
     34 -0.154469D-01 -0.457939D-02  0.238039D-02  0.318921D+00
     35  0.236634D-01  0.618154D-02 -0.460767D-02  0.599227D-01  0.588363D-01
     36 -0.117121D-01 -0.412881D-02  0.891865D-03 -0.425571D-01 -0.974123D-02
               36 
     36  0.587436D-01
 Internal force constants: 
                1             2             3             4             5 
      1  0.432081D+00
      2  0.888100D-02  0.368296D+00
      3  0.991204D-02  0.174194D-03  0.355602D+00
      4  0.163519D-02 -0.184507D-02  0.684901D-03  0.550410D+00
      5 -0.215628D-03 -0.490957D-03 -0.604130D-03 -0.289809D-03 -0.202901D-01
      6  0.290581D-02  0.594258D-03  0.688691D-03 -0.364477D-03  0.271535D-02
      7  0.682815D-03 -0.152344D-03  0.127425D-03 -0.758841D-04 -0.306421D-03
      8  0.529830D-03  0.904529D-04 -0.150884D-03  0.141192D-04 -0.413744D-03
      9  0.947001D-03  0.474482D-04  0.705592D-04 -0.147977D-03 -0.303741D-03
     10  0.330721D-03 -0.295430D-04 -0.667252D-04 -0.523387D-04  0.102245D-03
     11  0.262818D-03 -0.381960D-04 -0.567582D-04 -0.459830D-04  0.245139D-04
     12  0.527469D-01  0.316710D-02 -0.105508D-01  0.639115D-02 -0.628129D-03
     13  0.483428D-01 -0.951748D-02  0.333571D-03 -0.724848D-02 -0.689080D-03
     14  0.532667D-01  0.287371D-02 -0.181475D-03  0.173392D-01 -0.646041D-04
     15  0.492606D-02  0.994830D-03  0.123421D-02 -0.117491D-02 -0.191172D-02
     16 -0.221415D-03  0.112106D-02  0.125361D-02 -0.477044D-03 -0.397439D-03
     17 -0.155900D-02  0.128008D-03 -0.181250D-03  0.889713D-04 -0.174227D-02
     18 -0.147701D-02 -0.108209D-03  0.146641D-03 -0.467164D-04 -0.166911D-02
     19  0.396928D-02  0.148277D-03  0.166909D-03 -0.529805D-03  0.152587D-02
     20  0.294686D-03 -0.987032D-05  0.385915D-03 -0.631477D-04  0.919537D-05
     21  0.257920D-03  0.311065D-03 -0.448652D-04 -0.354363D-04 -0.778705D-04
     22 -0.196126D-03 -0.104537D-01 -0.151577D-01 -0.104713D-02  0.694439D-02
     23  0.544809D-03  0.303487D-03 -0.201178D-02 -0.117240D-02  0.393607D-03
     24  0.664521D-03 -0.155459D-02  0.176884D-02 -0.389644D-05 -0.670708D-03
     25 -0.220351D-03 -0.202572D-03  0.315401D-03 -0.570678D-04 -0.162757D-03
     26  0.198559D-03 -0.705373D-03  0.106731D-02 -0.158883D-04 -0.825481D-03
     27 -0.359851D-02 -0.459026D-03  0.360630D-04  0.110186D-03 -0.781926D-02
     28  0.102868D-03  0.201771D-03 -0.322759D-03 -0.468915D-05  0.195533D-03
     29  0.120376D-02 -0.507306D-04 -0.227018D-03 -0.149149D-03  0.396067D-03
     30 -0.115468D-02  0.218933D-03 -0.607323D-04  0.104208D-03 -0.280443D-03
                6             7             8             9            10 
      6  0.315238D+00
      7  0.364410D-02  0.360652D+00
      8  0.336456D-02  0.122474D-02  0.362660D+00
      9  0.134171D-01  0.284230D-03  0.235350D-03  0.319821D+00
     10  0.663208D-02  0.607229D-03 -0.564031D-03  0.347162D-02  0.337765D+00
     11  0.629880D-02 -0.564213D-03  0.591206D-03  0.337419D-02  0.213189D-02
     12  0.477188D-04  0.336240D-03 -0.109705D-03  0.193074D-03 -0.955701D-04
     13  0.454505D-04 -0.178069D-03  0.285904D-03  0.138488D-03 -0.627874D-03
     14 -0.122649D-03  0.220162D-03 -0.809572D-04 -0.120462D-03  0.381754D-04
     15  0.277996D-02  0.866735D-03  0.573503D-03  0.113383D-02 -0.124551D-02
     16  0.433110D-02  0.785842D-03  0.661836D-03  0.108169D-02 -0.237224D-03
     17  0.277636D-01  0.118232D-03 -0.150935D-01  0.694734D-03 -0.662802D-03
     18  0.279028D-01 -0.158423D-01 -0.358846D-03  0.822137D-03  0.424185D-02
     19  0.323953D-01  0.215641D-03  0.312693D-03 -0.595227D-02 -0.952767D-02
     20  0.352266D-01 -0.751252D-03  0.505098D-02 -0.919810D-02 -0.485875D-02
     21  0.351796D-01  0.537960D-02 -0.822733D-03 -0.914529D-02 -0.835147D-02
     22  0.801881D-03  0.652553D-03 -0.115279D-03  0.663109D-04  0.913738D-03
     23  0.296591D-03 -0.307155D-03 -0.126455D-03  0.119975D-03  0.126735D-03
     24 -0.220531D-04 -0.123284D-02  0.425483D-03 -0.615389D-04 -0.593910D-03
     25  0.733976D-04 -0.137154D-03 -0.272790D-03 -0.136029D-05 -0.272854D-04
     26 -0.997293D-04 -0.128874D-02  0.114770D-02  0.710010D-04 -0.175453D-03
     27 -0.692045D-03  0.745265D-02  0.905706D-02 -0.297831D-03 -0.176519D-02
     28 -0.576557D-04 -0.631136D-03  0.678693D-03  0.123700D-03 -0.281917D-02
     29 -0.537439D-02 -0.635571D-03 -0.262698D-03  0.165853D-01 -0.179271D-03
     30  0.503847D-02  0.256748D-03  0.619737D-03 -0.164776D-01  0.135955D-01
               11            12            13            14            15 
     11  0.338848D+00
     12 -0.573113D-03  0.239522D+00
     13  0.232821D-04  0.618112D-01  0.238543D+00
     14 -0.105117D-03  0.224049D-01 -0.287204D-02  0.177861D+00
     15 -0.112786D-02  0.182376D-02  0.371246D-02 -0.111861D-02  0.465855D-01
     16 -0.385605D-03  0.175869D-02  0.234725D-02 -0.818264D-03  0.246268D-01
     17  0.427475D-02  0.459700D-03  0.143874D-03 -0.218487D-03 -0.368757D-03
     18 -0.808356D-03  0.191709D-03  0.562740D-03  0.292161D-03  0.158863D-02
     19 -0.938110D-02 -0.493741D-03 -0.496826D-03 -0.240781D-03  0.153288D-02
     20 -0.831864D-02  0.189775D-03 -0.588761D-03  0.206071D-03 -0.865454D-03
     21 -0.473605D-02 -0.501727D-03  0.233201D-03 -0.143713D-03 -0.952428D-03
     22  0.145551D-03  0.385701D-01  0.328199D-01  0.237652D-02 -0.714636D-02
     23  0.232564D-03  0.381796D-02 -0.294340D-03  0.206433D-02  0.109411D-02
     24  0.106294D-02 -0.403525D-02  0.466294D-02  0.120301D-02  0.204683D-02
     25  0.131613D-03 -0.201226D-03  0.519515D-03 -0.341705D-04  0.522437D-03
     26  0.120879D-03 -0.628939D-03  0.948842D-03  0.860457D-03  0.393050D-02
     27  0.118665D-02 -0.195390D-03  0.708476D-03 -0.106756D-03  0.558355D-02
     28  0.264363D-02  0.608658D-05 -0.250471D-03 -0.408317D-04 -0.454139D-03
     29 -0.135159D-01  0.153049D-03  0.439335D-03 -0.714411D-04  0.236200D-03
     30  0.228024D-03 -0.654722D-03  0.379289D-04 -0.612131D-04 -0.306185D-03
               16            17            18            19            20 
     16  0.438275D-01
     17  0.122067D-02  0.206779D+00
     18  0.443736D-03  0.812689D-01  0.207428D+00
     19  0.533090D-02 -0.218373D-02 -0.165945D-02  0.208810D+00
     20 -0.136688D-02 -0.629891D-02  0.213550D-01  0.323861D-01  0.220241D+00
     21 -0.122145D-02  0.216308D-01 -0.623797D-02  0.320701D-01  0.298519D-01
     22 -0.279531D-02  0.389040D-03 -0.615403D-03  0.177422D-02  0.109382D-02
     23  0.506161D-03  0.645638D-03  0.358135D-03  0.476049D-03  0.201884D-03
     24 -0.458022D-03 -0.141582D-03  0.129680D-02 -0.683797D-05 -0.731970D-03
     25  0.172414D-03  0.655743D-03  0.486370D-03  0.180672D-03 -0.158415D-03
     26 -0.518490D-03 -0.537563D-02  0.549780D-02  0.250812D-03 -0.428143D-03
     27  0.971133D-02 -0.340148D-01 -0.317639D-01 -0.291323D-02 -0.235740D-02
     28  0.480342D-03  0.242941D-02 -0.274084D-02 -0.127269D-03 -0.271045D-02
     29  0.399292D-03  0.726414D-03 -0.173698D-02 -0.537335D-01 -0.727403D-03
     30 -0.303207D-03  0.149459D-02 -0.776037D-03  0.536813D-01 -0.554768D-01
               21            22            23            24            25 
     21  0.220723D+00
     22  0.362916D-03  0.523311D-01
     23  0.220253D-03  0.422594D-02  0.148264D-01
     24  0.108636D-02 -0.145508D-01  0.123399D-02  0.319560D-01
     25  0.405785D-03 -0.887783D-03  0.268201D-03  0.139132D-02 -0.217514D-04
     26  0.206812D-03 -0.399776D-02  0.339487D-03  0.794174D-02 -0.419199D-04
     27  0.664154D-03 -0.262612D-02  0.343044D-03  0.338393D-02 -0.370507D-03
     28  0.254471D-02  0.949241D-03 -0.311730D-03 -0.251609D-02 -0.836293D-03
     29  0.554878D-01  0.259530D-03 -0.849652D-04 -0.386270D-03 -0.274281D-03
     30  0.492054D-03 -0.117656D-03 -0.598914D-04 -0.136839D-03 -0.244116D-03
               26            27            28            29            30 
     26  0.344456D-01
     27  0.159043D-01  0.431277D-01
     28 -0.191331D-02  0.350705D-02  0.931720D-02
     29 -0.348862D-03  0.364551D-02  0.570288D-02  0.167097D+00
     30 -0.662213D-03  0.175302D-02  0.639070D-02 -0.785680D-01  0.167612D+00
 Frcnst in PutFF: 
                1             2             3             4             5 
      1  0.432081D+00
      2  0.888100D-02  0.368296D+00
      3  0.991204D-02  0.174194D-03  0.355602D+00
      4  0.163519D-02 -0.184507D-02  0.684901D-03  0.550410D+00
      5  0.527469D-01  0.316710D-02 -0.105508D-01  0.639115D-02  0.239522D+00
      6  0.483428D-01 -0.951748D-02  0.333571D-03 -0.724848D-02  0.618112D-01
      7  0.532667D-01  0.287371D-02 -0.181475D-03  0.173392D-01  0.224049D-01
      8 -0.196126D-03 -0.104537D-01 -0.151577D-01 -0.104713D-02  0.385701D-01
      9  0.290581D-02  0.594258D-03  0.688691D-03 -0.364477D-03  0.477188D-04
     10  0.682815D-03 -0.152344D-03  0.127425D-03 -0.758841D-04  0.336240D-03
     11  0.529830D-03  0.904529D-04 -0.150884D-03  0.141192D-04 -0.109705D-03
     12  0.947001D-03  0.474482D-04  0.705592D-04 -0.147977D-03  0.193074D-03
     13  0.330721D-03 -0.295430D-04 -0.667252D-04 -0.523387D-04 -0.955701D-04
     14  0.262818D-03 -0.381960D-04 -0.567582D-04 -0.459830D-04 -0.573113D-03
     15 -0.155900D-02  0.128008D-03 -0.181250D-03  0.889713D-04  0.459700D-03
     16 -0.147701D-02 -0.108209D-03  0.146641D-03 -0.467164D-04  0.191709D-03
     17  0.396928D-02  0.148277D-03  0.166909D-03 -0.529805D-03 -0.493741D-03
     18  0.294686D-03 -0.987032D-05  0.385915D-03 -0.631477D-04  0.189775D-03
     19  0.257920D-03  0.311065D-03 -0.448652D-04 -0.354363D-04 -0.501727D-03
     20 -0.359851D-02 -0.459026D-03  0.360630D-04  0.110186D-03 -0.195390D-03
     21  0.120376D-02 -0.507306D-04 -0.227018D-03 -0.149149D-03  0.153049D-03
     22 -0.115468D-02  0.218933D-03 -0.607323D-04  0.104208D-03 -0.654722D-03
     23 -0.221415D-03  0.112106D-02  0.125361D-02 -0.477044D-03  0.175869D-02
     24 -0.220351D-03 -0.202572D-03  0.315401D-03 -0.570678D-04 -0.201226D-03
     25  0.198559D-03 -0.705373D-03  0.106731D-02 -0.158883D-04 -0.628939D-03
     26  0.544809D-03  0.303487D-03 -0.201178D-02 -0.117240D-02  0.381796D-02
     27  0.102868D-03  0.201771D-03 -0.322759D-03 -0.468915D-05  0.608658D-05
     28  0.664521D-03 -0.155459D-02  0.176884D-02 -0.389644D-05 -0.403525D-02
     29  0.492606D-02  0.994830D-03  0.123421D-02 -0.117491D-02  0.182376D-02
     30 -0.215628D-03 -0.490957D-03 -0.604130D-03 -0.289809D-03 -0.628129D-03
                6             7             8             9            10 
      6  0.238543D+00
      7 -0.287204D-02  0.177861D+00
      8  0.328199D-01  0.237652D-02  0.523311D-01
      9  0.454505D-04 -0.122649D-03  0.801881D-03  0.315238D+00
     10 -0.178069D-03  0.220162D-03  0.652553D-03  0.364410D-02  0.360652D+00
     11  0.285904D-03 -0.809572D-04 -0.115279D-03  0.336456D-02  0.122474D-02
     12  0.138488D-03 -0.120462D-03  0.663109D-04  0.134171D-01  0.284230D-03
     13 -0.627874D-03  0.381754D-04  0.913738D-03  0.663208D-02  0.607229D-03
     14  0.232821D-04 -0.105117D-03  0.145551D-03  0.629880D-02 -0.564213D-03
     15  0.143874D-03 -0.218487D-03  0.389040D-03  0.277636D-01  0.118232D-03
     16  0.562740D-03  0.292161D-03 -0.615403D-03  0.279028D-01 -0.158423D-01
     17 -0.496826D-03 -0.240781D-03  0.177422D-02  0.323953D-01  0.215641D-03
     18 -0.588761D-03  0.206071D-03  0.109382D-02  0.352266D-01 -0.751252D-03
     19  0.233201D-03 -0.143713D-03  0.362916D-03  0.351796D-01  0.537960D-02
     20  0.708476D-03 -0.106756D-03 -0.262612D-02 -0.692045D-03  0.745265D-02
     21  0.439335D-03 -0.714411D-04  0.259530D-03 -0.537439D-02 -0.635571D-03
     22  0.379289D-04 -0.612131D-04 -0.117656D-03  0.503847D-02  0.256748D-03
     23  0.234725D-02 -0.818264D-03 -0.279531D-02  0.433110D-02  0.785842D-03
     24  0.519515D-03 -0.341705D-04 -0.887783D-03  0.733976D-04 -0.137154D-03
     25  0.948842D-03  0.860457D-03 -0.399776D-02 -0.997293D-04 -0.128874D-02
     26 -0.294340D-03  0.206433D-02  0.422594D-02  0.296591D-03 -0.307155D-03
     27 -0.250471D-03 -0.408317D-04  0.949241D-03 -0.576557D-04 -0.631136D-03
     28  0.466294D-02  0.120301D-02 -0.145508D-01 -0.220531D-04 -0.123284D-02
     29  0.371246D-02 -0.111861D-02 -0.714636D-02  0.277996D-02  0.866735D-03
     30 -0.689080D-03 -0.646041D-04  0.694439D-02  0.271535D-02 -0.306421D-03
               11            12            13            14            15 
     11  0.362660D+00
     12  0.235350D-03  0.319821D+00
     13 -0.564031D-03  0.347162D-02  0.337765D+00
     14  0.591206D-03  0.337419D-02  0.213189D-02  0.338848D+00
     15 -0.150935D-01  0.694734D-03 -0.662802D-03  0.427475D-02  0.206779D+00
     16 -0.358846D-03  0.822137D-03  0.424185D-02 -0.808356D-03  0.812689D-01
     17  0.312693D-03 -0.595227D-02 -0.952767D-02 -0.938110D-02 -0.218373D-02
     18  0.505098D-02 -0.919810D-02 -0.485875D-02 -0.831864D-02 -0.629891D-02
     19 -0.822733D-03 -0.914529D-02 -0.835147D-02 -0.473605D-02  0.216308D-01
     20  0.905706D-02 -0.297831D-03 -0.176519D-02  0.118665D-02 -0.340148D-01
     21 -0.262698D-03  0.165853D-01 -0.179271D-03 -0.135159D-01  0.726414D-03
     22  0.619737D-03 -0.164776D-01  0.135955D-01  0.228024D-03  0.149459D-02
     23  0.661836D-03  0.108169D-02 -0.237224D-03 -0.385605D-03  0.122067D-02
     24 -0.272790D-03 -0.136029D-05 -0.272854D-04  0.131613D-03  0.655743D-03
     25  0.114770D-02  0.710010D-04 -0.175453D-03  0.120879D-03 -0.537563D-02
     26 -0.126455D-03  0.119975D-03  0.126735D-03  0.232564D-03  0.645638D-03
     27  0.678693D-03  0.123700D-03 -0.281917D-02  0.264363D-02  0.242941D-02
     28  0.425483D-03 -0.615389D-04 -0.593910D-03  0.106294D-02 -0.141582D-03
     29  0.573503D-03  0.113383D-02 -0.124551D-02 -0.112786D-02 -0.368757D-03
     30 -0.413744D-03 -0.303741D-03  0.102245D-03  0.245139D-04 -0.174227D-02
               16            17            18            19            20 
     16  0.207428D+00
     17 -0.165945D-02  0.208810D+00
     18  0.213550D-01  0.323861D-01  0.220241D+00
     19 -0.623797D-02  0.320701D-01  0.298519D-01  0.220723D+00
     20 -0.317639D-01 -0.291323D-02 -0.235740D-02  0.664154D-03  0.431277D-01
     21 -0.173698D-02 -0.537335D-01 -0.727403D-03  0.554878D-01  0.364551D-02
     22 -0.776037D-03  0.536813D-01 -0.554768D-01  0.492054D-03  0.175302D-02
     23  0.443736D-03  0.533090D-02 -0.136688D-02 -0.122145D-02  0.971133D-02
     24  0.486370D-03  0.180672D-03 -0.158415D-03  0.405785D-03 -0.370507D-03
     25  0.549780D-02  0.250812D-03 -0.428143D-03  0.206812D-03  0.159043D-01
     26  0.358135D-03  0.476049D-03  0.201884D-03  0.220253D-03  0.343044D-03
     27 -0.274084D-02 -0.127269D-03 -0.271045D-02  0.254471D-02  0.350705D-02
     28  0.129680D-02 -0.683797D-05 -0.731970D-03  0.108636D-02  0.338393D-02
     29  0.158863D-02  0.153288D-02 -0.865454D-03 -0.952428D-03  0.558355D-02
     30 -0.166911D-02  0.152587D-02  0.919537D-05 -0.778705D-04 -0.781926D-02
               21            22            23            24            25 
     21  0.167097D+00
     22 -0.785680D-01  0.167612D+00
     23  0.399292D-03 -0.303207D-03  0.438275D-01
     24 -0.274281D-03 -0.244116D-03  0.172414D-03 -0.217514D-04
     25 -0.348862D-03 -0.662213D-03 -0.518490D-03 -0.419199D-04  0.344456D-01
     26 -0.849652D-04 -0.598914D-04  0.506161D-03  0.268201D-03  0.339487D-03
     27  0.570288D-02  0.639070D-02  0.480342D-03 -0.836293D-03 -0.191331D-02
     28 -0.386270D-03 -0.136839D-03 -0.458022D-03  0.139132D-02  0.794174D-02
     29  0.236200D-03 -0.306185D-03  0.246268D-01  0.522437D-03  0.393050D-02
     30  0.396067D-03 -0.280443D-03 -0.397439D-03 -0.162757D-03 -0.825481D-03
               26            27            28            29            30 
     26  0.148264D-01
     27 -0.311730D-03  0.931720D-02
     28  0.123399D-02 -0.251609D-02  0.319560D-01
     29  0.109411D-02 -0.454139D-03  0.204683D-02  0.465855D-01
     30  0.393607D-03  0.195533D-03 -0.670708D-03 -0.191172D-02 -0.202901D-01
 Force constants in internal coordinates: 
                1             2             3             4             5 
      1  0.432081D+00
      2  0.888100D-02  0.368296D+00
      3  0.991204D-02  0.174194D-03  0.355602D+00
      4  0.163519D-02 -0.184507D-02  0.684901D-03  0.550410D+00
      5 -0.215628D-03 -0.490957D-03 -0.604130D-03 -0.289809D-03 -0.202901D-01
      6  0.290581D-02  0.594258D-03  0.688691D-03 -0.364477D-03  0.271535D-02
      7  0.682815D-03 -0.152344D-03  0.127425D-03 -0.758841D-04 -0.306421D-03
      8  0.529830D-03  0.904529D-04 -0.150884D-03  0.141192D-04 -0.413744D-03
      9  0.947001D-03  0.474482D-04  0.705592D-04 -0.147977D-03 -0.303741D-03
     10  0.330721D-03 -0.295430D-04 -0.667252D-04 -0.523387D-04  0.102245D-03
     11  0.262818D-03 -0.381960D-04 -0.567582D-04 -0.459830D-04  0.245139D-04
     12  0.527469D-01  0.316710D-02 -0.105508D-01  0.639115D-02 -0.628129D-03
     13  0.483428D-01 -0.951748D-02  0.333571D-03 -0.724848D-02 -0.689080D-03
     14  0.532667D-01  0.287371D-02 -0.181475D-03  0.173392D-01 -0.646041D-04
     15  0.492606D-02  0.994830D-03  0.123421D-02 -0.117491D-02 -0.191172D-02
     16 -0.221415D-03  0.112106D-02  0.125361D-02 -0.477044D-03 -0.397439D-03
     17 -0.155900D-02  0.128008D-03 -0.181250D-03  0.889713D-04 -0.174227D-02
     18 -0.147701D-02 -0.108209D-03  0.146641D-03 -0.467164D-04 -0.166911D-02
     19  0.396928D-02  0.148277D-03  0.166909D-03 -0.529805D-03  0.152587D-02
     20  0.294686D-03 -0.987032D-05  0.385915D-03 -0.631477D-04  0.919537D-05
     21  0.257920D-03  0.311065D-03 -0.448652D-04 -0.354363D-04 -0.778705D-04
     22 -0.196126D-03 -0.104537D-01 -0.151577D-01 -0.104713D-02  0.694439D-02
     23  0.544809D-03  0.303487D-03 -0.201178D-02 -0.117240D-02  0.393607D-03
     24  0.664521D-03 -0.155459D-02  0.176884D-02 -0.389644D-05 -0.670708D-03
     25 -0.220351D-03 -0.202572D-03  0.315401D-03 -0.570678D-04 -0.162757D-03
     26  0.198559D-03 -0.705373D-03  0.106731D-02 -0.158883D-04 -0.825481D-03
     27 -0.359851D-02 -0.459026D-03  0.360630D-04  0.110186D-03 -0.781926D-02
     28  0.102868D-03  0.201771D-03 -0.322759D-03 -0.468915D-05  0.195533D-03
     29  0.120376D-02 -0.507306D-04 -0.227018D-03 -0.149149D-03  0.396067D-03
     30 -0.115468D-02  0.218933D-03 -0.607323D-04  0.104208D-03 -0.280443D-03
                6             7             8             9            10 
      6  0.315238D+00
      7  0.364410D-02  0.360652D+00
      8  0.336456D-02  0.122474D-02  0.362660D+00
      9  0.134171D-01  0.284230D-03  0.235350D-03  0.319821D+00
     10  0.663208D-02  0.607229D-03 -0.564031D-03  0.347162D-02  0.337765D+00
     11  0.629880D-02 -0.564213D-03  0.591206D-03  0.337419D-02  0.213189D-02
     12  0.477188D-04  0.336240D-03 -0.109705D-03  0.193074D-03 -0.955701D-04
     13  0.454505D-04 -0.178069D-03  0.285904D-03  0.138488D-03 -0.627874D-03
     14 -0.122649D-03  0.220162D-03 -0.809572D-04 -0.120462D-03  0.381754D-04
     15  0.277996D-02  0.866735D-03  0.573503D-03  0.113383D-02 -0.124551D-02
     16  0.433110D-02  0.785842D-03  0.661836D-03  0.108169D-02 -0.237224D-03
     17  0.277636D-01  0.118232D-03 -0.150935D-01  0.694734D-03 -0.662802D-03
     18  0.279028D-01 -0.158423D-01 -0.358846D-03  0.822137D-03  0.424185D-02
     19  0.323953D-01  0.215641D-03  0.312693D-03 -0.595227D-02 -0.952767D-02
     20  0.352266D-01 -0.751252D-03  0.505098D-02 -0.919810D-02 -0.485875D-02
     21  0.351796D-01  0.537960D-02 -0.822733D-03 -0.914529D-02 -0.835147D-02
     22  0.801881D-03  0.652553D-03 -0.115279D-03  0.663109D-04  0.913738D-03
     23  0.296591D-03 -0.307155D-03 -0.126455D-03  0.119975D-03  0.126735D-03
     24 -0.220531D-04 -0.123284D-02  0.425483D-03 -0.615389D-04 -0.593910D-03
     25  0.733976D-04 -0.137154D-03 -0.272790D-03 -0.136029D-05 -0.272854D-04
     26 -0.997293D-04 -0.128874D-02  0.114770D-02  0.710010D-04 -0.175453D-03
     27 -0.692045D-03  0.745265D-02  0.905706D-02 -0.297831D-03 -0.176519D-02
     28 -0.576557D-04 -0.631136D-03  0.678693D-03  0.123700D-03 -0.281917D-02
     29 -0.537439D-02 -0.635571D-03 -0.262698D-03  0.165853D-01 -0.179271D-03
     30  0.503847D-02  0.256748D-03  0.619737D-03 -0.164776D-01  0.135955D-01
               11            12            13            14            15 
     11  0.338848D+00
     12 -0.573113D-03  0.239522D+00
     13  0.232821D-04  0.618112D-01  0.238543D+00
     14 -0.105117D-03  0.224049D-01 -0.287204D-02  0.177861D+00
     15 -0.112786D-02  0.182376D-02  0.371246D-02 -0.111861D-02  0.465855D-01
     16 -0.385605D-03  0.175869D-02  0.234725D-02 -0.818264D-03  0.246268D-01
     17  0.427475D-02  0.459700D-03  0.143874D-03 -0.218487D-03 -0.368757D-03
     18 -0.808356D-03  0.191709D-03  0.562740D-03  0.292161D-03  0.158863D-02
     19 -0.938110D-02 -0.493741D-03 -0.496826D-03 -0.240781D-03  0.153288D-02
     20 -0.831864D-02  0.189775D-03 -0.588761D-03  0.206071D-03 -0.865454D-03
     21 -0.473605D-02 -0.501727D-03  0.233201D-03 -0.143713D-03 -0.952428D-03
     22  0.145551D-03  0.385701D-01  0.328199D-01  0.237652D-02 -0.714636D-02
     23  0.232564D-03  0.381796D-02 -0.294340D-03  0.206433D-02  0.109411D-02
     24  0.106294D-02 -0.403525D-02  0.466294D-02  0.120301D-02  0.204683D-02
     25  0.131613D-03 -0.201226D-03  0.519515D-03 -0.341705D-04  0.522437D-03
     26  0.120879D-03 -0.628939D-03  0.948842D-03  0.860457D-03  0.393050D-02
     27  0.118665D-02 -0.195390D-03  0.708476D-03 -0.106756D-03  0.558355D-02
     28  0.264363D-02  0.608658D-05 -0.250471D-03 -0.408317D-04 -0.454139D-03
     29 -0.135159D-01  0.153049D-03  0.439335D-03 -0.714411D-04  0.236200D-03
     30  0.228024D-03 -0.654722D-03  0.379289D-04 -0.612131D-04 -0.306185D-03
               16            17            18            19            20 
     16  0.438275D-01
     17  0.122067D-02  0.206779D+00
     18  0.443736D-03  0.812689D-01  0.207428D+00
     19  0.533090D-02 -0.218373D-02 -0.165945D-02  0.208810D+00
     20 -0.136688D-02 -0.629891D-02  0.213550D-01  0.323861D-01  0.220241D+00
     21 -0.122145D-02  0.216308D-01 -0.623797D-02  0.320701D-01  0.298519D-01
     22 -0.279531D-02  0.389040D-03 -0.615403D-03  0.177422D-02  0.109382D-02
     23  0.506161D-03  0.645638D-03  0.358135D-03  0.476049D-03  0.201884D-03
     24 -0.458022D-03 -0.141582D-03  0.129680D-02 -0.683797D-05 -0.731970D-03
     25  0.172414D-03  0.655743D-03  0.486370D-03  0.180672D-03 -0.158415D-03
     26 -0.518490D-03 -0.537563D-02  0.549780D-02  0.250812D-03 -0.428143D-03
     27  0.971133D-02 -0.340148D-01 -0.317639D-01 -0.291323D-02 -0.235740D-02
     28  0.480342D-03  0.242941D-02 -0.274084D-02 -0.127269D-03 -0.271045D-02
     29  0.399292D-03  0.726414D-03 -0.173698D-02 -0.537335D-01 -0.727403D-03
     30 -0.303207D-03  0.149459D-02 -0.776037D-03  0.536813D-01 -0.554768D-01
               21            22            23            24            25 
     21  0.220723D+00
     22  0.362916D-03  0.523311D-01
     23  0.220253D-03  0.422594D-02  0.148264D-01
     24  0.108636D-02 -0.145508D-01  0.123399D-02  0.319560D-01
     25  0.405785D-03 -0.887783D-03  0.268201D-03  0.139132D-02 -0.217514D-04
     26  0.206812D-03 -0.399776D-02  0.339487D-03  0.794174D-02 -0.419199D-04
     27  0.664154D-03 -0.262612D-02  0.343044D-03  0.338393D-02 -0.370507D-03
     28  0.254471D-02  0.949241D-03 -0.311730D-03 -0.251609D-02 -0.836293D-03
     29  0.554878D-01  0.259530D-03 -0.849652D-04 -0.386270D-03 -0.274281D-03
     30  0.492054D-03 -0.117656D-03 -0.598914D-04 -0.136839D-03 -0.244116D-03
               26            27            28            29            30 
     26  0.344456D-01
     27  0.159043D-01  0.431277D-01
     28 -0.191331D-02  0.350705D-02  0.931720D-02
     29 -0.348862D-03  0.364551D-02  0.570288D-02  0.167097D+00
     30 -0.662213D-03  0.175302D-02  0.639070D-02 -0.785680D-01  0.167612D+00
 Final forces over variables, Energy=-1.94242595D+02:
 -1.68138588D-05 2.32284186D-05-2.27257219D-05-1.96077314D-07
  2.04750815D-06-1.64921392D-05-7.26434372D-06 3.61481549D-05
 -2.49391195D-05-1.53185589D-05-1.30751107D-05-1.02564206D-05
 -1.24922408D-05-3.04157954D-05-2.42741345D-05-1.69107570D-05
 -7.32281733D-06-8.72708632D-06-2.40261319D-06 1.70642773D-05
  7.79209331D-06 4.18264464D-06-7.79341759D-05-2.90458065D-06
 -3.86615410D-05 2.14979677D-05 3.12900999D-06 2.77439546D-06
 -2.81827468D-05-1.57577999D-02

 GradGradGradGradGradGradGradGradGradGradGradGradGradGradGradGradGradGrad
 Berny optimization.
 Search for a local minimum.
 Step number   1 out of a maximum of    2
 All quantities printed in internal units (Hartrees-Bohrs-Radians)
 Second derivative matrix not updated -- analytic derivatives used.
 ITU=  0
     Eigenvalues ---   -0.00016   0.00701   0.01291   0.01496   0.02137
     Eigenvalues ---    0.02383   0.04247   0.05276   0.06327   0.07675
     Eigenvalues ---    0.11157   0.11994   0.15444   0.18857   0.22241
     Eigenvalues ---    0.22452   0.27487   0.27809   0.29880   0.33621
     Eigenvalues ---    0.33705   0.34851   0.35841   0.36170   0.36705
     Eigenvalues ---    0.36976   0.37838   0.47520   0.551731000.00000
 Eigenvalue     1 is  -1.63D-04 should be greater than     0.000000 Eigenvector:
                          DH2       D24       DH1       DH3       D4
   1                    0.99528   0.08631  -0.03456   0.01764  -0.01522
                         ANG1       D3        D23       A22       A3
   1                   -0.00903   0.00890  -0.00416  -0.00387  -0.00263
 Angle between quadratic step and forces=  80.02 degrees.
 Linear search not attempted -- first point.
 Variable       Old X    -DE/DX   Delta X   Delta X   Delta X     New X
                                 (Linear)    (Quad)   (Total)
    R1        2.56455  -0.00002   0.00000  -0.00002  -0.00002   2.56453
    R2        2.03883   0.00002   0.00000   0.00008   0.00008   2.03891
    R3        2.04657  -0.00002   0.00000  -0.00000  -0.00000   2.04657
    R4        1.80885  -0.00000   0.00000   0.00000   0.00000   1.80885
    A2        1.97313   0.00000   0.00000  -0.00008  -0.00008   1.97305
    A3        2.06292  -0.00002   0.00000  -0.00011  -0.00011   2.06281
    A4        1.91513  -0.00001   0.00000  -0.00006  -0.00006   1.91507
    D3        3.73950   0.00004   0.00000   0.00070   0.00070   3.74020
   R21        2.81210  -0.00002   0.00000  -0.00008  -0.00008   2.81202
   R22        2.04412  -0.00002   0.00000  -0.00009  -0.00009   2.04403
   R23        2.04279  -0.00001   0.00000  -0.00008  -0.00008   2.04271
   R24        2.07492  -0.00001   0.00000  -0.00002  -0.00002   2.07490
   R25        2.06169  -0.00001   0.00000  -0.00005  -0.00005   2.06165
   R26        2.06094  -0.00003   0.00000  -0.00007  -0.00007   2.06086
   A22        2.07871  -0.00002   0.00000   0.00016   0.00016   2.07887
   A23        2.08338  -0.00002   0.00000   0.00028   0.00028   2.08365
   A24        1.94844  -0.00001   0.00000   0.00011   0.00011   1.94855
   A25        1.94934  -0.00001   0.00000  -0.00010  -0.00010   1.94924
   A26        1.94806  -0.00000   0.00000   0.00000   0.00000   1.94807
   D23        2.66853   0.00002   0.00000   0.00217   0.00217   2.67070
   D25        2.08403   0.00001   0.00000   0.00009   0.00009   2.08412
   D26        4.19768   0.00000   0.00000   0.00003   0.00003   4.19770
   ANG2       1.79591  -0.00008   0.00000  -0.00272  -0.00272   1.79318
   DH2        3.29762  -0.00000   0.00000  -0.01965  -0.01965   3.27796
   DH3        1.83355  -0.00004   0.00000  -0.00269  -0.00269   1.83087
    D4        3.06855   0.00002   0.00000   0.00148   0.00148   3.07002
   D24        4.96909   0.00000   0.00000  -0.00226  -0.00226   4.96683
   DH1        1.84836   0.00000   0.00000   0.00135   0.00135   1.84972
   ANG1       1.97046  -0.00003   0.00000   0.00101   0.00101   1.97148
    BB        5.29123  -0.01576   0.00000   0.00000   0.00000   5.29123
         Item               Value     Threshold  Converged?
 Maximum Force            0.000078     0.000450     YES
 RMS     Force            0.000023     0.000300     YES
 Maximum Displacement     0.019652     0.001800     NO 
 RMS     Displacement     0.003726     0.001200     NO 
 Predicted change in Energy=-2.842614D-07
 GradGradGradGradGradGradGradGradGradGradGradGradGradGradGradGradGradGrad


 Test job not archived.
 1\1\GINC-NODE-5-15\Freq\UwB97XD\Jun-CC-pVTZ\C3H8O1\MDITEODORO\13-Jun-2
 024\1\\# uwb97xd/jun-cc-pvtz # int=ultrafine nosym freq iop(7/33=1) gu
 ess=( ) #guess=read geom=allcheck\\geom 0\\0,1\C\O,1,R1\H,1,R2,2,A2\H,
 1,R3,2,A3,3,D3,0\H,2,R4,1,A4,3,D4,0\C,1,BB,2,ANG1,3,DH1,0\C,6,R21,1,AN
 G2,2,DH2,0\H,6,R22,7,A22,1,DH3,0\H,6,R23,7,A23,8,D23,0\H,7,R24,6,A24,8
 ,D24,0\H,7,R25,6,A25,10,D25,0\H,7,R26,6,A26,10,D26,0\\R1=1.3571\R2=1.0
 789\R3=1.083\R4=0.9572\A2=113.0519\A3=118.1965\A4=109.7289\D3=214.2576
 \R21=1.4881\R22=1.0817\R23=1.081\R24=1.098\R25=1.091\R26=1.0906\A22=11
 9.1013\A23=119.3686\A24=111.6374\A25=111.6891\A26=111.6157\D23=152.895
 4\D25=119.4063\D26=240.5093\ANG2=102.8979\DH2=188.9395\DH3=105.0548\D4
 =175.8147\D24=284.7077\DH1=105.9035\ANG1=112.8992\BB=2.8\\Version=EM64
 L-G09RevD.01\HF=-194.2425954\S2=0.679596\S2-1=0.\S2A=0.023448\RMSD=2.5
 35e-09\RMSF=3.708e-03\ZeroPoint=0.1005368\Thermal=0.1076521\Dipole=-0.
 4914994,0.2189733,-0.0877724\DipoleDeriv=0.1722517,-0.0690152,-0.00873
 28,-0.0828468,0.0307427,0.0670508,0.0723474,0.5200728,1.2064171,-0.237
 8236,0.0431408,0.0839568,0.0035822,-0.4488403,-0.1371305,-0.0774869,-0
 .6556158,-1.5178155,-0.0551889,-0.0101047,0.0554329,-0.0232582,0.05014
 22,-0.0182389,0.0125291,0.0280089,0.0129056,-0.0223051,0.0570091,-0.07
 99984,0.0749129,-0.0416041,-0.0044165,-0.0005346,0.0415354,-0.032562,0
 .1687729,-0.0419119,-0.0653932,0.0035847,0.3563028,0.0470413,-0.021944
 6,0.0312127,0.325008,0.0838155,-0.0310025,-0.0013886,-0.0149642,0.0399
 643,0.0558976,0.0288372,0.1290744,0.1973908,0.0482047,-0.021625,-0.023
 773,-0.0042114,-0.0024163,-0.0954589,0.0052111,-0.0154254,-0.0007362,-
 0.1043238,-0.0166752,0.0637784,-0.0163716,0.0427044,0.0003636,0.036348
 3,0.0140651,-0.0252725,-0.0098452,0.0531718,-0.0459046,0.0513854,-0.00
 89475,0.0484524,-0.0166921,0.0460796,-0.0472234,0.0772918,-0.0276286,-
 0.0090642,-0.0349653,-0.0689061,-0.1204585,-0.0229585,-0.1605533,-0.12
 06533,0.003365,0.0953134,-0.0397964,0.0896673,-0.0274264,0.1126265,-0.
 0276452,0.0302999,-0.0126564,-0.124215,-0.0306719,0.0708833,-0.0465149
 ,0.0782841,0.0442712,0.011989,-0.0087543,0.0151979\Polar=45.1055911,6.
 2856492,68.4700058,2.3585252,16.1247225,62.5437591\PG=C01 [X(C3H8O1)]\
 NImag=1\\0.63702945,-0.15522715,0.11882060,-0.03609073,-0.09000989,0.5
 7626882,-0.09925281,0.01761434,0.02143907,0.57261807,0.01699066,-0.022
 27595,-0.00766475,-0.05000314,0.02604782,-0.02220597,0.01334785,-0.354
 91959,-0.15335953,0.00168626,0.49251532,-0.31792510,0.01402964,0.10719
 853,0.00642194,-0.00125878,-0.00010779,0.31954124,-0.00213840,-0.01884
 882,0.01105320,0.00009782,-0.00060429,-0.00051858,-0.00912890,0.016630
 18,0.08885983,0.00524701,-0.08749440,0.03710471,-0.00050242,-0.0207055
 9,-0.11301713,-0.00478440,0.10636525,-0.21270104,0.11440508,-0.0901825
 2,0.00779538,-0.00103738,0.00251935,-0.01084289,0.01385616,-0.01218604
 ,0.21317576,0.13133966,-0.09590236,0.07573671,-0.00478227,0.00560020,-
 0.00243987,-0.00403633,0.00248470,-0.00063121,-0.12263019,0.09171611,-
 0.08309364,0.06126004,-0.10691376,-0.02345812,0.01925019,-0.02713439,0
 .00785030,-0.00582011,0.00819066,0.10068343,-0.07324886,0.12376809,-0.
 00088135,0.00052630,-0.00565226,-0.48859505,0.03583732,0.17296649,0.00
 245688,0.00028536,0.00001711,0.00201736,-0.00053936,-0.00242662,0.4850
 9549,0.00015224,-0.00139599,0.00002402,0.03729342,-0.00884350,-0.01257
 853,0.00008757,0.00286682,0.00108343,-0.00175419,-0.00053565,-0.000456
 84,-0.03599086,0.00781066,0.04767993,-0.00518185,-0.02363712,0.1195769
 7,-0.00793641,-0.08870556,-0.00185062,0.00041264,-0.00657734,-0.000576
 08,0.00098481,0.00163272,-0.16461072,0.01164625,0.11697688,-0.00698981
 ,0.01063787,0.00314121,0.00079570,-0.00031976,0.00165372,0.00009195,-0
 .00355464,-0.00105390,0.00068908,0.00156092,0.00050336,0.00025464,0.00
 050852,-0.00001276,0.58712277,0.01090662,0.02609474,0.01023310,-0.0003
 0642,0.00125980,0.00731580,0.00082185,-0.00209451,-0.00075216,-0.00309
 239,-0.00277068,-0.00149295,0.00036345,0.00023459,0.00006253,-0.133359
 47,0.14494820,0.00539160,0.01862448,-0.00422146,-0.00137527,-0.0037466
 0,0.00403354,0.00058886,-0.00019831,0.00003512,-0.00065497,0.00055768,
 0.00019479,0.00012865,0.00028776,0.00010923,-0.02737154,-0.15680714,0.
 48923499,0.00049487,0.00042417,-0.00005003,-0.00029141,-0.00068930,-0.
 00131765,-0.00004613,-0.00036235,-0.00023637,-0.00011205,0.00002130,0.
 00025752,-0.00020582,0.00002864,0.00009592,-0.09070652,0.00551198,0.03
 157477,0.56579580,0.00071952,0.00035576,-0.00119081,-0.00034533,-0.002
 36645,-0.00429375,-0.00010596,0.00001479,0.00025522,-0.00006284,-0.000
 52583,0.00013081,-0.00040785,0.00014773,0.00024571,0.00651884,-0.05483
 855,0.02885505,-0.01361926,0.51826850,-0.00019589,-0.00165865,-0.00273
 710,-0.00028210,-0.00100947,-0.00109534,-0.00028433,0.00060033,0.00041
 681,0.00055268,0.00027585,0.00056537,-0.00010092,-0.00014687,0.0000326
 3,0.03266990,0.03336257,-0.22758570,0.00658719,-0.01951617,0.48294680,
 -0.00006085,0.00056487,0.00069360,0.00020943,-0.00014136,-0.00088403,0
 .00019778,0.00002567,0.00004264,-0.00001233,-0.00035996,-0.00000281,-0
 .00015069,-0.00022343,-0.00010940,-0.31767839,0.01334087,0.08776178,-0
 .00057678,-0.00035159,-0.00204259,0.32929320,-0.00399355,-0.00255019,0
 .00134273,0.00074908,0.00027752,-0.00181267,-0.00002605,-0.00078152,-0
 .00009926,0.00034111,-0.00009077,0.00018157,-0.00015978,-0.00006372,-0
 .00023636,0.00337920,-0.01947015,0.01413140,-0.00156801,0.00152374,0.0
 0033390,-0.01102448,0.01705871,-0.00171763,-0.00097353,0.00055512,0.00
 030819,0.00017724,-0.00075063,-0.00005355,-0.00030001,-0.00016299,0.00
 020165,0.00014078,0.00004064,-0.00005361,-0.00012822,-0.00004325,0.081
 82043,0.01048111,-0.07589018,0.02943628,0.00104449,-0.00418869,-0.0940
 8037,-0.01023881,0.07766738,0.00025527,-0.00253693,0.00027020,0.000039
 28,0.00042368,-0.00015985,0.00000023,0.00014365,0.00009564,-0.00005826
 ,-0.00037824,-0.00003327,-0.00007657,0.00005830,-0.00006817,-0.1759549
 9,0.10594186,-0.10253510,0.00655222,-0.00422163,0.00542159,-0.01281897
 ,0.01467206,-0.01561701,0.18010885,0.00123301,-0.00448161,0.00208834,-
 0.00006587,0.00095036,-0.00211019,-0.00024625,0.00000774,0.00011713,-0
 .00041765,-0.00054444,-0.00014947,-0.00004800,-0.00014590,0.00002020,0
 .11354074,-0.09915072,0.10083036,0.00009267,0.00168739,-0.00147089,-0.
 00193485,0.00301613,-0.00026154,-0.11305434,0.09864014,0.00057548,-0.0
 0263361,0.00084792,0.00003900,0.00062279,-0.00071495,-0.00003779,0.000
 27944,0.00002118,-0.00008259,-0.00034896,-0.00018775,0.00000371,-0.000
 06334,0.00002995,-0.10076473,0.09229032,-0.13957332,-0.01950651,0.0167
 6565,-0.01080090,0.00714722,-0.00507719,0.00693722,0.11087176,-0.10096
 638,0.14723691,0.00009764,-0.00023966,-0.00017896,0.00012457,0.0001678
 6,0.00037922,0.00006307,0.00033391,0.00016210,-0.00001950,-0.00009325,
 -0.00012213,0.00004368,-0.00007525,-0.00004884,0.00181567,0.00563089,0
 .00298847,-0.05518976,-0.04261405,-0.02468871,-0.00020511,-0.00061932,
 -0.00031065,0.00013692,0.00033432,-0.00013903,0.05615071,-0.00002365,0
 .00028585,-0.00017387,-0.00004827,-0.00008913,0.00006616,0.00003451,0.
 00012707,0.00008333,0.00010132,0.00024797,0.00016211,0.00000107,0.0000
 1291,0.00003630,0.00252624,0.00694758,-0.00165504,-0.04424644,-0.21595
 179,-0.09893252,0.00006477,0.00008954,-0.00053984,0.00006688,-0.000382
 04,-0.00054599,0.04856278,0.23609088,0.00059015,0.00121822,0.00126771,
 -0.00005694,-0.00087192,-0.00228396,-0.00009215,-0.00022386,0.00000655
 ,-0.00014479,-0.00044726,-0.00003086,-0.00023220,0.00016010,0.00017744
 ,-0.00393806,-0.02191519,-0.02342597,-0.02833746,-0.10929850,-0.104371
 59,0.00032047,0.00071383,0.00026591,0.00015631,0.00086146,0.00011410,0
 .02839311,0.11616523,0.11982770,-0.00005833,0.00003719,0.00005346,0.00
 005704,0.00007547,0.00034633,-0.00003306,0.00001888,-0.00006544,-0.000
 00476,-0.00011747,-0.00018223,0.00003927,0.00003243,-0.00001629,0.0049
 3622,-0.00579384,0.00117134,-0.13100298,0.10760241,-0.05416919,0.00055
 848,-0.00059905,-0.00061877,0.00091529,0.00034449,0.00147792,0.0037330
 6,-0.00566344,0.00289846,0.13630667,-0.00030664,0.00004167,-0.00089739
 ,-0.00008530,-0.00006561,0.00066910,-0.00002908,0.00007051,0.00002967,
 0.00027483,0.00026533,0.00018800,0.00007518,-0.00003378,-0.00003524,0.
 00098806,-0.00064146,0.00027500,0.10837312,-0.18931968,0.07656582,-0.0
 0022597,0.00012465,0.00022697,-0.00078388,0.00058845,-0.00016632,0.015
 89948,-0.02110079,0.01000303,-0.11960042,0.20388918,-0.00003896,0.0004
 3021,0.00055867,0.00017601,-0.00003211,-0.00006981,0.00001429,-0.00011
 340,0.00000788,-0.00002385,-0.00052343,-0.00016007,-0.00004337,0.00008
 996,-0.00004819,-0.02112899,0.02283580,-0.01606646,-0.05460695,0.07600
 444,-0.08243101,0.00042600,-0.00078067,0.00133810,0.00248193,0.0012290
 9,-0.00522460,0.00954703,-0.01180238,0.00627829,0.06081648,-0.08272984
 ,0.09492534,-0.00000795,-0.00023571,-0.00064158,0.00007785,-0.00004526
 ,0.00016972,0.00007409,0.00042282,0.00027684,0.00007325,0.00001518,0.0
 0002422,0.00000216,-0.00011739,-0.00005994,-0.00437632,0.00003460,0.00
 233140,-0.29471145,-0.05311226,0.03653238,0.00124421,-0.00115121,0.000
 68506,0.00090073,0.00022171,0.00041556,-0.00675095,-0.00137577,0.00044
 309,-0.01544690,-0.00457939,0.00238039,0.31892128,0.00034766,-0.000143
 70,-0.00054140,-0.00011806,0.00010922,0.00066842,-0.00014221,0.0001273
 2,-0.00004634,0.00001613,0.00005541,-0.00000449,0.00005717,-0.00005417
 ,-0.00001856,-0.00242652,-0.00051883,-0.00115463,-0.05396652,-0.058995
 62,0.01159610,0.00026547,0.00086606,0.00037137,-0.00033140,-0.00018551
 ,-0.00015641,-0.02728774,-0.00627805,0.00363485,0.02366335,0.00618154,
 -0.00460767,0.05992267,0.05883631,0.00024582,0.00032970,0.00042518,-0.
 00011199,0.00002720,-0.00016905,-0.00020862,-0.00038696,-0.00010314,-0
 .00010627,-0.00005623,0.00003456,0.00000373,0.00008228,0.00005262,0.03
 448136,0.00438622,-0.00684459,0.03610330,0.01099787,-0.05075129,0.0007
 2749,0.00154154,-0.00576864,-0.00088402,-0.00018809,0.00131425,-0.0159
 8160,-0.00286349,0.00217467,-0.01171207,-0.00412881,0.00089187,-0.0425
 5714,-0.00974123,0.05874358\\0.00401829,0.01397093,0.00614194,0.000004
 94,-0.00001528,0.00001297,-0.00002098,-0.00000948,0.00001002,-0.000024
 69,-0.00000743,-0.00001784,0.00000209,0.00001251,0.00000385,-0.0039677
 3,-0.01387164,-0.00614538,-0.00001377,-0.00004436,-0.00000519,-0.00001
 235,-0.00003074,0.00001205,-0.00000109,-0.00001356,0.00001209,-0.00000
 538,-0.00000539,-0.00000898,-0.00000800,0.00000581,-0.00000963,0.00002
 867,0.00000865,-0.00000589\\\@


 ... THIS SEEMS PLAINLY ABSURD; BUT WHOEVER WISHES TO BECOME A 
 PHILOSOPHER MUST LEARN NOT TO BE FRIGHTENED BY ABSURDITIES.

                          -- BERTRAND RUSSELL
 Job cpu time:       0 days  1 hours 34 minutes 53.9 seconds.
 File lengths (MBytes):  RWF=    183 Int=      0 D2E=      0 Chk=     10 Scr=      1
 Normal termination of Gaussian 09 at Thu Jun 13 22:00:30 2024.
