 Entering Gaussian System, Link 0=g09
 Input=geom.com
 Output=geom.log
 Initial command:
 /software/cinetica/g09d1/g09d01/d01/build-node-6-2-59348/src/main/l1.exe "/scratch/mdt/200671/Gau-27418.inp" -scrdir="/scratch/mdt/200671/"
 Entering Link 1 = /software/cinetica/g09d1/g09d01/d01/build-node-6-2-59348/src/main/l1.exe PID=     27419.
  
 Copyright (c) 1988,1990,1992,1993,1995,1998,2003,2009,2013,
            Gaussian, Inc.  All Rights Reserved.
  
 This is part of the Gaussian(R) 09 program.  It is based on
 the Gaussian(R) 03 system (copyright 2003, Gaussian, Inc.),
 the Gaussian(R) 98 system (copyright 1998, Gaussian, Inc.),
 the Gaussian(R) 94 system (copyright 1995, Gaussian, Inc.),
 the Gaussian 92(TM) system (copyright 1992, Gaussian, Inc.),
 the Gaussian 90(TM) system (copyright 1990, Gaussian, Inc.),
 the Gaussian 88(TM) system (copyright 1988, Gaussian, Inc.),
 the Gaussian 86(TM) system (copyright 1986, Carnegie Mellon
 University), and the Gaussian 82(TM) system (copyright 1983,
 Carnegie Mellon University). Gaussian is a federally registered
 trademark of Gaussian, Inc.
  
 This software contains proprietary and confidential information,
 including trade secrets, belonging to Gaussian, Inc.
  
 This software is provided under written license and may be
 used, copied, transmitted, or stored only in accord with that
 written license.
  
 The following legend is applicable only to US Government
 contracts under FAR:
  
                    RESTRICTED RIGHTS LEGEND
  
 Use, reproduction and disclosure by the US Government is
 subject to restrictions as set forth in subparagraphs (a)
 and (c) of the Commercial Computer Software - Restricted
 Rights clause in FAR 52.227-19.
  
 Gaussian, Inc.
 340 Quinnipiac St., Bldg. 40, Wallingford CT 06492
  
  
 ---------------------------------------------------------------
 Warning -- This program may not be used in any manner that
 competes with the business of Gaussian, Inc. or will provide
 assistance to any competitor of Gaussian, Inc.  The licensee
 of this program is prohibited from giving any competitor of
 Gaussian, Inc. access to this program.  By using this program,
 the user acknowledges that Gaussian, Inc. is engaged in the
 business of creating and licensing software in the field of
 computational chemistry and represents and warrants to the
 licensee that it is not a competitor of Gaussian, Inc. and that
 it will not use this program in any manner prohibited above.
 ---------------------------------------------------------------
  

 Cite this work as:
 Gaussian 09, Revision D.01,
 M. J. Frisch, G. W. Trucks, H. B. Schlegel, G. E. Scuseria, 
 M. A. Robb, J. R. Cheeseman, G. Scalmani, V. Barone, B. Mennucci, 
 G. A. Petersson, H. Nakatsuji, M. Caricato, X. Li, H. P. Hratchian, 
 A. F. Izmaylov, J. Bloino, G. Zheng, J. L. Sonnenberg, M. Hada, 
 M. Ehara, K. Toyota, R. Fukuda, J. Hasegawa, M. Ishida, T. Nakajima, 
 Y. Honda, O. Kitao, H. Nakai, T. Vreven, J. A. Montgomery, Jr., 
 J. E. Peralta, F. Ogliaro, M. Bearpark, J. J. Heyd, E. Brothers, 
 K. N. Kudin, V. N. Staroverov, T. Keith, R. Kobayashi, J. Normand, 
 K. Raghavachari, A. Rendell, J. C. Burant, S. S. Iyengar, J. Tomasi, 
 M. Cossi, N. Rega, J. M. Millam, M. Klene, J. E. Knox, J. B. Cross, 
 V. Bakken, C. Adamo, J. Jaramillo, R. Gomperts, R. E. Stratmann, 
 O. Yazyev, A. J. Austin, R. Cammi, C. Pomelli, J. W. Ochterski, 
 R. L. Martin, K. Morokuma, V. G. Zakrzewski, G. A. Voth, 
 P. Salvador, J. J. Dannenberg, S. Dapprich, A. D. Daniels, 
 O. Farkas, J. B. Foresman, J. V. Ortiz, J. Cioslowski, 
 and D. J. Fox, Gaussian, Inc., Wallingford CT, 2013.
 
 ******************************************
 Gaussian 09:  EM64L-G09RevD.01 24-Apr-2013
                12-Jun-2024 
 ******************************************
 %mem=400MW
 %chk=tmp
 %NProcShared= 32
 Will use up to   32 processors via shared memory.
 ----------------------------------------------------------------------
 # uwb97xd/jun-cc-pvtz opt=(noeig,intern,maxcyc=50) # int=ultrafine nos
 ym iop(7/33=1) guess=(mix,always)
 ----------------------------------------------------------------------
 1/6=50,10=7,11=1,14=-1,18=40,26=4,38=1/1,3;
 2/12=2,15=1,17=6,18=5,29=3,40=1/2;
 3/5=16,6=1,7=60,11=2,16=1,25=1,30=1,71=1,74=-58,75=-5,116=2/1,2,3;
 4/13=-1/1;
 5/5=2,38=5/2;
 6/7=2,8=2,9=2,10=2,28=1/1;
 7/29=1,30=1,33=1/1,2,3,16;
 1/6=50,10=7,11=1,14=-1,18=40,26=4/3(2);
 2/15=1,29=3/2;
 99//99;
 2/15=1,29=3/2;
 3/5=16,6=1,7=60,11=2,16=1,25=1,30=1,71=1,74=-58,75=-5,116=2/1,2,3;
 4/13=-1/1;
 5/5=2,38=5/2;
 7/30=1,33=1/1,2,3,16;
 1/6=50,11=1,14=-1,18=40,26=4/3(-5);
 2/15=1,29=3/2;
 6/7=2,8=2,9=2,10=2,19=2,28=1/1;
 99/9=1/99;
 ------
 geom 0
 ------
 Symbolic Z-matrix:
 Charge =  0 Multiplicity = 1
 C1
 O2                   C1   R1
 H3                   C1   R2       O2   A2
 H4                   C1   R3       O2   A3       H3   D3       0
 H5                   O2   R4       C1   A4       H3   D4       0
 C21                  C1   BB       O2   ANG1     H3   DH1      0
 C22                  C21  R21      C1   ANG2     O2   DH2      0
 H23                  C21  R22      C22  A22      C1   DH3      0
 H24                  C21  R23      C22  A23      H23  D23      0
 H25                  C22  R24      C21  A24      H23  D24      0
 H26                  C22  R25      C21  A25      H25  D25      0
 H27                  C22  R26      C21  A26      H25  D26      0
       Variables:
  R1                    1.3573                   
  R2                    1.0777                   
  R3                    1.0811                   
  R4                    0.9573                   
  A2                  114.0689                   
  A3                  119.1622                   
  A4                  109.7991                   
  D3                  205.0432                   
  R21                   1.4824                   
  R22                   1.0805                   
  R23                   1.08                     
  R24                   1.0987                   
  R25                   1.0912                   
  R26                   1.0904                   
  A22                 120.7882                   
  A23                 120.8544                   
  A24                 111.6923                   
  A25                 111.7295                   
  A26                 111.6346                   
  D23                 171.5189                   
  D25                 119.1693                   
  D26                 240.5844                   
  ANG2                 94.2274                   
  DH2                 230.0142                   
  DH3                 104.5698                   
  D4                  176.1039                   
  D24                 276.1043                   
       Constants:
  DH1                 104.4145                   
  ANG1                113.6859                   
  BB                    3.8                      
 

 GradGradGradGradGradGradGradGradGradGradGradGradGradGradGradGradGradGrad
 Berny optimization.
 Initialization pass.
                       ----------------------------
                       !    Initial Parameters    !
                       ! (Angstroms and Degrees)  !
 ----------------------                            ----------------------
 !      Name          Value   Derivative information (Atomic Units)     !
 ------------------------------------------------------------------------
 !       R1          1.3573   estimate D2E/DX2                          !
 !       R2          1.0777   estimate D2E/DX2                          !
 !       R3          1.0811   estimate D2E/DX2                          !
 !       R4          0.9573   estimate D2E/DX2                          !
 !       A2        114.0689   estimate D2E/DX2                          !
 !       A3        119.1622   estimate D2E/DX2                          !
 !       A4        109.7991   estimate D2E/DX2                          !
 !       D3        205.0432   estimate D2E/DX2                          !
 !       R21         1.4824   estimate D2E/DX2                          !
 !       R22         1.0805   estimate D2E/DX2                          !
 !       R23         1.08     estimate D2E/DX2                          !
 !       R24         1.0987   estimate D2E/DX2                          !
 !       R25         1.0912   estimate D2E/DX2                          !
 !       R26         1.0904   estimate D2E/DX2                          !
 !       A22       120.7882   estimate D2E/DX2                          !
 !       A23       120.8544   estimate D2E/DX2                          !
 !       A24       111.6923   estimate D2E/DX2                          !
 !       A25       111.7295   estimate D2E/DX2                          !
 !       A26       111.6346   estimate D2E/DX2                          !
 !       D23       171.5189   estimate D2E/DX2                          !
 !       D25       119.1693   estimate D2E/DX2                          !
 !       D26       240.5844   estimate D2E/DX2                          !
 !      ANG2        94.2274   estimate D2E/DX2                          !
 !       DH2       230.0142   estimate D2E/DX2                          !
 !       DH3       104.5698   estimate D2E/DX2                          !
 !       D4        176.1039   estimate D2E/DX2                          !
 !       D24       276.1043   estimate D2E/DX2                          !
 !       DH1       104.4145   Frozen                                    !
 !      ANG1       113.6859   Frozen                                    !
 !       BB          3.8      Frozen                                    !
 ------------------------------------------------------------------------
 Trust Radius=3.00D-01 FncErr=1.00D-07 GrdErr=1.00D-06
 Number of steps in this run=     50 maximum allowed number of steps=    100.
 GradGradGradGradGradGradGradGradGradGradGradGradGradGradGradGradGradGrad

 ---------------------------------------------------------------------------------------------------
                            Z-MATRIX (ANGSTROMS AND DEGREES)
   CD    Cent   Atom    N1       Length/X        N2       Alpha/Y        N3        Beta/Z          J
 ---------------------------------------------------------------------------------------------------
      1      1  C 
      2      2  O        1   1.357300(     1)
      3      3  H        1   1.077700(     2)      2  114.069(    12)
      4      4  H        1   1.081100(     3)      2  119.162(    13)      3  205.043(    22)      0
      5      5  H        2   0.957300(     4)      1  109.799(    14)      3  176.104(    23)      0
      6      6  C        1   3.800000(     5)      2  113.686(    15)      3  104.415(    24)      0
      7      7  C        6   1.482400(     6)      1   94.227(    16)      2  230.014(    25)      0
      8      8  H        6   1.080500(     7)      7  120.788(    17)      1  104.570(    26)      0
      9      9  H        6   1.080000(     8)      7  120.854(    18)      8  171.519(    27)      0
     10     10  H        7   1.098700(     9)      6  111.692(    19)      8  276.104(    28)      0
     11     11  H        7   1.091200(    10)      6  111.730(    20)     10  119.169(    29)      0
     12     12  H        7   1.090400(    11)      6  111.635(    21)     10  240.584(    30)      0
 ---------------------------------------------------------------------------------------------------
                         Z-Matrix orientation:                         
 ---------------------------------------------------------------------
 Center     Atomic      Atomic             Coordinates (Angstroms)
 Number     Number       Type             X           Y           Z
 ---------------------------------------------------------------------
      1          6           0        0.000000    0.000000    0.000000
      2          8           0        0.000000    0.000000    1.357300
      3          1           0        0.984000    0.000000   -0.439524
      4          1           0       -0.855311    0.399624   -0.526802
      5          1           0       -0.898629    0.061201    1.681560
      6          6           0       -0.866267   -3.370347   -1.526545
      7          6           0        0.300896   -3.379623   -2.440413
      8          1           0       -1.858974   -3.162922   -1.899358
      9          1           0       -0.771031   -3.701778   -0.503079
     10          1           0        0.413074   -4.348583   -2.946055
     11          1           0        0.204273   -2.629253   -3.226750
     12          1           0        1.232509   -3.195388   -1.904571
 ---------------------------------------------------------------------
                    Distance matrix (angstroms):
                    1          2          3          4          5
     1  C    0.000000
     2  O    1.357300   0.000000
     3  H    1.077700   2.048617   0.000000
     4  H    1.081100   2.107391   1.884246   0.000000
     5  H    1.907596   0.957300   2.836729   2.234562   0.000000
     6  C    3.800000   4.519538   3.995541   3.900293   4.697713
     7  C    4.179474   5.092643   3.986482   4.391062   5.501707
     8  H    4.131273   4.905678   4.496409   3.947528   4.913268
     9  H    3.814543   4.214102   4.097235   4.102336   4.353037
    10  H    5.268780   6.131857   5.051616   5.477869   6.525456
    11  H    4.167328   5.288499   3.910189   4.193630   5.704949
    12  H    3.918797   4.729628   3.524007   4.379652   5.292207
                    6          7          8          9         10
     6  C    0.000000
     7  C    1.482400   0.000000
     8  H    1.080500   2.237127   0.000000
     9  H    1.080000   2.237426   1.850292   0.000000
    10  H    2.146781   1.098700   2.768315   2.790805   0.000000
    11  H    2.141489   1.091200   2.510729   3.085436   1.754560
    12  H    2.139714   1.090400   3.091658   2.496955   1.756708
                   11         12
    11  H    0.000000
    12  H    1.768032   0.000000
 Symmetry turned off by external request.
 Stoichiometry    C3H8O
 Framework group  C1[X(C3H8O)]
 Deg. of freedom    30
 Full point group                 C1      NOp   1
 Rotational constants (GHZ):     14.8425623      1.6540090      1.5790777
 Standard basis: Jun-CC-pVTZ (5D, 7F)
   268 basis functions,   384 primitive gaussians,   300 cartesian basis functions
    17 alpha electrons       17 beta electrons
       nuclear repulsion energy       106.8585412767 Hartrees.
 NAtoms=   12 NActive=   12 NUniq=   12 SFac= 1.00D+00 NAtFMM=   60 NAOKFM=F Big=F
 Integral buffers will be    131072 words long.
 Raffenetti 2 integral format.
 Two-electron integral symmetry is turned off.
 Nuclear repulsion after empirical dispersion term =      106.8558680932 Hartrees.
 One-electron integrals computed using PRISM.
 NBasis=   268 RedAO= T EigKep=  1.09D-04  NBF=   268
 NBsUse=   268 1.00D-06 EigRej= -1.00D+00 NBFU=   268
 ExpMin= 3.57D-02 ExpMax= 1.53D+04 ExpMxC= 5.22D+02 IAcc=3 IRadAn=         5 AccDes= 0.00D+00
 Harris functional with IExCor= 4639 and IRadAn=       5 diagonalized for initial guess.
 HarFok:  IExCor= 4639 AccDes= 0.00D+00 IRadAn=         5 IDoV= 1 UseB2=F ITyADJ=14
 ICtDFT=  3500011 ScaDFX=  1.000000  1.000000  1.000000  1.000000
 FoFCou: FMM=F IPFlag=           0 FMFlag=      100000 FMFlg1=           0
         NFxFlg=           0 DoJE=T BraDBF=F KetDBF=T FulRan=T
         wScrn=  0.000000 ICntrl=     500 IOpCl=  0 I1Cent=   200000004 NGrid=           0
         NMat0=    1 NMatS0=      1 NMatT0=    0 NMatD0=    1 NMtDS0=    0 NMtDT0=    0
 Symmetry not used in FoFCou.
 Mixing orbitals, IMix= 1 IMixAn=  0 NRI=1 NE=   17 Coef=  7.07106781D-01  7.07106781D-01
 Mixing orbitals, IMix= 1 IMixAn=  0 NRI=1 NE=   17 Coef= -7.07106781D-01  7.07106781D-01
 Initial guess <Sx>= 0.0000 <Sy>= 0.0000 <Sz>= 0.0000 <S**2>= 1.0000 S= 0.6180
 Requested convergence on RMS density matrix=1.00D-08 within 128 cycles.
 Requested convergence on MAX density matrix=1.00D-06.
 Requested convergence on             energy=1.00D-06.
 No special actions if energy rises.
 SCF Done:  E(UwB97XD) =  -194.231375968     A.U. after   15 cycles
            NFock= 15  Conv=0.96D-08     -V/T= 2.0065
 <Sx>= 0.0000 <Sy>= 0.0000 <Sz>= 0.0000 <S**2>= 0.9846 S= 0.6111
 <L.S>=  0.00000000000    
 Annihilation of the first spin contaminant:
 S**2 before annihilation     0.9846,   after     0.0655

 **********************************************************************

            Population analysis using the SCF density.

 **********************************************************************

 Alpha  occ. eigenvalues --  -19.28648 -10.31846 -10.28609 -10.27591  -1.15532
 Alpha  occ. eigenvalues --   -0.85465  -0.74400  -0.70095  -0.61225  -0.53709
 Alpha  occ. eigenvalues --   -0.53431  -0.49767  -0.47427  -0.45393  -0.43705
 Alpha  occ. eigenvalues --   -0.43411  -0.27796
 Alpha virt. eigenvalues --    0.03913   0.05193   0.06199   0.07125   0.07784
 Alpha virt. eigenvalues --    0.08764   0.09955   0.10963   0.11171   0.12972
 Alpha virt. eigenvalues --    0.13299   0.14940   0.17038   0.17738   0.18097
 Alpha virt. eigenvalues --    0.20384   0.21723   0.23014   0.24061   0.25406
 Alpha virt. eigenvalues --    0.25769   0.26812   0.28247   0.28569   0.29139
 Alpha virt. eigenvalues --    0.29670   0.30781   0.31448   0.31617   0.33070
 Alpha virt. eigenvalues --    0.33249   0.33892   0.36367   0.36988   0.38003
 Alpha virt. eigenvalues --    0.39456   0.40464   0.41282   0.45354   0.46471
 Alpha virt. eigenvalues --    0.47612   0.48446   0.53641   0.54587   0.55491
 Alpha virt. eigenvalues --    0.59168   0.60133   0.61486   0.61683   0.63765
 Alpha virt. eigenvalues --    0.64362   0.65272   0.66697   0.67712   0.67800
 Alpha virt. eigenvalues --    0.69519   0.70418   0.71892   0.74341   0.75153
 Alpha virt. eigenvalues --    0.76348   0.77698   0.79053   0.81566   0.85222
 Alpha virt. eigenvalues --    0.87755   0.88989   0.91246   0.91764   0.93959
 Alpha virt. eigenvalues --    0.97249   0.98997   0.99699   1.00667   1.01314
 Alpha virt. eigenvalues --    1.03279   1.06195   1.10716   1.13063   1.14937
 Alpha virt. eigenvalues --    1.16165   1.17399   1.18917   1.19701   1.21846
 Alpha virt. eigenvalues --    1.23814   1.24613   1.27892   1.30288   1.32229
 Alpha virt. eigenvalues --    1.35237   1.35931   1.37969   1.40115   1.41320
 Alpha virt. eigenvalues --    1.42203   1.43529   1.47853   1.49705   1.51908
 Alpha virt. eigenvalues --    1.52651   1.56400   1.58776   1.60604   1.62514
 Alpha virt. eigenvalues --    1.68343   1.71548   1.74400   1.82023   1.88024
 Alpha virt. eigenvalues --    1.98718   2.08000   2.10503   2.24972   2.32476
 Alpha virt. eigenvalues --    2.37307   2.39112   2.45264   2.49059   2.50999
 Alpha virt. eigenvalues --    2.54108   2.56562   2.59999   2.60783   2.63920
 Alpha virt. eigenvalues --    2.68170   2.70061   2.76094   2.78945   2.82792
 Alpha virt. eigenvalues --    2.88190   2.89513   2.91042   2.92676   2.93452
 Alpha virt. eigenvalues --    2.98159   3.00318   3.00756   3.03246   3.05752
 Alpha virt. eigenvalues --    3.07804   3.09018   3.11551   3.12086   3.13693
 Alpha virt. eigenvalues --    3.14625   3.16019   3.17051   3.19356   3.20417
 Alpha virt. eigenvalues --    3.21503   3.23612   3.24911   3.26196   3.32119
 Alpha virt. eigenvalues --    3.33762   3.39800   3.42479   3.43403   3.44369
 Alpha virt. eigenvalues --    3.50084   3.51330   3.52018   3.53317   3.53767
 Alpha virt. eigenvalues --    3.55936   3.56697   3.57351   3.60973   3.69299
 Alpha virt. eigenvalues --    3.72884   3.76131   3.79542   3.83834   3.85703
 Alpha virt. eigenvalues --    3.87649   3.91342   3.93590   3.96628   3.96765
 Alpha virt. eigenvalues --    3.99409   3.99955   4.01902   4.02096   4.04438
 Alpha virt. eigenvalues --    4.07416   4.08968   4.10443   4.10467   4.11885
 Alpha virt. eigenvalues --    4.15124   4.18062   4.21343   4.21969   4.30043
 Alpha virt. eigenvalues --    4.33321   4.33804   4.34744   4.36214   4.37074
 Alpha virt. eigenvalues --    4.40557   4.45810   4.58905   4.61311   4.74635
 Alpha virt. eigenvalues --    4.74735   4.81536   4.84342   4.88123   4.88697
 Alpha virt. eigenvalues --    4.92035   4.94362   4.96709   5.00009   5.00900
 Alpha virt. eigenvalues --    5.02576   5.06585   5.14804   5.17845   5.22144
 Alpha virt. eigenvalues --    5.27564   5.28269   5.35068   5.40484   5.43201
 Alpha virt. eigenvalues --    5.46689   5.48491   5.49181   5.63477   5.69658
 Alpha virt. eigenvalues --    5.70524   5.78084   5.86623   6.01612   6.02199
 Alpha virt. eigenvalues --    6.15972   6.16997   6.25938   6.55826   6.66081
 Alpha virt. eigenvalues --    6.74391   6.83014   6.92525   6.94563   7.16950
 Alpha virt. eigenvalues --    7.34250   7.62721  12.63770  12.76841  12.82510
 Alpha virt. eigenvalues --   13.55706
  Beta  occ. eigenvalues --  -19.29100 -10.32900 -10.27664 -10.27505  -1.16809
  Beta  occ. eigenvalues --   -0.83628  -0.77282  -0.67377  -0.62462  -0.54490
  Beta  occ. eigenvalues --   -0.52936  -0.49522  -0.48065  -0.46434  -0.44576
  Beta  occ. eigenvalues --   -0.43155  -0.25670
  Beta virt. eigenvalues --    0.02308   0.05274   0.06213   0.07392   0.07709
  Beta virt. eigenvalues --    0.08598   0.09846   0.10712   0.11448   0.12119
  Beta virt. eigenvalues --    0.14697   0.14936   0.16976   0.17516   0.18489
  Beta virt. eigenvalues --    0.20188   0.21274   0.22899   0.23854   0.25457
  Beta virt. eigenvalues --    0.25789   0.26713   0.28394   0.28465   0.29135
  Beta virt. eigenvalues --    0.29774   0.30928   0.31417   0.31591   0.33005
  Beta virt. eigenvalues --    0.33501   0.33993   0.36335   0.37192   0.38223
  Beta virt. eigenvalues --    0.39101   0.40868   0.41640   0.45804   0.46440
  Beta virt. eigenvalues --    0.46992   0.48513   0.53419   0.54214   0.55278
  Beta virt. eigenvalues --    0.58847   0.59839   0.61698   0.62293   0.63213
  Beta virt. eigenvalues --    0.64652   0.65682   0.66759   0.67718   0.67857
  Beta virt. eigenvalues --    0.69576   0.70524   0.71903   0.74603   0.75260
  Beta virt. eigenvalues --    0.76340   0.78000   0.79208   0.81366   0.85809
  Beta virt. eigenvalues --    0.87620   0.88413   0.90895   0.92173   0.94557
  Beta virt. eigenvalues --    0.97260   0.99409   0.99513   1.00697   1.01927
  Beta virt. eigenvalues --    1.03376   1.05753   1.10594   1.12852   1.14313
  Beta virt. eigenvalues --    1.15932   1.17460   1.18810   1.20566   1.22406
  Beta virt. eigenvalues --    1.23411   1.24599   1.27918   1.30068   1.32180
  Beta virt. eigenvalues --    1.35567   1.36082   1.38097   1.39974   1.41660
  Beta virt. eigenvalues --    1.42132   1.43457   1.48233   1.49956   1.51512
  Beta virt. eigenvalues --    1.52403   1.56726   1.59037   1.60478   1.63112
  Beta virt. eigenvalues --    1.68696   1.71046   1.74627   1.82752   1.87493
  Beta virt. eigenvalues --    1.97899   2.06708   2.09997   2.24601   2.27952
  Beta virt. eigenvalues --    2.36561   2.42750   2.46383   2.50437   2.51059
  Beta virt. eigenvalues --    2.53764   2.55393   2.61418   2.63679   2.64874
  Beta virt. eigenvalues --    2.67916   2.68905   2.76909   2.79763   2.83503
  Beta virt. eigenvalues --    2.86510   2.87883   2.90725   2.94101   2.94861
  Beta virt. eigenvalues --    2.96728   3.00780   3.03698   3.04382   3.06825
  Beta virt. eigenvalues --    3.07925   3.08626   3.09777   3.10863   3.12724
  Beta virt. eigenvalues --    3.14764   3.14905   3.15514   3.19815   3.21800
  Beta virt. eigenvalues --    3.23216   3.24150   3.24454   3.25242   3.30404
  Beta virt. eigenvalues --    3.34554   3.40104   3.42463   3.42911   3.43729
  Beta virt. eigenvalues --    3.49300   3.51590   3.52346   3.52780   3.55389
  Beta virt. eigenvalues --    3.55957   3.57014   3.57777   3.61248   3.69998
  Beta virt. eigenvalues --    3.71692   3.77164   3.79047   3.83363   3.85765
  Beta virt. eigenvalues --    3.87680   3.91299   3.93896   3.96298   3.96892
  Beta virt. eigenvalues --    4.00005   4.00458   4.01399   4.01954   4.04584
  Beta virt. eigenvalues --    4.07415   4.08894   4.10410   4.10898   4.12154
  Beta virt. eigenvalues --    4.15476   4.18828   4.21297   4.22240   4.30529
  Beta virt. eigenvalues --    4.32971   4.34306   4.35268   4.35936   4.37232
  Beta virt. eigenvalues --    4.39323   4.46308   4.59189   4.62615   4.73905
  Beta virt. eigenvalues --    4.75518   4.80563   4.85735   4.87305   4.89277
  Beta virt. eigenvalues --    4.92493   4.95363   4.96260   4.99812   5.00930
  Beta virt. eigenvalues --    5.02971   5.05633   5.15545   5.16854   5.22678
  Beta virt. eigenvalues --    5.26971   5.28620   5.35601   5.41221   5.42439
  Beta virt. eigenvalues --    5.45807   5.48786   5.49430   5.64059   5.68776
  Beta virt. eigenvalues --    5.71227   5.78491   5.85894   6.00133   6.02901
  Beta virt. eigenvalues --    6.16267   6.17192   6.25040   6.54797   6.64759
  Beta virt. eigenvalues --    6.73200   6.82475   6.91693   6.93153   7.16263
  Beta virt. eigenvalues --    7.33750   7.62189  12.65891  12.74990  12.81604
  Beta virt. eigenvalues --   13.55898
          Condensed to atoms (all electrons):
               1          2          3          4          5          6
     1  C    5.270345   0.140499   0.420902   0.417848   0.009405   0.015759
     2  O    0.140499   7.944995  -0.049177  -0.024367   0.213440  -0.002132
     3  H    0.420902  -0.049177   0.495267  -0.025984   0.006776  -0.001410
     4  H    0.417848  -0.024367  -0.025984   0.486087  -0.014753  -0.001398
     5  H    0.009405   0.213440   0.006776  -0.014753   0.614778  -0.000468
     6  C    0.015759  -0.002132  -0.001410  -0.001398  -0.000468   5.451863
     7  C   -0.012951   0.000667   0.000663   0.000589   0.000214   0.270371
     8  H   -0.001661   0.000222   0.000020   0.000053   0.000026   0.423510
     9  H   -0.001875  -0.000100   0.000041   0.000019   0.000016   0.423311
    10  H    0.000771  -0.000031  -0.000004  -0.000007  -0.000000  -0.039527
    11  H   -0.000320  -0.000007  -0.000008   0.000017   0.000000  -0.026366
    12  H   -0.000359   0.000144  -0.000113   0.000025   0.000002  -0.028450
               7          8          9         10         11         12
     1  C   -0.012951  -0.001661  -0.001875   0.000771  -0.000320  -0.000359
     2  O    0.000667   0.000222  -0.000100  -0.000031  -0.000007   0.000144
     3  H    0.000663   0.000020   0.000041  -0.000004  -0.000008  -0.000113
     4  H    0.000589   0.000053   0.000019  -0.000007   0.000017   0.000025
     5  H    0.000214   0.000026   0.000016  -0.000000   0.000000   0.000002
     6  C    0.270371   0.423510   0.423311  -0.039527  -0.026366  -0.028450
     7  C    4.950118  -0.027147  -0.026092   0.394668   0.408534   0.410677
     8  H   -0.027147   0.460922  -0.025946  -0.001937  -0.006022   0.003464
     9  H   -0.026092  -0.025946   0.455401  -0.001307   0.003131  -0.006028
    10  H    0.394668  -0.001937  -0.001307   0.500288  -0.015886  -0.016243
    11  H    0.408534  -0.006022   0.003131  -0.015886   0.497263  -0.019354
    12  H    0.410677   0.003464  -0.006028  -0.016243  -0.019354   0.495969
          Atomic-Atomic Spin Densities.
               1          2          3          4          5          6
     1  C   -1.058100   0.164327  -0.004072  -0.002656   0.005207  -0.007718
     2  O    0.164327  -0.281780  -0.001672   0.000445  -0.003939   0.001021
     3  H   -0.004072  -0.001672   0.025396  -0.006991   0.000290  -0.000212
     4  H   -0.002656   0.000445  -0.006991   0.025032  -0.001653  -0.000586
     5  H    0.005207  -0.003939   0.000290  -0.001653   0.005121  -0.000201
     6  C   -0.007718   0.001021  -0.000212  -0.000586  -0.000201   1.053909
     7  C    0.008567  -0.001247  -0.000312  -0.000221  -0.000029  -0.049812
     8  H    0.001329  -0.000150  -0.000013  -0.000048  -0.000004   0.007671
     9  H    0.001326  -0.000325  -0.000011  -0.000014  -0.000005   0.007702
    10  H    0.000063   0.000001  -0.000001  -0.000002  -0.000000  -0.031694
    11  H   -0.000730   0.000044   0.000038   0.000032   0.000001  -0.008413
    12  H   -0.000354   0.000075   0.000026   0.000019   0.000002  -0.006923
               7          8          9         10         11         12
     1  C    0.008567   0.001329   0.001326   0.000063  -0.000730  -0.000354
     2  O   -0.001247  -0.000150  -0.000325   0.000001   0.000044   0.000075
     3  H   -0.000312  -0.000013  -0.000011  -0.000001   0.000038   0.000026
     4  H   -0.000221  -0.000048  -0.000014  -0.000002   0.000032   0.000019
     5  H   -0.000029  -0.000004  -0.000005  -0.000000   0.000001   0.000002
     6  C   -0.049812   0.007671   0.007702  -0.031694  -0.008413  -0.006923
     7  C   -0.037171   0.003574   0.003869   0.022647   0.009903   0.007084
     8  H    0.003574  -0.034521   0.005604  -0.000904   0.000889  -0.000004
     9  H    0.003869   0.005604  -0.034344  -0.000685   0.000020   0.000682
    10  H    0.022647  -0.000904  -0.000685   0.085933  -0.007805  -0.007304
    11  H    0.009903   0.000889   0.000020  -0.007805   0.018996   0.001362
    12  H    0.007084  -0.000004   0.000682  -0.007304   0.001362   0.017318
 Mulliken charges and spin densities:
               1          2
     1  C   -0.258364  -0.892812
     2  O   -0.224153  -0.123203
     3  H    0.153028   0.012465
     4  H    0.161872   0.013357
     5  H    0.170565   0.004790
     6  C   -0.485063   0.964744
     7  C   -0.370311  -0.033149
     8  H    0.174497  -0.016579
     9  H    0.179430  -0.016181
    10  H    0.179216   0.060248
    11  H    0.159019   0.014337
    12  H    0.160267   0.011983
 Sum of Mulliken charges =  -0.00000  -0.00000
 Mulliken charges and spin densities with hydrogens summed into heavy atoms:
               1          2
     1  C    0.056536  -0.866990
     2  O   -0.053589  -0.118413
     6  C   -0.131137   0.931984
     7  C    0.128190   0.053419
 Electronic spatial extent (au):  <R**2>=           1145.7045
 Charge=             -0.0000 electrons
 Dipole moment (field-independent basis, Debye):
    X=             -1.1689    Y=              0.4046    Z=             -0.2346  Tot=              1.2590
 Quadrupole moment (field-independent basis, Debye-Ang):
   XX=            -24.7696   YY=            -28.9148   ZZ=            -25.9186
   XY=             -1.4792   XZ=             -3.1143   YZ=              0.1861
 Traceless Quadrupole moment (field-independent basis, Debye-Ang):
   XX=              1.7647   YY=             -2.3804   ZZ=              0.6157
   XY=             -1.4792   XZ=             -3.1143   YZ=              0.1861
 Octapole moment (field-independent basis, Debye-Ang**2):
  XXX=             10.4666  YYY=            149.6972  ZZZ=             62.7982  XYY=              8.6645
  XXY=             49.1242  XXZ=             23.3483  XZZ=             -2.0733  YZZ=             46.5535
  YYZ=             21.7119  XYZ=              0.9755
 Hexadecapole moment (field-independent basis, Debye-Ang**3):
 XXXX=            -85.6253 YYYY=          -1064.2116 ZZZZ=           -468.8198 XXXY=            -36.1227
 XXXZ=             -6.8611 YYYX=            -61.1667 YYYZ=           -297.9668 ZZZX=            -14.0645
 ZZZY=           -284.5935 XXYY=           -192.1091 XXZZ=            -90.6383 YYZZ=           -246.2570
 XXYZ=            -97.7761 YYXZ=             -9.5545 ZZXY=            -12.3472
 N-N= 1.068558680932D+02 E-N=-6.665477095585D+02  KE= 1.929737089313D+02
                          Isotropic Fermi Contact Couplings
        Atom                 a.u.       MegaHertz       Gauss      10(-4) cm-1
     1  C(13)             -0.06261     -35.19034     -12.55679     -11.73823
     2  O(17)             -0.02201       6.67000       2.38002       2.22487
     3  H(1)               0.01092      24.41146       8.71061       8.14279
     4  H(1)               0.00959      21.43950       7.65015       7.15145
     5  H(1)               0.00225       5.02979       1.79475       1.67776
     6  C(13)              0.02135      12.00139       4.28239       4.00323
     7  C(13)             -0.02756     -15.49255      -5.52813      -5.16776
     8  H(1)              -0.01357     -30.32013     -10.81898     -10.11371
     9  H(1)              -0.01380     -30.84228     -11.00529     -10.28788
    10  H(1)               0.03119      69.70632      24.87295      23.25153
    11  H(1)               0.00850      19.00520       6.78153       6.33945
    12  H(1)               0.00688      15.38755       5.49066       5.13273
 --------------------------------------------------------
       Center         ----  Spin Dipole Couplings  ----
                      3XX-RR        3YY-RR        3ZZ-RR
 --------------------------------------------------------
     1   Atom        0.445787     -0.953938      0.508151
     2   Atom        0.387119     -0.824940      0.437822
     3   Atom       -0.048202      0.003157      0.045044
     4   Atom       -0.028955     -0.006336      0.035291
     5   Atom       -0.023676      0.015819      0.007857
     6   Atom       -0.515953      0.962647     -0.446694
     7   Atom        0.000839      0.004722     -0.005561
     8   Atom        0.050526      0.000874     -0.051400
     9   Atom       -0.069343      0.003593      0.065750
    10   Atom        0.001419     -0.002941      0.001522
    11   Atom        0.000119     -0.007247      0.007127
    12   Atom        0.017722     -0.010267     -0.007455
 --------------------------------------------------------
                        XY            XZ            YZ
 --------------------------------------------------------
     1   Atom       -0.310715     -0.034867     -0.166594
     2   Atom       -0.199177     -0.011506     -0.154515
     3   Atom       -0.002812      0.049615     -0.007714
     4   Atom        0.017519     -0.055625      0.016008
     5   Atom        0.006579      0.030433     -0.005004
     6   Atom        0.236640      0.065246      0.400001
     7   Atom        0.001895     -0.012550      0.004798
     8   Atom       -0.019269      0.048840      0.005806
     9   Atom        0.004709      0.016771     -0.024285
    10   Atom       -0.005319     -0.010827      0.006788
    11   Atom        0.004561     -0.009353     -0.009217
    12   Atom        0.002602     -0.003233     -0.004343
 --------------------------------------------------------


 ---------------------------------------------------------------------------------
              Anisotropic Spin Dipole Couplings in Principal Axis System
 ---------------------------------------------------------------------------------

       Atom             a.u.   MegaHertz   Gauss  10(-4) cm-1        Axes

              Baa    -1.0385  -139.362   -49.728   -46.486  0.2061  0.9724  0.1094
     1 C(13)  Bbb     0.5116    68.658    24.499    22.902  0.9785 -0.2042 -0.0286
              Bcc     0.5269    70.704    25.229    23.584  0.0055 -0.1129  0.9936
 
              Baa    -0.8750    63.314    22.592    21.119  0.1559  0.9808  0.1168
     2 O(17)  Bbb     0.4149   -30.023   -10.713   -10.014  0.9473 -0.1149 -0.2991
              Bcc     0.4601   -33.291   -11.879   -11.105  0.2800 -0.1573  0.9470
 
              Baa    -0.0697   -37.170   -13.263   -12.399  0.9176 -0.0067 -0.3973
     3 H(1)   Bbb     0.0021     1.130     0.403     0.377  0.0562  0.9920  0.1133
              Bcc     0.0675    36.040    12.860    12.022  0.3934 -0.1263  0.9107
 
              Baa    -0.0696   -37.127   -13.248   -12.384  0.8064 -0.3449  0.4804
     4 H(1)   Bbb     0.0018     0.965     0.344     0.322  0.3351  0.9358  0.1094
              Bcc     0.0678    36.162    12.903    12.062 -0.4872  0.0728  0.8702
 
              Baa    -0.0433   -23.117    -8.249    -7.711  0.8454 -0.1377 -0.5161
     5 H(1)   Bbb     0.0169     9.010     3.215     3.005  0.1636  0.9865  0.0048
              Bcc     0.0264    14.108     5.034     4.706  0.5085 -0.0885  0.8565
 
              Baa    -0.5554   -74.527   -26.593   -24.860  0.7499  0.0568 -0.6591
     6 C(13)  Bbb    -0.5500   -73.810   -26.337   -24.620  0.6444 -0.2881  0.7084
              Bcc     1.1054   148.337    52.930    49.480  0.1497  0.9559  0.2526
 
              Baa    -0.0165    -2.211    -0.789    -0.737  0.5877 -0.2283  0.7762
     7 C(13)  Bbb     0.0055     0.737     0.263     0.246  0.3471  0.9377  0.0130
              Bcc     0.0110     1.474     0.526     0.492  0.7309 -0.2618 -0.6303
 
              Baa    -0.0732   -39.060   -13.938   -13.029 -0.3847 -0.1711  0.9070
     8 H(1)   Bbb    -0.0004    -0.208    -0.074    -0.069  0.1350  0.9617  0.2387
              Bcc     0.0736    39.268    14.012    13.099  0.9131 -0.2143  0.3468
 
              Baa    -0.0722   -38.524   -13.746   -12.850  0.9848 -0.1055 -0.1383
     9 H(1)   Bbb    -0.0033    -1.781    -0.636    -0.594  0.1429  0.9441  0.2972
              Bcc     0.0755    40.305    14.382    13.444  0.0992 -0.3124  0.9448
 
              Baa    -0.0097    -5.156    -1.840    -1.720  0.5956 -0.2865  0.7504
    10 H(1)   Bbb    -0.0065    -3.459    -1.234    -1.154  0.4962  0.8659 -0.0632
              Bcc     0.0161     8.616     3.074     2.874 -0.6317  0.4100  0.6579
 
              Baa    -0.0117    -6.268    -2.236    -2.091  0.0008  0.8984  0.4391
    11 H(1)   Bbb    -0.0060    -3.210    -1.146    -1.071  0.8614 -0.2236  0.4561
              Bcc     0.0178     9.478     3.382     3.162 -0.5080 -0.3779  0.7741
 
              Baa    -0.0134    -7.164    -2.556    -2.390 -0.0069  0.8105  0.5857
    12 H(1)   Bbb    -0.0051    -2.695    -0.962    -0.899  0.1791 -0.5752  0.7982
              Bcc     0.0185     9.859     3.518     3.289  0.9838  0.1104 -0.1411
 

 ---------------------------------------------------------------------------------

 DipInt: DoE/N= T T RetVal/Mat= T F Init=T NMatP=  1 IDeriv=0 Min/MaxMlt=  1  1
 Entering OneElI...
 Multipole integrals L=1 to 1 MinM= 0 MaxM= 0.
 Requested accuracy = 0.1000D-12
 PrsmSu:  NPrtUS=   1 ThrOK=F IAlg=1 NPAlg=1 LenDen=           0.
 Prism:   IPart=     0 DynPar=F LinDyn=F Incr=          47.
 PRISM was handed   419030656 working-precision words and  4751 shell-pairs
 IPart=  0 NShTot=        4751 NBatch=          58 AvBLen=        81.9
 PrSmSu:  NxtVal=             48.
 Entering OneElI...
 Calculate overlap and kinetic energy integrals
    NBasis = 300  MinDer = 1  MaxDer = 1
 Requested accuracy = 0.1000D-12
 PrsmSu:  NPrtUS=  32 ThrOK=T IAlg=1 NPAlg=1 LenDen=           0.
 PRISM was handed    12999466 working-precision words and  4942 shell-pairs
 PRISM was handed    12999466 working-precision words and  4942 shell-pairs
 PRISM was handed    12999466 working-precision words and  4942 shell-pairs
 PRISM was handed    12999466 working-precision words and  4942 shell-pairs
 PRISM was handed    12999466 working-precision words and  4942 shell-pairs
 Prism:   IPart=     0 DynPar=F LinDyn=F Incr=           1.
 PRISM was handed    12999466 working-precision words and  4942 shell-pairs
 PRISM was handed    12999466 working-precision words and  4942 shell-pairs
 PRISM was handed    12999466 working-precision words and  4942 shell-pairs
 PRISM was handed    12999466 working-precision words and  4942 shell-pairs
 PRISM was handed    12999466 working-precision words and  4942 shell-pairs
 PRISM was handed    12999466 working-precision words and  4942 shell-pairs
 PRISM was handed    12999466 working-precision words and  4942 shell-pairs
 PRISM was handed    12999466 working-precision words and  4942 shell-pairs
 PRISM was handed    12999466 working-precision words and  4942 shell-pairs
 PRISM was handed    12999466 working-precision words and  4942 shell-pairs
 PRISM was handed    12999466 working-precision words and  4942 shell-pairs
 PRISM was handed    12999466 working-precision words and  4942 shell-pairs
 PRISM was handed    12999466 working-precision words and  4942 shell-pairs
 PRISM was handed    12999466 working-precision words and  4942 shell-pairs
 IPart= 25 NShTot=         141 NBatch=          20 AvBLen=         7.0
 PRISM was handed    12999466 working-precision words and  4942 shell-pairs
 PRISM was handed    12999466 working-precision words and  4942 shell-pairs
 PRISM was handed    12999466 working-precision words and  4942 shell-pairs
 PRISM was handed    12999466 working-precision words and  4942 shell-pairs
 PRISM was handed    12999466 working-precision words and  4942 shell-pairs
 PRISM was handed    12999466 working-precision words and  4942 shell-pairs
 PRISM was handed    12999466 working-precision words and  4942 shell-pairs
 PRISM was handed    12999466 working-precision words and  4942 shell-pairs
 PRISM was handed    12999466 working-precision words and  4942 shell-pairs
 PRISM was handed    12999466 working-precision words and  4942 shell-pairs
 PRISM was handed    12999466 working-precision words and  4942 shell-pairs
 PRISM was handed    12999466 working-precision words and  4942 shell-pairs
 PRISM was handed    12999466 working-precision words and  4942 shell-pairs
 IPart= 30 NShTot=         140 NBatch=          20 AvBLen=         7.0
 IPart= 27 NShTot=         140 NBatch=          20 AvBLen=         7.0
 IPart=  0 NShTot=         202 NBatch=          63 AvBLen=         3.2
 IPart=  9 NShTot=         157 NBatch=          27 AvBLen=         5.8
 IPart=  8 NShTot=         159 NBatch=          29 AvBLen=         5.5
 IPart= 14 NShTot=         150 NBatch=          22 AvBLen=         6.8
 IPart= 11 NShTot=         155 NBatch=          25 AvBLen=         6.2
 IPart= 12 NShTot=         154 NBatch=          25 AvBLen=         6.2
 IPart=  3 NShTot=         184 NBatch=          48 AvBLen=         3.8
 IPart= 22 NShTot=         144 NBatch=          21 AvBLen=         6.9
 IPart= 21 NShTot=         144 NBatch=          21 AvBLen=         6.9
 IPart=  4 NShTot=         171 NBatch=          37 AvBLen=         4.6
 IPart=  5 NShTot=         170 NBatch=          37 AvBLen=         4.6
 IPart= 26 NShTot=         140 NBatch=          20 AvBLen=         7.0
 IPart= 10 NShTot=         155 NBatch=          25 AvBLen=         6.2
 IPart= 18 NShTot=         145 NBatch=          21 AvBLen=         6.9
 IPart= 17 NShTot=         146 NBatch=          21 AvBLen=         7.0
 IPart=  6 NShTot=         166 NBatch=          35 AvBLen=         4.7
 IPart=  2 NShTot=         185 NBatch=          49 AvBLen=         3.8
 IPart= 28 NShTot=         140 NBatch=          20 AvBLen=         7.0
 IPart= 13 NShTot=         151 NBatch=          22 AvBLen=         6.9
 IPart= 16 NShTot=         146 NBatch=          21 AvBLen=         7.0
 IPart= 24 NShTot=         142 NBatch=          21 AvBLen=         6.8
 IPart= 15 NShTot=         149 NBatch=          22 AvBLen=         6.8
 IPart= 19 NShTot=         145 NBatch=          21 AvBLen=         6.9
 IPart= 29 NShTot=         140 NBatch=          20 AvBLen=         7.0
 IPart=  7 NShTot=         165 NBatch=          35 AvBLen=         4.7
 IPart=  1 NShTot=         189 NBatch=          52 AvBLen=         3.6
 IPart= 23 NShTot=         142 NBatch=          21 AvBLen=         6.8
 IPart= 20 NShTot=         145 NBatch=          21 AvBLen=         6.9
 IPart= 31 NShTot=         140 NBatch=          20 AvBLen=         7.0
 PrSmSu:  NxtVal=             33.
 Entering OneElI...
 Calculate potential energy integrals
    NBasis = 300  MinDer = 1  MaxDer = 1
 Requested accuracy = 0.1000D-12
 PrsmSu:  NPrtUS=  32 ThrOK=T IAlg=1 NPAlg=1 LenDen=           0.
 PRISM was handed    13016477 working-precision words and  4453 shell-pairs
 PRISM was handed    13016477 working-precision words and  4453 shell-pairs
 PRISM was handed    13016477 working-precision words and  4453 shell-pairs
 PRISM was handed    13016477 working-precision words and  4453 shell-pairs
 PRISM was handed    13016477 working-precision words and  4453 shell-pairs
 PRISM was handed    13016477 working-precision words and  4453 shell-pairs
 PRISM was handed    13016477 working-precision words and  4453 shell-pairs
 PRISM was handed    13016477 working-precision words and  4453 shell-pairs
 PRISM was handed    13016477 working-precision words and  4453 shell-pairs
 PRISM was handed    13016477 working-precision words and  4453 shell-pairs
 PRISM was handed    13016477 working-precision words and  4453 shell-pairs
 PRISM was handed    13016477 working-precision words and  4453 shell-pairs
 PRISM was handed    13016477 working-precision words and  4453 shell-pairs
 PRISM was handed    13016477 working-precision words and  4453 shell-pairs
 PRISM was handed    13016477 working-precision words and  4453 shell-pairs
 PRISM was handed    13016477 working-precision words and  4453 shell-pairs
 PRISM was handed    13016477 working-precision words and  4453 shell-pairs
 PRISM was handed    13016477 working-precision words and  4453 shell-pairs
 PRISM was handed    13016477 working-precision words and  4453 shell-pairs
 PRISM was handed    13016477 working-precision words and  4453 shell-pairs
 PRISM was handed    13016477 working-precision words and  4453 shell-pairs
 PRISM was handed    13016477 working-precision words and  4453 shell-pairs
 PRISM was handed    13016477 working-precision words and  4453 shell-pairs
 PRISM was handed    13016477 working-precision words and  4453 shell-pairs
 PRISM was handed    13016477 working-precision words and  4453 shell-pairs
 PRISM was handed    13016477 working-precision words and  4453 shell-pairs
 Prism:   IPart=     0 DynPar=F LinDyn=F Incr=          16.
 PRISM was handed    13016477 working-precision words and  4453 shell-pairs
 PRISM was handed    13016477 working-precision words and  4453 shell-pairs
 PRISM was handed    13016477 working-precision words and  4453 shell-pairs
 PRISM was handed    13016477 working-precision words and  4453 shell-pairs
 PRISM was handed    13016477 working-precision words and  4453 shell-pairs
 PRISM was handed    13016477 working-precision words and  4453 shell-pairs
 IPart= 31 NShTot=        1464 NBatch=         122 AvBLen=        12.0
 IPart= 21 NShTot=        1548 NBatch=         129 AvBLen=        12.0
 IPart= 18 NShTot=        1584 NBatch=         132 AvBLen=        12.0
 IPart= 26 NShTot=        1500 NBatch=         125 AvBLen=        12.0
 IPart= 15 NShTot=        1632 NBatch=         136 AvBLen=        12.0
 IPart= 28 NShTot=        1500 NBatch=         125 AvBLen=        12.0
 IPart=  6 NShTot=        1836 NBatch=         153 AvBLen=        12.0
 IPart=  0 NShTot=        2160 NBatch=         180 AvBLen=        12.0
 IPart=  8 NShTot=        1752 NBatch=         146 AvBLen=        12.0
 IPart= 19 NShTot=        1584 NBatch=         132 AvBLen=        12.0
 IPart=  1 NShTot=        2028 NBatch=         169 AvBLen=        12.0
 IPart= 29 NShTot=        1488 NBatch=         124 AvBLen=        12.0
 IPart=  5 NShTot=        1836 NBatch=         153 AvBLen=        12.0
 IPart=  4 NShTot=        1860 NBatch=         155 AvBLen=        12.0
 IPart=  9 NShTot=        1728 NBatch=         144 AvBLen=        12.0
 IPart= 30 NShTot=        1488 NBatch=         124 AvBLen=        12.0
 IPart=  7 NShTot=        1824 NBatch=         152 AvBLen=        12.0
 IPart= 27 NShTot=        1500 NBatch=         125 AvBLen=        12.0
 IPart=  2 NShTot=        1980 NBatch=         165 AvBLen=        12.0
 IPart= 17 NShTot=        1584 NBatch=         132 AvBLen=        12.0
 IPart= 12 NShTot=        1668 NBatch=         139 AvBLen=        12.0
 IPart= 24 NShTot=        1500 NBatch=         125 AvBLen=        12.0
 IPart= 25 NShTot=        1500 NBatch=         125 AvBLen=        12.0
 IPart= 14 NShTot=        1644 NBatch=         137 AvBLen=        12.0
 IPart= 23 NShTot=        1536 NBatch=         128 AvBLen=        12.0
 IPart= 11 NShTot=        1692 NBatch=         141 AvBLen=        12.0
 IPart= 16 NShTot=        1608 NBatch=         134 AvBLen=        12.0
 IPart=  3 NShTot=        1956 NBatch=         163 AvBLen=        12.0
 IPart= 13 NShTot=        1644 NBatch=         137 AvBLen=        12.0
 IPart= 10 NShTot=        1704 NBatch=         142 AvBLen=        12.0
 IPart= 22 NShTot=        1536 NBatch=         128 AvBLen=        12.0
 IPart= 20 NShTot=        1572 NBatch=         131 AvBLen=        12.0
 PrSmSu:  NxtVal=            513.
 l701 out
 I=    0 X=  -4.598749866399D-01 Y=   1.591766624489D-01 Z=  -9.230947991912D-02
 I=    1 X=   2.174362235856D-01 Y=   3.008850348699D-01 Z=  -4.683532232212D+00
 I=    2 X=   2.721456086718D+00 Y=   9.840503963580D-01 Z=   7.994746570782D+00
 I=    3 X=   3.053025591132D+00 Y=   1.517758049708D-01 Z=  -1.612863866882D+00
 I=    4 X=  -2.591940443464D+00 Y=   1.482925345510D+00 Z=  -1.827881892687D+00
 I=    5 X=  -3.068459468331D+00 Y=   3.384115747928D-01 Z=   2.416150132121D+00
 I=    6 X=  -2.205002560996D+00 Y=  -1.074659585422D+00 Z=   6.156565714139D-01
 I=    7 X=   1.902976950671D+00 Y=  -1.162590027385D+00 Z=  -2.379725958118D+00
 I=    8 X=  -3.210584621241D+00 Y=   4.354888641827D-01 Z=  -9.325677814524D-01
 I=    9 X=  -7.993150096573D-02 Y=  -1.207937400826D+00 Z=   3.135209676365D+00
 I=   10 X=   4.719442650894D-01 Y=  -2.635952286218D+00 Z=  -1.531048019495D+00
 I=   11 X=  -6.747716245313D-02 Y=   2.001072847804D+00 Z=  -2.454095825232D+00
 I=   12 X=   2.856556640254D+00 Y=   3.865294313638D-01 Z=   1.259952625396D+00
 ICntrl=      2127.
 Calling FoFJK, ICntrl=      2127 FMM=F ISym2X=0 I1Cent= 0 IOpClX= 1 NMat=1 NMatS=1 NMatT=0.
 FoFJK:  IHMeth= 1 ICntrl=    2127 DoSepK=T KAlg= 0 I1Cent=   0 FoldK=F
 IRaf=         1 NMat=   1 IRICut=       1 DoRegI=T DoRafI=F ISym2E= 0.
 FoFCou: FMM=F IPFlag=           0 FMFlag=      100000 FMFlg1=         800
         NFxFlg=           0 DoJE=F BraDBF=F KetDBF=F FulRan=T
         wScrn=  0.000000 ICntrl=    2527 IOpCl=  0 I1Cent=           0 NGrid=           0
         NMat0=    1 NMatS0=      1 NMatT0=    0 NMatD0=    1 NMtDS0=    0 NMtDT0=    0
 Symmetry not used in FoFCou.
 FoFCou:  KetSym=F NOpSet=  1 NOpAb=1 NOp=  1.
 FoFCou:  CnvScl= 1.00D+00 Thresh= 1.00D-10 IAcrcy=      10.
 PrismS was handed   418938530 working-precision words and  4676 shell-pairs
 FoFCou: LinMIO=F DoNuc=F BraDBF=F KetDBF=F HaveP=T PDBF=F HaveZ=T HaveW=F
         NIJTC =      10 NIJTAt=       0 NIJTCD=       0 NIJTT =      10
         IJTBeg=       1 IJTEnd=      10 KLTBeg=       1 KLTEnd=      10
         IPTBeg=       1 IPTEnd=      10 IPTBCv=       1 IPTECv=      10
         IZTBeg=       1 IZTEnd=      10 IZTBCv=       1 IZTECv=      10
         IWTBeg=      11 IWTEnd=      10 IWTBCv=      11 IWTECv=      10
         INTBeg=       1 INTEnd=       0 IFTBCv=       1 IFTECv=      10
 NCel replicated for PrismC:     1
 CoulSu:  IncDef=  1024 NBBP=       10934826 NTPThr=   100 NPartT=   32 Incr=        1024 LDynOK=F.
 CoulSu:  NPrtUS=  32 ThrOK=T IAlg=1 NPAlg=1 LenDen=           0 LWGrdD=           0 DoCopy=F.
 Enter PrismC: JobTyp=21 DoJE=F Cont=F.
 Enter PrismC: JobTyp=21 DoJE=F Cont=F.
 Enter PrismC: JobTyp=21 DoJE=F Cont=F.
 Enter PrismC: JobTyp=21 DoJE=F Cont=F.
 Enter PrismC: JobTyp=21 DoJE=F Cont=F.
 PrismC was handed    13009238 working-precision words and  4676 shell-pairs
 Enter PrismC: JobTyp=21 DoJE=F Cont=F.
 PrismC was handed    13009238 working-precision words and  4676 shell-pairs
 Enter PrismC: JobTyp=21 DoJE=F Cont=F.
 PrismC was handed    13009238 working-precision words and  4676 shell-pairs
 Enter PrismC: JobTyp=21 DoJE=F Cont=F.
 PrismC was handed    13009238 working-precision words and  4676 shell-pairs
 PrismC was handed    13009238 working-precision words and  4676 shell-pairs
 Enter PrismC: JobTyp=21 DoJE=F Cont=F.
 Enter PrismC: JobTyp=21 DoJE=F Cont=F.
 Enter PrismC: JobTyp=21 DoJE=F Cont=F.
 PrismC was handed    13009238 working-precision words and  4676 shell-pairs
 Enter PrismC: JobTyp=21 DoJE=F Cont=F.
 Enter PrismC: JobTyp=21 DoJE=F Cont=F.
 PrismC was handed    13009238 working-precision words and  4676 shell-pairs
 Enter PrismC: JobTyp=21 DoJE=F Cont=F.
 Enter PrismC: JobTyp=21 DoJE=F Cont=F.
 Enter PrismC: JobTyp=21 DoJE=F Cont=F.
 PrismC was handed    13009238 working-precision words and  4676 shell-pairs
 PrismC was handed    13009238 working-precision words and  4676 shell-pairs
 Enter PrismC: JobTyp=21 DoJE=F Cont=F.
 PrismC was handed    13009238 working-precision words and  4676 shell-pairs
 Enter PrismC: JobTyp=21 DoJE=F Cont=F.
 PrismC was handed    13009238 working-precision words and  4676 shell-pairs
 Enter PrismC: JobTyp=21 DoJE=F Cont=F.
 Enter PrismC: JobTyp=21 DoJE=F Cont=F.
 PrismC was handed    13009238 working-precision words and  4676 shell-pairs
 Enter PrismC: JobTyp=21 DoJE=F Cont=F.
 PrismC was handed    13009238 working-precision words and  4676 shell-pairs
 Enter PrismC: JobTyp=21 DoJE=F Cont=F.
 Enter PrismC: JobTyp=21 DoJE=F Cont=F.
 Enter PrismC: JobTyp=21 DoJE=F Cont=F.
 Enter PrismC: JobTyp=21 DoJE=F Cont=F.
 Enter PrismC: JobTyp=21 DoJE=F Cont=F.
 Enter PrismC: JobTyp=21 DoJE=F Cont=F.
 Enter PrismC: JobTyp=21 DoJE=F Cont=F.
 Enter PrismC: JobTyp=21 DoJE=F Cont=F.
 PrismC was handed    13009238 working-precision words and  4676 shell-pairs
 Enter PrismC: JobTyp=21 DoJE=F Cont=F.
 PrismC was handed    13009238 working-precision words and  4676 shell-pairs
 PrismC was handed    13009238 working-precision words and  4676 shell-pairs
 Enter PrismC: JobTyp=21 DoJE=F Cont=F.
 PrismC was handed    13009238 working-precision words and  4676 shell-pairs
 Enter PrismC: JobTyp=21 DoJE=F Cont=F.
 PrismC was handed    13009238 working-precision words and  4676 shell-pairs
 PrismC:  IPart=     0 DynPar=T LinDyn=F Incr=        1024 UseFst=F UseS4=T IGathr=2.
 PrismC was handed    13009238 working-precision words and  4676 shell-pairs
 PrismC was handed    13009238 working-precision words and  4676 shell-pairs
 PrismC was handed    13009238 working-precision words and  4676 shell-pairs
 PrismC was handed    13009238 working-precision words and  4676 shell-pairs
 PrismC was handed    13009238 working-precision words and  4676 shell-pairs
 PrismC was handed    13009238 working-precision words and  4676 shell-pairs
 PrismC was handed    13009238 working-precision words and  4676 shell-pairs
 PrismC was handed    13009238 working-precision words and  4676 shell-pairs
 PrismC was handed    13009238 working-precision words and  4676 shell-pairs
 PrismC was handed    13009238 working-precision words and  4676 shell-pairs
 PrismC was handed    13009238 working-precision words and  4676 shell-pairs
 PrismC was handed    13009238 working-precision words and  4676 shell-pairs
 PrismC was handed    13009238 working-precision words and  4676 shell-pairs
 PrismC was handed    13009238 working-precision words and  4676 shell-pairs
 IPart= 17 NShTot=      297010 NShNF=      297010 NShFF=           0 NBatch=        2166 AvBLen=       137.1
 IPart=  4 NShTot=      180005 NShNF=      180005 NShFF=           0 NBatch=        1484 AvBLen=       121.3
 IPart= 25 NShTot=      379568 NShNF=      379568 NShFF=           0 NBatch=        1917 AvBLen=       198.0
 IPart= 11 NShTot=      274984 NShNF=      274984 NShFF=           0 NBatch=        1940 AvBLen=       141.7
 IPart=  8 NShTot=      314326 NShNF=      314326 NShFF=           0 NBatch=        2306 AvBLen=       136.3
 IPart= 10 NShTot=      193833 NShNF=      193833 NShFF=           0 NBatch=        1547 AvBLen=       125.3
 IPart= 27 NShTot=      199146 NShNF=      199146 NShFF=           0 NBatch=        1429 AvBLen=       139.4
 IPart= 28 NShTot=      299824 NShNF=      299824 NShFF=           0 NBatch=        2057 AvBLen=       145.8
 IPart= 13 NShTot=      181031 NShNF=      181031 NShFF=           0 NBatch=        1210 AvBLen=       149.6
 IPart=  5 NShTot=      283941 NShNF=      283941 NShFF=           0 NBatch=        2032 AvBLen=       139.7
 IPart= 24 NShTot=      182945 NShNF=      182945 NShFF=           0 NBatch=        1459 AvBLen=       125.4
 IPart= 15 NShTot=      192369 NShNF=      192369 NShFF=           0 NBatch=        1450 AvBLen=       132.7
 IPart= 12 NShTot=      293999 NShNF=      293999 NShFF=           0 NBatch=        2128 AvBLen=       138.2
 IPart= 30 NShTot=      289083 NShNF=      289083 NShFF=           0 NBatch=        2228 AvBLen=       129.8
 IPart=  9 NShTot=      186062 NShNF=      186062 NShFF=           0 NBatch=        1336 AvBLen=       139.3
 IPart= 14 NShTot=      320878 NShNF=      320878 NShFF=           0 NBatch=        2288 AvBLen=       140.2
 IPart=  0 NShTot=      239247 NShNF=      239247 NShFF=           0 NBatch=        1824 AvBLen=       131.2
 IPart=  6 NShTot=      188067 NShNF=      188067 NShFF=           0 NBatch=        1595 AvBLen=       117.9
 IPart= 26 NShTot=      235087 NShNF=      235087 NShFF=           0 NBatch=        1612 AvBLen=       145.8
 IPart= 21 NShTot=      260237 NShNF=      260237 NShFF=           0 NBatch=        1959 AvBLen=       132.8
 IPart= 19 NShTot=      338445 NShNF=      338445 NShFF=           0 NBatch=        2010 AvBLen=       168.4
 IPart= 29 NShTot=      310770 NShNF=      310770 NShFF=           0 NBatch=        1996 AvBLen=       155.7
 IPart= 18 NShTot=      180903 NShNF=      180903 NShFF=           0 NBatch=        1356 AvBLen=       133.4
 IPart= 31 NShTot=      176227 NShNF=      176227 NShFF=           0 NBatch=        1344 AvBLen=       131.1
 IPart= 22 NShTot=      257844 NShNF=      257844 NShFF=           0 NBatch=        1531 AvBLen=       168.4
 IPart= 16 NShTot=      166320 NShNF=      166320 NShFF=           0 NBatch=        1357 AvBLen=       122.6
 IPart= 20 NShTot=      299122 NShNF=      299122 NShFF=           0 NBatch=        2245 AvBLen=       133.2
 IPart=  1 NShTot=      150395 NShNF=      150395 NShFF=           0 NBatch=        1195 AvBLen=       125.9
 IPart=  7 NShTot=      184205 NShNF=      184205 NShFF=           0 NBatch=        1443 AvBLen=       127.7
 IPart=  2 NShTot=      217421 NShNF=      217421 NShFF=           0 NBatch=        1455 AvBLen=       149.4
 IPart= 23 NShTot=      200858 NShNF=      200858 NShFF=           0 NBatch=        1322 AvBLen=       151.9
 IPart=  3 NShTot=      200913 NShNF=      200913 NShFF=           0 NBatch=        1511 AvBLen=       133.0
 CoulSu:  NxtVal=       11916289.
 FoFCou: FMM=F IPFlag=           0 FMFlag=      100000 FMFlg1=         800
         NFxFlg=           0 DoJE=F BraDBF=F KetDBF=F FulRan=T
         wScrn=  0.000000 ICntrl=    2127 IOpCl=  1 I1Cent=           0 NGrid=           0
         NMat0=    1 NMatS0=      0 NMatT0=    1 NMatD0=    1 NMtDS0=    0 NMtDT0=    0
         CW=    0.222036    0.777964
         WU=    0.000000   12.500000
 Symmetry not used in FoFCou.
 FoFCou:  KetSym=F NOpSet=  1 NOpAb=1 NOp=  1.
 FoFCou:  CnvScl= 1.00D+00 Thresh= 1.00D-10 IAcrcy=      10.
 PrismS was handed   418933564 working-precision words and  4676 shell-pairs
 FoFCou: LinMIO=F DoNuc=F BraDBF=F KetDBF=F HaveP=T PDBF=F HaveZ=T HaveW=F
         NIJTC =      10 NIJTAt=       0 NIJTCD=       0 NIJTT =      10
         IJTBeg=       1 IJTEnd=      10 KLTBeg=       1 KLTEnd=      10
         IPTBeg=       1 IPTEnd=      10 IPTBCv=       1 IPTECv=      10
         IZTBeg=       1 IZTEnd=      10 IZTBCv=       1 IZTECv=      10
         IWTBeg=      11 IWTEnd=      10 IWTBCv=      11 IWTECv=      10
         INTBeg=       1 INTEnd=       0 IFTBCv=       1 IFTECv=      10
 NCel replicated for PrismC:     1
 CoulSu:  IncDef=  1024 NBBP=       10934826 NTPThr=   100 NPartT=   32 Incr=        1024 LDynOK=F.
 CoulSu:  NPrtUS=  32 ThrOK=T IAlg=1 NPAlg=1 LenDen=           0 LWGrdD=           0 DoCopy=F.
 Enter PrismC: JobTyp=21 DoJE=F Cont=F.
 Linear combination for Coulomb/exchange, wScrn=  0.000000
 CW=    0.222036    0.777964
 WU=    0.000000   12.500000
 PrismC was handed    13009082 working-precision words and  4676 shell-pairs
 Enter PrismC: JobTyp=21 DoJE=F Cont=F.
 Linear combination for Coulomb/exchange, wScrn=  0.000000
 CW=    0.222036    0.777964
 WU=    0.000000   12.500000
 Enter PrismC: JobTyp=21 DoJE=F Cont=F.
 Enter PrismC: JobTyp=21 DoJE=F Cont=F.
 Linear combination for Coulomb/exchange, wScrn=  0.000000
 CW=    0.222036    0.777964
 WU=    0.000000   12.500000
 Linear combination for Coulomb/exchange, wScrn=  0.000000
 CW=    0.222036    0.777964
 WU=    0.000000   12.500000
 Enter PrismC: JobTyp=21 DoJE=F Cont=F.
 Linear combination for Coulomb/exchange, wScrn=  0.000000
 Enter PrismC: JobTyp=21 DoJE=F Cont=F.
 Linear combination for Coulomb/exchange, wScrn=  0.000000
 CW=    0.222036    0.777964
 WU=    0.000000   12.500000
 Enter PrismC: JobTyp=21 DoJE=F Cont=F.
 Linear combination for Coulomb/exchange, wScrn=  0.000000
 CW=    0.222036    0.777964
 WU=    0.000000   12.500000
 PrismC was handed    13009082 working-precision words and  4676 shell-pairs
 PrismC was handed    13009082 working-precision words and  4676 shell-pairs
 Enter PrismC: JobTyp=21 DoJE=F Cont=F.
 Linear combination for Coulomb/exchange, wScrn=  0.000000
 CW=    0.222036    0.777964
 WU=    0.000000   12.500000
 PrismC was handed    13009082 working-precision words and  4676 shell-pairs
 PrismC was handed    13009082 working-precision words and  4676 shell-pairs
 Enter PrismC: JobTyp=21 DoJE=F Cont=F.
 Linear combination for Coulomb/exchange, wScrn=  0.000000
 CW=    0.222036    0.777964
 WU=    0.000000   12.500000
 PrismC was handed    13009082 working-precision words and  4676 shell-pairs
 Enter PrismC: JobTyp=21 DoJE=F Cont=F.
 Linear combination for Coulomb/exchange, wScrn=  0.000000
 CW=    0.222036    0.777964
 WU=    0.000000   12.500000
 PrismC was handed    13009082 working-precision words and  4676 shell-pairs
 Enter PrismC: JobTyp=21 DoJE=F Cont=F.
 Linear combination for Coulomb/exchange, wScrn=  0.000000
 CW=    0.222036    0.777964
 WU=    0.000000   12.500000
 PrismC was handed    13009082 working-precision words and  4676 shell-pairs
 Enter PrismC: JobTyp=21 DoJE=F Cont=F.
 Linear combination for Coulomb/exchange, wScrn=  0.000000
 CW=    0.222036    0.777964
 WU=    0.000000   12.500000
 PrismC was handed    13009082 working-precision words and  4676 shell-pairs
 Enter PrismC: JobTyp=21 DoJE=F Cont=F.
 CW=    0.222036    0.777964
 WU=    0.000000   12.500000
 PrismC was handed    13009082 working-precision words and  4676 shell-pairs
 Enter PrismC: JobTyp=21 DoJE=F Cont=F.
 Linear combination for Coulomb/exchange, wScrn=  0.000000
 CW=    0.222036    0.777964
 WU=    0.000000   12.500000
 PrismC was handed    13009082 working-precision words and  4676 shell-pairs
 Enter PrismC: JobTyp=21 DoJE=F Cont=F.
 Linear combination for Coulomb/exchange, wScrn=  0.000000
 CW=    0.222036    0.777964
 WU=    0.000000   12.500000
 PrismC was handed    13009082 working-precision words and  4676 shell-pairs
 PrismC was handed    13009082 working-precision words and  4676 shell-pairs
 Enter PrismC: JobTyp=21 DoJE=F Cont=F.
 Linear combination for Coulomb/exchange, wScrn=  0.000000
 CW=    0.222036    0.777964
 WU=    0.000000   12.500000
 Linear combination for Coulomb/exchange, wScrn=  0.000000
 CW=    0.222036    0.777964
 WU=    0.000000   12.500000
 PrismC was handed    13009082 working-precision words and  4676 shell-pairs
 Enter PrismC: JobTyp=21 DoJE=F Cont=F.
 Enter PrismC: JobTyp=21 DoJE=F Cont=F.
 Linear combination for Coulomb/exchange, wScrn=  0.000000
 Enter PrismC: JobTyp=21 DoJE=F Cont=F.
 Linear combination for Coulomb/exchange, wScrn=  0.000000
 CW=    0.222036    0.777964
 WU=    0.000000   12.500000
 PrismC was handed    13009082 working-precision words and  4676 shell-pairs
 Enter PrismC: JobTyp=21 DoJE=F Cont=F.
 Linear combination for Coulomb/exchange, wScrn=  0.000000
 CW=    0.222036    0.777964
 WU=    0.000000   12.500000
 Linear combination for Coulomb/exchange, wScrn=  0.000000
 CW=    0.222036    0.777964
 WU=    0.000000   12.500000
 PrismC was handed    13009082 working-precision words and  4676 shell-pairs
 Enter PrismC: JobTyp=21 DoJE=F Cont=F.
 Linear combination for Coulomb/exchange, wScrn=  0.000000
 CW=    0.222036    0.777964
 WU=    0.000000   12.500000
 PrismC was handed    13009082 working-precision words and  4676 shell-pairs
 Enter PrismC: JobTyp=21 DoJE=F Cont=F.
 Linear combination for Coulomb/exchange, wScrn=  0.000000
 CW=    0.222036    0.777964
 WU=    0.000000   12.500000
 PrismC was handed    13009082 working-precision words and  4676 shell-pairs
 Enter PrismC: JobTyp=21 DoJE=F Cont=F.
 Enter PrismC: JobTyp=21 DoJE=F Cont=F.
 Linear combination for Coulomb/exchange, wScrn=  0.000000
 CW=    0.222036    0.777964
 WU=    0.000000   12.500000
 PrismC was handed    13009082 working-precision words and  4676 shell-pairs
 Enter PrismC: JobTyp=21 DoJE=F Cont=F.
 Linear combination for Coulomb/exchange, wScrn=  0.000000
 CW=    0.222036    0.777964
 WU=    0.000000   12.500000
 PrismC was handed    13009082 working-precision words and  4676 shell-pairs
 PrismC was handed    13009082 working-precision words and  4676 shell-pairs
 Enter PrismC: JobTyp=21 DoJE=F Cont=F.
 Linear combination for Coulomb/exchange, wScrn=  0.000000
 CW=    0.222036    0.777964
 WU=    0.000000   12.500000
 Linear combination for Coulomb/exchange, wScrn=  0.000000
 CW=    0.222036    0.777964
 WU=    0.000000   12.500000
 PrismC was handed    13009082 working-precision words and  4676 shell-pairs
 Enter PrismC: JobTyp=21 DoJE=F Cont=F.
 PrismC was handed    13009082 working-precision words and  4676 shell-pairs
 Linear combination for Coulomb/exchange, wScrn=  0.000000
 CW=    0.222036    0.777964
 WU=    0.000000   12.500000
 PrismC was handed    13009082 working-precision words and  4676 shell-pairs
 Enter PrismC: JobTyp=21 DoJE=F Cont=F.
 Linear combination for Coulomb/exchange, wScrn=  0.000000
 CW=    0.222036    0.777964
 WU=    0.000000   12.500000
 PrismC was handed    13009082 working-precision words and  4676 shell-pairs
 PrismC was handed    13009082 working-precision words and  4676 shell-pairs
 Enter PrismC: JobTyp=21 DoJE=F Cont=F.
 Linear combination for Coulomb/exchange, wScrn=  0.000000
 CW=    0.222036    0.777964
 WU=    0.000000   12.500000
 PrismC was handed    13009082 working-precision words and  4676 shell-pairs
 PrismC was handed    13009082 working-precision words and  4676 shell-pairs
 Enter PrismC: JobTyp=21 DoJE=F Cont=F.
 Linear combination for Coulomb/exchange, wScrn=  0.000000
 CW=    0.222036    0.777964
 WU=    0.000000   12.500000
 PrismC was handed    13009082 working-precision words and  4676 shell-pairs
 CW=    0.222036    0.777964
 WU=    0.000000   12.500000
 PrismC was handed    13009082 working-precision words and  4676 shell-pairs
 Enter PrismC: JobTyp=21 DoJE=F Cont=F.
 Linear combination for Coulomb/exchange, wScrn=  0.000000
 CW=    0.222036    0.777964
 WU=    0.000000   12.500000
 PrismC was handed    13009082 working-precision words and  4676 shell-pairs
 Enter PrismC: JobTyp=21 DoJE=F Cont=F.
 Linear combination for Coulomb/exchange, wScrn=  0.000000
 CW=    0.222036    0.777964
 WU=    0.000000   12.500000
 PrismC:  IPart=     0 DynPar=T LinDyn=F Incr=        1024 UseFst=F UseS4=T IGathr=2.
 PrismC was handed    13009082 working-precision words and  4676 shell-pairs
 IPart= 22 NShTot=      285666 NShNF=      285666 NShFF=           0 NBatch=        2433 AvBLen=       117.4
 IPart=  3 NShTot=      220146 NShNF=      220146 NShFF=           0 NBatch=        1812 AvBLen=       121.5
 IPart= 16 NShTot=      181227 NShNF=      181227 NShFF=           0 NBatch=        2002 AvBLen=        90.5
 IPart= 25 NShTot=      246510 NShNF=      246510 NShFF=           0 NBatch=        2131 AvBLen=       115.7
 IPart=  2 NShTot=      287487 NShNF=      287487 NShFF=           0 NBatch=        2504 AvBLen=       114.8
 IPart=  6 NShTot=      230032 NShNF=      230032 NShFF=           0 NBatch=        2181 AvBLen=       105.5
 IPart=  0 NShTot=      283406 NShNF=      283406 NShFF=           0 NBatch=        2290 AvBLen=       123.8
 IPart= 21 NShTot=      320676 NShNF=      320676 NShFF=           0 NBatch=        2397 AvBLen=       133.8
 IPart=  4 NShTot=      240612 NShNF=      240612 NShFF=           0 NBatch=        2232 AvBLen=       107.8
 IPart= 19 NShTot=      250333 NShNF=      250333 NShFF=           0 NBatch=        2406 AvBLen=       104.0
 IPart= 17 NShTot=      274727 NShNF=      274727 NShFF=           0 NBatch=        2315 AvBLen=       118.7
 IPart= 26 NShTot=      218578 NShNF=      218578 NShFF=           0 NBatch=        2132 AvBLen=       102.5
 IPart=  1 NShTot=      344016 NShNF=      344016 NShFF=           0 NBatch=        2348 AvBLen=       146.5
 IPart= 12 NShTot=      297123 NShNF=      297123 NShFF=           0 NBatch=        2350 AvBLen=       126.4
 IPart=  9 NShTot=      237430 NShNF=      237430 NShFF=           0 NBatch=        2048 AvBLen=       115.9
 IPart= 20 NShTot=      295145 NShNF=      295145 NShFF=           0 NBatch=        2363 AvBLen=       124.9
 IPart= 29 NShTot=      263265 NShNF=      263265 NShFF=           0 NBatch=        2366 AvBLen=       111.3
 IPart= 30 NShTot=      230317 NShNF=      230317 NShFF=           0 NBatch=        2223 AvBLen=       103.6
 IPart= 23 NShTot=      218666 NShNF=      218666 NShFF=           0 NBatch=        1922 AvBLen=       113.8
 IPart=  8 NShTot=      256678 NShNF=      256678 NShFF=           0 NBatch=        2372 AvBLen=       108.2
 IPart= 24 NShTot=      250498 NShNF=      250498 NShFF=           0 NBatch=        2305 AvBLen=       108.7
 IPart= 15 NShTot=      220764 NShNF=      220764 NShFF=           0 NBatch=        2191 AvBLen=       100.8
 IPart= 14 NShTot=      251553 NShNF=      251553 NShFF=           0 NBatch=        2265 AvBLen=       111.1
 IPart=  7 NShTot=      167675 NShNF=      167675 NShFF=           0 NBatch=        1538 AvBLen=       109.0
 IPart=  5 NShTot=      193054 NShNF=      193054 NShFF=           0 NBatch=        1777 AvBLen=       108.6
 IPart= 11 NShTot=      208475 NShNF=      208475 NShFF=           0 NBatch=        1631 AvBLen=       127.8
 IPart= 31 NShTot=      176531 NShNF=      176531 NShFF=           0 NBatch=        1559 AvBLen=       113.2
 IPart= 28 NShTot=      270886 NShNF=      270886 NShFF=           0 NBatch=        2380 AvBLen=       113.8
 IPart= 10 NShTot=      200745 NShNF=      200745 NShFF=           0 NBatch=        2011 AvBLen=        99.8
 IPart= 27 NShTot=      170341 NShNF=      170341 NShFF=           0 NBatch=        1709 AvBLen=        99.7
 IPart= 18 NShTot=      232436 NShNF=      232436 NShFF=           0 NBatch=        2164 AvBLen=       107.4
 IPart= 13 NShTot=      225783 NShNF=      225783 NShFF=           0 NBatch=        1979 AvBLen=       114.1
 CoulSu:  NxtVal=       11916289.
 ReadGW:  IGet=0 IStart=           1 Next=           1 LGW=           0.
 Remaining memory in FofDFT      399.83 Mw
 CkSvGd:  ISavGI=        -1 IRadAn=       5 IRASav=       5 ISavGd=        -1.
 CalDSu:  NPrtUS=  32 ThrOK=T IAlg=1 NPAlg=2 DoDPD=T LenP=       45150 LenD1P=             0.
 IPart=  0 IRanGd=          0 ScrnBf=T ScrnGd=T RCrit=4.00D+00 DoMicB=T.
 IPart=  5         8939 of        10652 points in      15 batches and       41 microbatches, Max-NSigAt=      12 Max-NSgAt2=      12
 IPart= 18         8203 of         9710 points in      15 batches and       95 microbatches, Max-NSigAt=      12 Max-NSgAt2=      12
 IPart= 11         7602 of         8414 points in      13 batches and       57 microbatches, Max-NSigAt=      12 Max-NSgAt2=      12
 IPart=  7         5427 of         5470 points in       8 batches and       18 microbatches, Max-NSigAt=      12 Max-NSgAt2=      12
 IPart=  1         9436 of        10392 points in      16 batches and       28 microbatches, Max-NSigAt=      12 Max-NSgAt2=      12
 IPart= 24         9196 of         9792 points in      15 batches and       56 microbatches, Max-NSigAt=      12 Max-NSgAt2=      12
 IPart= 17         5325 of         5732 points in       9 batches and       30 microbatches, Max-NSigAt=      12 Max-NSgAt2=      12
 IPart= 29         6216 of         7172 points in      11 batches and       50 microbatches, Max-NSigAt=      12 Max-NSgAt2=      12
 IPart= 10         5297 of         5928 points in      10 batches and       48 microbatches, Max-NSigAt=      12 Max-NSgAt2=      12
 IPart= 19         9862 of        11360 points in      19 batches and       53 microbatches, Max-NSigAt=      12 Max-NSgAt2=      12
 IPart=  8         9299 of        10764 points in      16 batches and       66 microbatches, Max-NSigAt=      12 Max-NSgAt2=      12
 IPart= 27         6183 of         6848 points in      11 batches and       40 microbatches, Max-NSigAt=      12 Max-NSgAt2=      12
 IPart=  3         8750 of         9748 points in      14 batches and       64 microbatches, Max-NSigAt=      12 Max-NSgAt2=      12
 IPart= 31         4963 of         5338 points in       9 batches and       37 microbatches, Max-NSigAt=      12 Max-NSgAt2=      12
 IPart= 22         9529 of         9922 points in      15 batches and       54 microbatches, Max-NSigAt=      12 Max-NSgAt2=      12
 IPart= 14         8790 of        11472 points in      18 batches and       59 microbatches, Max-NSigAt=      12 Max-NSgAt2=      12
 IPart= 28         6936 of         7804 points in      11 batches and       51 microbatches, Max-NSigAt=      12 Max-NSgAt2=      12
 IPart= 12         8899 of         9592 points in      15 batches and       45 microbatches, Max-NSigAt=      12 Max-NSgAt2=      12
 IPart= 21         8519 of        10826 points in      17 batches and       80 microbatches, Max-NSigAt=      12 Max-NSgAt2=      12
 IPart= 15         5421 of         6916 points in      11 batches and       58 microbatches, Max-NSigAt=      12 Max-NSgAt2=      12
 IPart= 30         6010 of         6874 points in      11 batches and       31 microbatches, Max-NSigAt=      12 Max-NSgAt2=      12
 IPart= 23         5866 of         6546 points in      11 batches and       60 microbatches, Max-NSigAt=      12 Max-NSgAt2=      12
 IPart= 26        10278 of        11918 points in      19 batches and       64 microbatches, Max-NSigAt=      12 Max-NSgAt2=      12
 IPart= 25         8409 of         8960 points in      14 batches and       55 microbatches, Max-NSigAt=      12 Max-NSgAt2=      12
 IPart= 20        10091 of        10562 points in      15 batches and       37 microbatches, Max-NSigAt=      12 Max-NSgAt2=      12
 IPart=  2         6410 of         6690 points in      11 batches and       39 microbatches, Max-NSigAt=      12 Max-NSgAt2=      12
 IPart=  6         5946 of         6012 points in      10 batches and       23 microbatches, Max-NSigAt=      12 Max-NSgAt2=      12
 IPart=  0         8969 of        10882 points in      16 batches and       46 microbatches, Max-NSigAt=      12 Max-NSgAt2=      12
 IPart=  9         7952 of         9428 points in      14 batches and       38 microbatches, Max-NSigAt=      12 Max-NSgAt2=      12
 IPart=  4         8037 of         9018 points in      14 batches and       44 microbatches, Max-NSigAt=      12 Max-NSgAt2=      12
 IPart= 16         6381 of         6874 points in      11 batches and       45 microbatches, Max-NSigAt=      12 Max-NSgAt2=      12
 IPart= 13         6800 of         8038 points in      13 batches and       77 microbatches, Max-NSigAt=      12 Max-NSgAt2=      12
 Forces at end of L703
 I=    0 X=  -4.598749866399D-01 Y=   1.591766624489D-01 Z=  -9.230947991912D-02
 I=    1 X=   4.367645182248D-04 Y=   1.531626052303D-03 Z=   7.106184101637D-04
 I=    2 X=   1.208267903552D-05 Y=  -2.014227493685D-07 Z=  -4.683089283475D-06
 I=    3 X=  -5.913336507124D-06 Y=   4.893130952910D-05 Z=  -5.407242539945D-06
 I=    4 X=   1.729461768329D-05 Y=  -7.784770057473D-07 Z=   1.279765368345D-05
 I=    5 X=  -3.811045517743D-05 Y=   1.344159914790D-05 Z=   1.546652585827D-05
 I=    6 X=  -3.798542197542D-04 Y=  -1.502909627518D-03 Z=  -7.273469051118D-04
 I=    7 X=   2.125048684665D-05 Y=  -4.735753677232D-05 Z=   4.959744487465D-05
 I=    8 X=  -1.299768315643D-05 Y=  -3.514088167739D-05 Z=  -6.168720120492D-06
 I=    9 X=  -8.129390154599D-06 Y=  -1.894276499947D-05 Z=   5.868458094138D-06
 I=   10 X=  -1.096206245121D-05 Y=   2.285199802721D-07 Z=  -1.810768174670D-05
 I=   11 X=  -6.427246304508D-06 Y=   7.011040946026D-06 Z=  -1.600292590842D-05
 I=   12 X=  -2.499790828603D-05 Y=   4.092188825078D-06 Z=  -1.663192803125D-05
 FrcOut:
 IF    =    61 IFX   =    97 IFXYZ =   133
 IFFX  =   169 IFFFX =   835 IFLen =    36
 IFFLen=   666 IFFFLn=     0 IEDerv=   835
 LEDerv=  1781 IFroze=  3022 ICStrt=147347
 FCEst1:  Generated internal coordinate force constants:
                1             2             3             4             5 
      1  0.686369D+00
      2 -0.882495D-01  0.259595D+00
      3 -0.317252D-02 -0.606009D-01  0.875283D+00
      4 -0.111747D+00  0.294829D-02 -0.104989D-02  0.596028D+00
      5  0.255025D-02 -0.763881D-01 -0.101260D-02 -0.353465D-01  0.861392D-01
      6 -0.323691D-01  0.220449D-02 -0.534970D+00 -0.130330D+00  0.887610D-02
      7 -0.318326D+00  0.182090D-02  0.933741D-01  0.126079D-01  0.377414D-03
      8 -0.443283D-02 -0.668988D-01  0.662708D-02  0.419146D-03 -0.155301D-02
      9  0.994247D-01  0.407660D-02 -0.153692D+00  0.282264D-01  0.844951D-03
     10 -0.255844D+00  0.829212D-01 -0.910301D-01  0.134323D-01  0.912558D-03
     11  0.901781D-01 -0.112862D+00  0.520232D-01 -0.300536D-02  0.180654D-01
     12 -0.984545D-01  0.517964D-01 -0.171358D+00 -0.240883D-01  0.122225D-01
     13  0.116667D-01 -0.347194D-03  0.000000D+00 -0.511251D+00  0.327924D-01
     14 -0.195886D-03  0.658208D-02  0.000000D+00  0.338244D-01 -0.320541D-01
     15  0.323691D-01 -0.220449D-02  0.000000D+00  0.130330D+00 -0.887610D-02
     16 -0.145234D-01  0.147159D-02  0.199509D-02  0.101533D-02 -0.130841D-02
     17 -0.223210D-03 -0.100302D-01  0.317752D-02  0.109087D-02  0.580841D-02
     18  0.177245D-02  0.451465D-02 -0.145481D-01 -0.298462D-02 -0.120815D-01
     19  0.291358D-02  0.170010D-03 -0.202872D-02  0.185263D-03 -0.476175D-04
     20  0.887639D-02  0.690156D-03 -0.656082D-02 -0.155502D-03  0.399681D-04
     21  0.363104D-02  0.210127D-03 -0.252443D-02  0.238191D-03 -0.612213D-04
     22 -0.629920D-03  0.266368D-03 -0.230634D-03  0.183767D-03 -0.472329D-04
     23 -0.911120D-02  0.364111D-02 -0.286861D-02  0.139296D-03 -0.358027D-04
     24 -0.339196D-02  0.131656D-02 -0.981913D-03 -0.411823D-03  0.105849D-03
     25  0.117947D-03 -0.998954D-03  0.213859D-02 -0.455388D-03  0.117047D-03
     26  0.610510D-03 -0.433231D-02  0.921854D-02  0.853368D-04 -0.219338D-04
     27  0.186727D-03 -0.130998D-02  0.278625D-02  0.700099D-04 -0.179944D-04
     28  0.229621D-03 -0.192734D-03  0.295221D-03  0.000000D+00  0.000000D+00
     29 -0.127127D-03  0.106705D-03 -0.163446D-03  0.000000D+00  0.000000D+00
     30  0.294555D-03 -0.247237D-03  0.378706D-03  0.000000D+00  0.000000D+00
     31 -0.183255D-03  0.153817D-03 -0.235609D-03  0.000000D+00  0.000000D+00
     32 -0.266034D-03  0.223298D-03 -0.342037D-03  0.000000D+00  0.000000D+00
     33 -0.231348D-03  0.194184D-03 -0.297441D-03  0.000000D+00  0.000000D+00
     34 -0.432125D-04  0.362708D-04 -0.555578D-04  0.000000D+00  0.000000D+00
     35  0.390558D-03 -0.327818D-03  0.502136D-03  0.000000D+00  0.000000D+00
     36 -0.591537D-04  0.496512D-04 -0.760533D-04  0.000000D+00  0.000000D+00
                6             7             8             9            10 
      6  0.642569D+00
      7  0.000000D+00  0.315670D+00
      8  0.000000D+00  0.468487D-03  0.510627D-01
      9  0.000000D+00 -0.105372D+00  0.104884D-02  0.126831D+00
     10  0.000000D+00 -0.812157D-02  0.118809D-01 -0.181825D-01  0.249078D+00
     11  0.000000D+00 -0.273551D-02  0.987578D-02 -0.612423D-02 -0.917201D-01
     12  0.000000D+00  0.111110D-01 -0.117981D-01  0.248751D-01  0.108270D+00
     13  0.162699D+00  0.000000D+00  0.484455D-03  0.000000D+00 -0.213745D-03
     14 -0.110806D-01  0.000000D+00  0.711337D-02  0.000000D+00 -0.313848D-02
     15 -0.107599D+00  0.000000D+00  0.000000D+00  0.000000D+00  0.000000D+00
     16  0.000000D+00 -0.186724D-02 -0.877276D-02 -0.418035D-02  0.160921D-02
     17  0.000000D+00  0.985486D-04  0.362017D-03  0.220629D-03 -0.808214D-03
     18  0.000000D+00  0.842022D-03  0.417900D-02  0.188511D-02  0.871218D-03
     19  0.000000D+00 -0.799594D-04  0.101632D-03 -0.179012D-03 -0.128004D-03
     20  0.000000D+00  0.671146D-04 -0.853060D-04  0.150255D-03  0.107441D-03
     21  0.000000D+00 -0.102803D-03  0.130668D-03 -0.230154D-03 -0.164574D-03
     22  0.000000D+00 -0.793136D-04  0.100811D-03 -0.177566D-03 -0.126970D-03
     23  0.000000D+00 -0.601200D-04  0.764155D-04 -0.134596D-03 -0.962440D-04
     24  0.000000D+00  0.177742D-03 -0.225919D-03  0.397928D-03  0.284542D-03
     25  0.000000D+00  0.196545D-03 -0.249819D-03  0.440023D-03  0.314642D-03
     26  0.000000D+00 -0.368313D-04  0.468144D-04 -0.824574D-04 -0.589619D-04
     27  0.000000D+00 -0.302162D-04  0.384063D-04 -0.676477D-04 -0.483721D-04
     28  0.000000D+00  0.000000D+00  0.000000D+00  0.000000D+00  0.000000D+00
     29  0.000000D+00  0.000000D+00  0.000000D+00  0.000000D+00  0.000000D+00
     30  0.000000D+00  0.000000D+00  0.000000D+00  0.000000D+00  0.000000D+00
     31  0.000000D+00  0.000000D+00  0.000000D+00  0.000000D+00  0.000000D+00
     32  0.000000D+00  0.000000D+00  0.000000D+00  0.000000D+00  0.000000D+00
     33  0.000000D+00  0.000000D+00  0.000000D+00  0.000000D+00  0.000000D+00
     34  0.000000D+00  0.000000D+00  0.000000D+00  0.000000D+00  0.000000D+00
     35  0.000000D+00  0.000000D+00  0.000000D+00  0.000000D+00  0.000000D+00
     36  0.000000D+00  0.000000D+00  0.000000D+00  0.000000D+00  0.000000D+00
               11            12            13            14            15 
     11  0.957180D-01
     12 -0.505152D-01  0.144512D+00
     13 -0.457477D-03  0.000000D+00  0.499665D+00
     14 -0.671726D-02  0.000000D+00 -0.324381D-01  0.255767D-01
     15  0.000000D+00  0.000000D+00 -0.162699D+00  0.110806D-01  0.107599D+00
     16  0.771914D-02  0.324291D-02  0.132676D-03  0.194811D-02  0.000000D+00
     17 -0.406336D-02 -0.177019D-02 -0.341011D-04 -0.500715D-03  0.000000D+00
     18  0.459081D-02  0.206801D-02  0.000000D+00  0.000000D+00  0.000000D+00
     19 -0.455729D-04  0.173256D-03  0.000000D+00  0.000000D+00  0.000000D+00
     20  0.382520D-04 -0.145424D-03  0.000000D+00  0.000000D+00  0.000000D+00
     21 -0.585926D-04  0.222753D-03  0.000000D+00  0.000000D+00  0.000000D+00
     22 -0.452048D-04  0.171856D-03  0.000000D+00  0.000000D+00  0.000000D+00
     23 -0.342654D-04  0.130268D-03  0.000000D+00  0.000000D+00  0.000000D+00
     24  0.101304D-03 -0.385131D-03  0.000000D+00  0.000000D+00  0.000000D+00
     25  0.112021D-03 -0.425873D-03  0.000000D+00  0.000000D+00  0.000000D+00
     26 -0.209920D-04  0.798058D-04  0.000000D+00  0.000000D+00  0.000000D+00
     27 -0.172218D-04  0.654724D-04  0.000000D+00  0.000000D+00  0.000000D+00
     28  0.000000D+00  0.000000D+00  0.000000D+00  0.000000D+00  0.000000D+00
     29  0.000000D+00  0.000000D+00  0.000000D+00  0.000000D+00  0.000000D+00
     30  0.000000D+00  0.000000D+00  0.000000D+00  0.000000D+00  0.000000D+00
     31  0.000000D+00  0.000000D+00  0.000000D+00  0.000000D+00  0.000000D+00
     32  0.000000D+00  0.000000D+00  0.000000D+00  0.000000D+00  0.000000D+00
     33  0.000000D+00  0.000000D+00  0.000000D+00  0.000000D+00  0.000000D+00
     34  0.000000D+00  0.000000D+00  0.000000D+00  0.000000D+00  0.000000D+00
     35  0.000000D+00  0.000000D+00  0.000000D+00  0.000000D+00  0.000000D+00
     36  0.000000D+00  0.000000D+00  0.000000D+00  0.000000D+00  0.000000D+00
               16            17            18            19            20 
     16  0.703992D+00
     17 -0.548617D-01  0.295357D+00
     18 -0.254806D-01 -0.999743D-01  0.675205D+00
     19 -0.262450D+00 -0.229918D-03  0.107223D+00  0.690347D+00
     20 -0.541022D-02 -0.110919D+00  0.183765D-02  0.250599D-03  0.655515D+00
     21  0.103008D+00 -0.216644D-02 -0.205885D+00 -0.707464D-02 -0.195466D-02
     22 -0.323272D+00  0.489813D-01 -0.792317D-01 -0.598601D-02  0.361573D-02
     23  0.513215D-01 -0.922716D-01  0.212699D-01 -0.178986D-04  0.111047D-01
     24 -0.674845D-01  0.181663D-01 -0.136532D+00  0.159293D-01 -0.344936D-02
     25 -0.112110D+00  0.570409D-02 -0.125547D-01  0.160005D-01 -0.788700D-02
     26  0.784603D-02 -0.103035D+00  0.758000D-01 -0.951580D-03  0.118422D-01
     27 -0.205208D-01  0.826641D-01 -0.334229D+00 -0.179705D-02  0.456877D-02
     28  0.535345D-02  0.207417D-01  0.662674D-02 -0.806841D-01  0.334685D-01
     29  0.147795D-02  0.920163D-02  0.179420D-02  0.241686D-01 -0.276479D+00
     30 -0.164451D-02 -0.130314D-01 -0.196806D-02  0.108302D-01 -0.110970D+00
     31  0.106665D-01 -0.175276D-01  0.138008D-01 -0.798514D-01  0.718996D-02
     32 -0.229069D-02  0.688123D-02 -0.299544D-02  0.145236D-01 -0.203383D+00
     33 -0.349657D-02  0.872020D-02 -0.455422D-02 -0.189355D-01  0.135920D+00
     34 -0.854544D-02 -0.293175D-02 -0.108842D-01 -0.280266D+00 -0.401231D-01
     35  0.859402D-03  0.320963D-02  0.106502D-02 -0.379219D-01 -0.883635D-01
     36  0.145616D-01  0.399360D-02  0.185571D-01 -0.104140D+00 -0.193958D-01
               21            22            23            24            25 
     21  0.686014D+00
     22 -0.768184D-02  0.315019D+00
     23 -0.135569D-03 -0.531704D-01  0.686752D-01
     24  0.203794D-01  0.884335D-01 -0.201402D-01  0.112658D+00
     25  0.205154D-01  0.148889D-01  0.109721D-01 -0.335407D-01  0.810522D-01
     26 -0.133552D-02  0.301407D-03  0.886322D-02  0.412874D-02 -0.777388D-02
     27 -0.234150D-02 -0.128785D-02  0.184921D-02  0.445808D-02  0.234342D-01
     28  0.148474D-01  0.240963D-03  0.167577D-02  0.290741D-03 -0.390871D-03
     29 -0.103654D+00 -0.133406D-03 -0.927774D-03 -0.160966D-03  0.216402D-03
     30 -0.136337D+00  0.309104D-03  0.214966D-02  0.372960D-03 -0.501405D-03
     31 -0.104686D-01 -0.192307D-03 -0.133739D-02 -0.232034D-03  0.311945D-03
     32  0.129677D+00 -0.279175D-03 -0.194152D-02 -0.336847D-03  0.452855D-03
     33 -0.221711D+00 -0.242775D-03 -0.168837D-02 -0.292928D-03  0.393810D-03
     34 -0.116747D+00 -0.453469D-04 -0.315364D-03 -0.547148D-04  0.735582D-04
     35 -0.206517D-01  0.409849D-03  0.285029D-02  0.494517D-03 -0.664825D-03
     36 -0.137588D+00 -0.620755D-04 -0.431703D-03 -0.748992D-04  0.100694D-03
               26            27            28            29            30 
     26  0.866400D-01
     27 -0.877808D-01  0.329336D+00
     28 -0.160362D-02 -0.482932D-03  0.625224D-01
     29  0.887830D-03  0.267370D-03 -0.257958D-01  0.276426D+00
     30 -0.205711D-02 -0.619499D-03 -0.117413D-01  0.112775D+00  0.119548D+00
     31  0.127982D-02  0.385417D-03  0.149001D-03  0.135989D-02 -0.257289D-02
     32  0.185793D-02  0.559515D-03  0.179135D-02 -0.122389D-01  0.238508D-01
     33  0.161568D-02  0.486563D-03  0.169110D-02 -0.118462D-01  0.230759D-01
     34  0.301787D-03  0.908832D-04  0.125796D-01 -0.116654D-02  0.502625D-02
     35 -0.272757D-02 -0.821410D-03 -0.300852D-01  0.302415D-02 -0.124696D-01
     36  0.413117D-03  0.124410D-03 -0.115269D-01  0.988379D-03 -0.445129D-02
               31            32            33            34            35 
     31  0.628655D-01
     32 -0.166915D-01  0.196396D+00
     33  0.189540D-01 -0.141419D+00  0.209464D+00
     34  0.623403D-02  0.275956D-02  0.186731D-02  0.270013D+00
     35  0.255730D-01  0.122048D-01  0.850420D-02  0.414391D-01  0.701300D-01
     36 -0.196310D-01 -0.899404D-02 -0.617044D-02  0.120757D+00  0.233768D-01
               36 
     36  0.129679D+00
 Quadrupole    = 1.31204274D+00-1.76980278D+00 4.57760048D-01
                -1.09972574D+00-2.31538203D+00 1.38369267D-01
 -------------------------------------------------------------------
 Center     Atomic                   Forces (Hartrees/Bohr)
 Number     Number              X              Y              Z
 -------------------------------------------------------------------
      1        6          -0.000436765   -0.001531626   -0.000710618
      2        8          -0.000012083    0.000000201    0.000004683
      3        1           0.000005913   -0.000048931    0.000005407
      4        1          -0.000017295    0.000000778   -0.000012798
      5        1           0.000038110   -0.000013442   -0.000015467
      6        6           0.000379854    0.001502910    0.000727347
      7        6          -0.000021250    0.000047358   -0.000049597
      8        1           0.000012998    0.000035141    0.000006169
      9        1           0.000008129    0.000018943   -0.000005868
     10        1           0.000010962   -0.000000229    0.000018108
     11        1           0.000006427   -0.000007011    0.000016003
     12        1           0.000024998   -0.000004092    0.000016632
 -------------------------------------------------------------------
 Cartesian Forces:  Max     0.001531626 RMS     0.000407820
 From PutF, contents of force:
   1   -0.1078343657D-04
   2    0.3193943198D-05
   3    0.2020646955D-04
   4   -0.4187292854D-04
   5   -0.1496621284D-04
   6    0.6904831833D-05
   7   -0.2467191567D-05
   8   -0.1180227959D-04
   9    0.1571060231D-04
  10   -0.7323977130D-05
  11   -0.1065755973D-04
  12   -0.7012732140D-05
  13   -0.1692228231D-04
  14    0.2883945568D-04
  15   -0.5851821594D-05
  16   -0.1054143712D-04
  17    0.1372974524D-06
  18    0.3338451628D-05
  19   -0.2611933195D-05
  20    0.3129736148D-04
  21    0.1453455113D-04
  22    0.1765302982D-04
  23   -0.5472653564D-04
  24    0.2390875203D-04
  25   -0.2751970690D-04
  26    0.1841842657D-04
  27   -0.6344653471D-05
  28   -0.9429488380D-04
  29    0.1631578353D-04
  30   -0.1801902318D-02
 -----------------------------------------------------------------------------------------------
                       Internal Coordinate Forces (Hartree/Bohr or radian)
  Cent   Atom   N1       Length/X         N2         Alpha/Y        N3         Beta/Z          J
 -----------------------------------------------------------------------------------------------
      1  C 
      2  O        1  -0.000011(     1)
      3  H        1   0.000003(     2)      2  -0.000015(    12)
      4  H        1   0.000020(     3)      2   0.000007(    13)      3  -0.000012(    22)     0
      5  H        2  -0.000042(     4)      1  -0.000002(    14)      3   0.000018(    23)     0
      6  C        1  -0.001802(     5)      2   0.000016(    15)      3  -0.000094(    24)     0
      7  C        6   0.000016(     6)      1  -0.000055(    16)      2   0.000024(    25)     0
      8  H        6  -0.000007(     7)      7  -0.000006(    17)      1  -0.000028(    26)     0
      9  H        6  -0.000011(     8)      7  -0.000011(    18)      8   0.000031(    27)     0
     10  H        7  -0.000007(     9)      6   0.000000(    19)      8  -0.000006(    28)     0
     11  H        7  -0.000017(    10)      6   0.000003(    20)     10   0.000015(    29)     0
     12  H        7   0.000029(    11)      6  -0.000003(    21)     10   0.000018(    30)     0
 -----------------------------------------------------------------------------------------------
 Internal  Forces:  Max     0.001801902 RMS     0.000329983
 Force constants in Cartesian coordinates: 
                1             2             3             4             5 
      1  0.686369D+00
      2 -0.882495D-01  0.259595D+00
      3 -0.317252D-02 -0.606009D-01  0.875283D+00
      4 -0.111747D+00  0.294829D-02 -0.104989D-02  0.596028D+00
      5  0.255025D-02 -0.763881D-01 -0.101260D-02 -0.353465D-01  0.861392D-01
      6 -0.323691D-01  0.220449D-02 -0.534970D+00 -0.130330D+00  0.887610D-02
      7 -0.318326D+00  0.182090D-02  0.933741D-01  0.126079D-01  0.377414D-03
      8 -0.443283D-02 -0.668988D-01  0.662708D-02  0.419146D-03 -0.155301D-02
      9  0.994247D-01  0.407660D-02 -0.153692D+00  0.282264D-01  0.844951D-03
     10 -0.255844D+00  0.829212D-01 -0.910301D-01  0.134323D-01  0.912558D-03
     11  0.901781D-01 -0.112862D+00  0.520232D-01 -0.300536D-02  0.180654D-01
     12 -0.984545D-01  0.517964D-01 -0.171358D+00 -0.240883D-01  0.122225D-01
     13  0.116667D-01 -0.347194D-03  0.000000D+00 -0.511251D+00  0.327924D-01
     14 -0.195886D-03  0.658208D-02  0.000000D+00  0.338244D-01 -0.320541D-01
     15  0.323691D-01 -0.220449D-02  0.000000D+00  0.130330D+00 -0.887610D-02
     16 -0.145234D-01  0.147159D-02  0.199509D-02  0.101533D-02 -0.130841D-02
     17 -0.223210D-03 -0.100302D-01  0.317752D-02  0.109087D-02  0.580841D-02
     18  0.177245D-02  0.451465D-02 -0.145481D-01 -0.298462D-02 -0.120815D-01
     19  0.291358D-02  0.170010D-03 -0.202872D-02  0.185263D-03 -0.476175D-04
     20  0.887639D-02  0.690156D-03 -0.656082D-02 -0.155502D-03  0.399681D-04
     21  0.363104D-02  0.210127D-03 -0.252443D-02  0.238191D-03 -0.612213D-04
     22 -0.629920D-03  0.266368D-03 -0.230634D-03  0.183767D-03 -0.472329D-04
     23 -0.911120D-02  0.364111D-02 -0.286861D-02  0.139296D-03 -0.358027D-04
     24 -0.339196D-02  0.131656D-02 -0.981913D-03 -0.411823D-03  0.105849D-03
     25  0.117947D-03 -0.998954D-03  0.213859D-02 -0.455388D-03  0.117047D-03
     26  0.610510D-03 -0.433231D-02  0.921854D-02  0.853368D-04 -0.219338D-04
     27  0.186727D-03 -0.130998D-02  0.278625D-02  0.700099D-04 -0.179944D-04
     28  0.229621D-03 -0.192734D-03  0.295221D-03  0.000000D+00  0.000000D+00
     29 -0.127127D-03  0.106705D-03 -0.163446D-03  0.000000D+00  0.000000D+00
     30  0.294555D-03 -0.247237D-03  0.378706D-03  0.000000D+00  0.000000D+00
     31 -0.183255D-03  0.153817D-03 -0.235609D-03  0.000000D+00  0.000000D+00
     32 -0.266034D-03  0.223298D-03 -0.342037D-03  0.000000D+00  0.000000D+00
     33 -0.231348D-03  0.194184D-03 -0.297441D-03  0.000000D+00  0.000000D+00
     34 -0.432125D-04  0.362708D-04 -0.555578D-04  0.000000D+00  0.000000D+00
     35  0.390558D-03 -0.327818D-03  0.502136D-03  0.000000D+00  0.000000D+00
     36 -0.591537D-04  0.496512D-04 -0.760533D-04  0.000000D+00  0.000000D+00
                6             7             8             9            10 
      6  0.642569D+00
      7  0.000000D+00  0.315670D+00
      8  0.000000D+00  0.468487D-03  0.510627D-01
      9  0.000000D+00 -0.105372D+00  0.104884D-02  0.126831D+00
     10  0.000000D+00 -0.812157D-02  0.118809D-01 -0.181825D-01  0.249078D+00
     11  0.000000D+00 -0.273551D-02  0.987578D-02 -0.612423D-02 -0.917201D-01
     12  0.000000D+00  0.111110D-01 -0.117981D-01  0.248751D-01  0.108270D+00
     13  0.162699D+00  0.000000D+00  0.484455D-03  0.000000D+00 -0.213745D-03
     14 -0.110806D-01  0.000000D+00  0.711337D-02  0.000000D+00 -0.313848D-02
     15 -0.107599D+00  0.000000D+00  0.000000D+00  0.000000D+00  0.000000D+00
     16  0.000000D+00 -0.186724D-02 -0.877276D-02 -0.418035D-02  0.160921D-02
     17  0.000000D+00  0.985486D-04  0.362017D-03  0.220629D-03 -0.808214D-03
     18  0.000000D+00  0.842022D-03  0.417900D-02  0.188511D-02  0.871218D-03
     19  0.000000D+00 -0.799594D-04  0.101632D-03 -0.179012D-03 -0.128004D-03
     20  0.000000D+00  0.671146D-04 -0.853060D-04  0.150255D-03  0.107441D-03
     21  0.000000D+00 -0.102803D-03  0.130668D-03 -0.230154D-03 -0.164574D-03
     22  0.000000D+00 -0.793136D-04  0.100811D-03 -0.177566D-03 -0.126970D-03
     23  0.000000D+00 -0.601200D-04  0.764155D-04 -0.134596D-03 -0.962440D-04
     24  0.000000D+00  0.177742D-03 -0.225919D-03  0.397928D-03  0.284542D-03
     25  0.000000D+00  0.196545D-03 -0.249819D-03  0.440023D-03  0.314642D-03
     26  0.000000D+00 -0.368313D-04  0.468144D-04 -0.824574D-04 -0.589619D-04
     27  0.000000D+00 -0.302162D-04  0.384063D-04 -0.676477D-04 -0.483721D-04
     28  0.000000D+00  0.000000D+00  0.000000D+00  0.000000D+00  0.000000D+00
     29  0.000000D+00  0.000000D+00  0.000000D+00  0.000000D+00  0.000000D+00
     30  0.000000D+00  0.000000D+00  0.000000D+00  0.000000D+00  0.000000D+00
     31  0.000000D+00  0.000000D+00  0.000000D+00  0.000000D+00  0.000000D+00
     32  0.000000D+00  0.000000D+00  0.000000D+00  0.000000D+00  0.000000D+00
     33  0.000000D+00  0.000000D+00  0.000000D+00  0.000000D+00  0.000000D+00
     34  0.000000D+00  0.000000D+00  0.000000D+00  0.000000D+00  0.000000D+00
     35  0.000000D+00  0.000000D+00  0.000000D+00  0.000000D+00  0.000000D+00
     36  0.000000D+00  0.000000D+00  0.000000D+00  0.000000D+00  0.000000D+00
               11            12            13            14            15 
     11  0.957180D-01
     12 -0.505152D-01  0.144512D+00
     13 -0.457477D-03  0.000000D+00  0.499665D+00
     14 -0.671726D-02  0.000000D+00 -0.324381D-01  0.255767D-01
     15  0.000000D+00  0.000000D+00 -0.162699D+00  0.110806D-01  0.107599D+00
     16  0.771914D-02  0.324291D-02  0.132676D-03  0.194811D-02  0.000000D+00
     17 -0.406336D-02 -0.177019D-02 -0.341011D-04 -0.500715D-03  0.000000D+00
     18  0.459081D-02  0.206801D-02  0.000000D+00  0.000000D+00  0.000000D+00
     19 -0.455729D-04  0.173256D-03  0.000000D+00  0.000000D+00  0.000000D+00
     20  0.382520D-04 -0.145424D-03  0.000000D+00  0.000000D+00  0.000000D+00
     21 -0.585926D-04  0.222753D-03  0.000000D+00  0.000000D+00  0.000000D+00
     22 -0.452048D-04  0.171856D-03  0.000000D+00  0.000000D+00  0.000000D+00
     23 -0.342654D-04  0.130268D-03  0.000000D+00  0.000000D+00  0.000000D+00
     24  0.101304D-03 -0.385131D-03  0.000000D+00  0.000000D+00  0.000000D+00
     25  0.112021D-03 -0.425873D-03  0.000000D+00  0.000000D+00  0.000000D+00
     26 -0.209920D-04  0.798058D-04  0.000000D+00  0.000000D+00  0.000000D+00
     27 -0.172218D-04  0.654724D-04  0.000000D+00  0.000000D+00  0.000000D+00
     28  0.000000D+00  0.000000D+00  0.000000D+00  0.000000D+00  0.000000D+00
     29  0.000000D+00  0.000000D+00  0.000000D+00  0.000000D+00  0.000000D+00
     30  0.000000D+00  0.000000D+00  0.000000D+00  0.000000D+00  0.000000D+00
     31  0.000000D+00  0.000000D+00  0.000000D+00  0.000000D+00  0.000000D+00
     32  0.000000D+00  0.000000D+00  0.000000D+00  0.000000D+00  0.000000D+00
     33  0.000000D+00  0.000000D+00  0.000000D+00  0.000000D+00  0.000000D+00
     34  0.000000D+00  0.000000D+00  0.000000D+00  0.000000D+00  0.000000D+00
     35  0.000000D+00  0.000000D+00  0.000000D+00  0.000000D+00  0.000000D+00
     36  0.000000D+00  0.000000D+00  0.000000D+00  0.000000D+00  0.000000D+00
               16            17            18            19            20 
     16  0.703992D+00
     17 -0.548617D-01  0.295357D+00
     18 -0.254806D-01 -0.999743D-01  0.675205D+00
     19 -0.262450D+00 -0.229918D-03  0.107223D+00  0.690347D+00
     20 -0.541022D-02 -0.110919D+00  0.183765D-02  0.250599D-03  0.655515D+00
     21  0.103008D+00 -0.216644D-02 -0.205885D+00 -0.707464D-02 -0.195466D-02
     22 -0.323272D+00  0.489813D-01 -0.792317D-01 -0.598601D-02  0.361573D-02
     23  0.513215D-01 -0.922716D-01  0.212699D-01 -0.178986D-04  0.111047D-01
     24 -0.674845D-01  0.181663D-01 -0.136532D+00  0.159293D-01 -0.344936D-02
     25 -0.112110D+00  0.570409D-02 -0.125547D-01  0.160005D-01 -0.788700D-02
     26  0.784603D-02 -0.103035D+00  0.758000D-01 -0.951580D-03  0.118422D-01
     27 -0.205208D-01  0.826641D-01 -0.334229D+00 -0.179705D-02  0.456877D-02
     28  0.535345D-02  0.207417D-01  0.662674D-02 -0.806841D-01  0.334685D-01
     29  0.147795D-02  0.920163D-02  0.179420D-02  0.241686D-01 -0.276479D+00
     30 -0.164451D-02 -0.130314D-01 -0.196806D-02  0.108302D-01 -0.110970D+00
     31  0.106665D-01 -0.175276D-01  0.138008D-01 -0.798514D-01  0.718996D-02
     32 -0.229069D-02  0.688123D-02 -0.299544D-02  0.145236D-01 -0.203383D+00
     33 -0.349657D-02  0.872020D-02 -0.455422D-02 -0.189355D-01  0.135920D+00
     34 -0.854544D-02 -0.293175D-02 -0.108842D-01 -0.280266D+00 -0.401231D-01
     35  0.859402D-03  0.320963D-02  0.106502D-02 -0.379219D-01 -0.883635D-01
     36  0.145616D-01  0.399360D-02  0.185571D-01 -0.104140D+00 -0.193958D-01
               21            22            23            24            25 
     21  0.686014D+00
     22 -0.768184D-02  0.315019D+00
     23 -0.135569D-03 -0.531704D-01  0.686752D-01
     24  0.203794D-01  0.884335D-01 -0.201402D-01  0.112658D+00
     25  0.205154D-01  0.148889D-01  0.109721D-01 -0.335407D-01  0.810522D-01
     26 -0.133552D-02  0.301407D-03  0.886322D-02  0.412874D-02 -0.777388D-02
     27 -0.234150D-02 -0.128785D-02  0.184921D-02  0.445808D-02  0.234342D-01
     28  0.148474D-01  0.240963D-03  0.167577D-02  0.290741D-03 -0.390871D-03
     29 -0.103654D+00 -0.133406D-03 -0.927774D-03 -0.160966D-03  0.216402D-03
     30 -0.136337D+00  0.309104D-03  0.214966D-02  0.372960D-03 -0.501405D-03
     31 -0.104686D-01 -0.192307D-03 -0.133739D-02 -0.232034D-03  0.311945D-03
     32  0.129677D+00 -0.279175D-03 -0.194152D-02 -0.336847D-03  0.452855D-03
     33 -0.221711D+00 -0.242775D-03 -0.168837D-02 -0.292928D-03  0.393810D-03
     34 -0.116747D+00 -0.453469D-04 -0.315364D-03 -0.547148D-04  0.735582D-04
     35 -0.206517D-01  0.409849D-03  0.285029D-02  0.494517D-03 -0.664825D-03
     36 -0.137588D+00 -0.620755D-04 -0.431703D-03 -0.748992D-04  0.100694D-03
               26            27            28            29            30 
     26  0.866400D-01
     27 -0.877808D-01  0.329336D+00
     28 -0.160362D-02 -0.482932D-03  0.625224D-01
     29  0.887830D-03  0.267370D-03 -0.257958D-01  0.276426D+00
     30 -0.205711D-02 -0.619499D-03 -0.117413D-01  0.112775D+00  0.119548D+00
     31  0.127982D-02  0.385417D-03  0.149001D-03  0.135989D-02 -0.257289D-02
     32  0.185793D-02  0.559515D-03  0.179135D-02 -0.122389D-01  0.238508D-01
     33  0.161568D-02  0.486563D-03  0.169110D-02 -0.118462D-01  0.230759D-01
     34  0.301787D-03  0.908832D-04  0.125796D-01 -0.116654D-02  0.502625D-02
     35 -0.272757D-02 -0.821410D-03 -0.300852D-01  0.302415D-02 -0.124696D-01
     36  0.413117D-03  0.124410D-03 -0.115269D-01  0.988379D-03 -0.445129D-02
               31            32            33            34            35 
     31  0.628655D-01
     32 -0.166915D-01  0.196396D+00
     33  0.189540D-01 -0.141419D+00  0.209464D+00
     34  0.623403D-02  0.275956D-02  0.186731D-02  0.270013D+00
     35  0.255730D-01  0.122048D-01  0.850420D-02  0.414391D-01  0.701300D-01
     36 -0.196310D-01 -0.899404D-02 -0.617044D-02  0.120757D+00  0.233768D-01
               36 
     36  0.129679D+00
 FCInt: Cartesian first derivatives: 
                 1             2             3             4             5 
      1   0.000000D+00  0.000000D+00  0.000000D+00  0.000000D+00  0.000000D+00
      2   0.000000D+00  0.000000D+00  0.000000D+00  0.000000D+00  0.000000D+00
      3   0.000000D+00  0.000000D+00  0.000000D+00  0.000000D+00  0.000000D+00
                 6             7             8             9            10 
      1   0.000000D+00  0.000000D+00  0.000000D+00  0.000000D+00  0.000000D+00
      2   0.000000D+00  0.000000D+00  0.000000D+00  0.000000D+00  0.000000D+00
      3   0.000000D+00  0.000000D+00  0.000000D+00  0.000000D+00  0.000000D+00
                11            12 
      1   0.000000D+00  0.000000D+00
      2   0.000000D+00  0.000000D+00
      3   0.000000D+00  0.000000D+00
 FCInt: Cartesian force constants: 
                1             2             3             4             5 
      1  0.686369D+00
      2 -0.882495D-01  0.259595D+00
      3 -0.317252D-02 -0.606009D-01  0.875283D+00
      4 -0.111747D+00  0.294829D-02 -0.104989D-02  0.596028D+00
      5  0.255025D-02 -0.763881D-01 -0.101260D-02 -0.353465D-01  0.861392D-01
      6 -0.323691D-01  0.220449D-02 -0.534970D+00 -0.130330D+00  0.887610D-02
      7 -0.318326D+00  0.182090D-02  0.933741D-01  0.126079D-01  0.377414D-03
      8 -0.443283D-02 -0.668988D-01  0.662708D-02  0.419146D-03 -0.155301D-02
      9  0.994247D-01  0.407660D-02 -0.153692D+00  0.282264D-01  0.844951D-03
     10 -0.255844D+00  0.829212D-01 -0.910301D-01  0.134323D-01  0.912558D-03
     11  0.901781D-01 -0.112862D+00  0.520232D-01 -0.300536D-02  0.180654D-01
     12 -0.984545D-01  0.517964D-01 -0.171358D+00 -0.240883D-01  0.122225D-01
     13  0.116667D-01 -0.347194D-03  0.000000D+00 -0.511251D+00  0.327924D-01
     14 -0.195886D-03  0.658208D-02  0.000000D+00  0.338244D-01 -0.320541D-01
     15  0.323691D-01 -0.220449D-02  0.000000D+00  0.130330D+00 -0.887610D-02
     16 -0.145234D-01  0.147159D-02  0.199509D-02  0.101533D-02 -0.130841D-02
     17 -0.223210D-03 -0.100302D-01  0.317752D-02  0.109087D-02  0.580841D-02
     18  0.177245D-02  0.451465D-02 -0.145481D-01 -0.298462D-02 -0.120815D-01
     19  0.291358D-02  0.170010D-03 -0.202872D-02  0.185263D-03 -0.476175D-04
     20  0.887639D-02  0.690156D-03 -0.656082D-02 -0.155502D-03  0.399681D-04
     21  0.363104D-02  0.210127D-03 -0.252443D-02  0.238191D-03 -0.612213D-04
     22 -0.629920D-03  0.266368D-03 -0.230634D-03  0.183767D-03 -0.472329D-04
     23 -0.911120D-02  0.364111D-02 -0.286861D-02  0.139296D-03 -0.358027D-04
     24 -0.339196D-02  0.131656D-02 -0.981913D-03 -0.411823D-03  0.105849D-03
     25  0.117947D-03 -0.998954D-03  0.213859D-02 -0.455388D-03  0.117047D-03
     26  0.610510D-03 -0.433231D-02  0.921854D-02  0.853368D-04 -0.219338D-04
     27  0.186727D-03 -0.130998D-02  0.278625D-02  0.700099D-04 -0.179944D-04
     28  0.229621D-03 -0.192734D-03  0.295221D-03  0.000000D+00  0.000000D+00
     29 -0.127127D-03  0.106705D-03 -0.163446D-03  0.000000D+00  0.000000D+00
     30  0.294555D-03 -0.247237D-03  0.378706D-03  0.000000D+00  0.000000D+00
     31 -0.183255D-03  0.153817D-03 -0.235609D-03  0.000000D+00  0.000000D+00
     32 -0.266034D-03  0.223298D-03 -0.342037D-03  0.000000D+00  0.000000D+00
     33 -0.231348D-03  0.194184D-03 -0.297441D-03  0.000000D+00  0.000000D+00
     34 -0.432125D-04  0.362708D-04 -0.555578D-04  0.000000D+00  0.000000D+00
     35  0.390558D-03 -0.327818D-03  0.502136D-03  0.000000D+00  0.000000D+00
     36 -0.591537D-04  0.496512D-04 -0.760533D-04  0.000000D+00  0.000000D+00
                6             7             8             9            10 
      6  0.642569D+00
      7  0.000000D+00  0.315670D+00
      8  0.000000D+00  0.468487D-03  0.510627D-01
      9  0.000000D+00 -0.105372D+00  0.104884D-02  0.126831D+00
     10  0.000000D+00 -0.812157D-02  0.118809D-01 -0.181825D-01  0.249078D+00
     11  0.000000D+00 -0.273551D-02  0.987578D-02 -0.612423D-02 -0.917201D-01
     12  0.000000D+00  0.111110D-01 -0.117981D-01  0.248751D-01  0.108270D+00
     13  0.162699D+00  0.000000D+00  0.484455D-03  0.000000D+00 -0.213745D-03
     14 -0.110806D-01  0.000000D+00  0.711337D-02  0.000000D+00 -0.313848D-02
     15 -0.107599D+00  0.000000D+00  0.000000D+00  0.000000D+00  0.000000D+00
     16  0.000000D+00 -0.186724D-02 -0.877276D-02 -0.418035D-02  0.160921D-02
     17  0.000000D+00  0.985486D-04  0.362017D-03  0.220629D-03 -0.808214D-03
     18  0.000000D+00  0.842022D-03  0.417900D-02  0.188511D-02  0.871218D-03
     19  0.000000D+00 -0.799594D-04  0.101632D-03 -0.179012D-03 -0.128004D-03
     20  0.000000D+00  0.671146D-04 -0.853060D-04  0.150255D-03  0.107441D-03
     21  0.000000D+00 -0.102803D-03  0.130668D-03 -0.230154D-03 -0.164574D-03
     22  0.000000D+00 -0.793136D-04  0.100811D-03 -0.177566D-03 -0.126970D-03
     23  0.000000D+00 -0.601200D-04  0.764155D-04 -0.134596D-03 -0.962440D-04
     24  0.000000D+00  0.177742D-03 -0.225919D-03  0.397928D-03  0.284542D-03
     25  0.000000D+00  0.196545D-03 -0.249819D-03  0.440023D-03  0.314642D-03
     26  0.000000D+00 -0.368313D-04  0.468144D-04 -0.824574D-04 -0.589619D-04
     27  0.000000D+00 -0.302162D-04  0.384063D-04 -0.676477D-04 -0.483721D-04
     28  0.000000D+00  0.000000D+00  0.000000D+00  0.000000D+00  0.000000D+00
     29  0.000000D+00  0.000000D+00  0.000000D+00  0.000000D+00  0.000000D+00
     30  0.000000D+00  0.000000D+00  0.000000D+00  0.000000D+00  0.000000D+00
     31  0.000000D+00  0.000000D+00  0.000000D+00  0.000000D+00  0.000000D+00
     32  0.000000D+00  0.000000D+00  0.000000D+00  0.000000D+00  0.000000D+00
     33  0.000000D+00  0.000000D+00  0.000000D+00  0.000000D+00  0.000000D+00
     34  0.000000D+00  0.000000D+00  0.000000D+00  0.000000D+00  0.000000D+00
     35  0.000000D+00  0.000000D+00  0.000000D+00  0.000000D+00  0.000000D+00
     36  0.000000D+00  0.000000D+00  0.000000D+00  0.000000D+00  0.000000D+00
               11            12            13            14            15 
     11  0.957180D-01
     12 -0.505152D-01  0.144512D+00
     13 -0.457477D-03  0.000000D+00  0.499665D+00
     14 -0.671726D-02  0.000000D+00 -0.324381D-01  0.255767D-01
     15  0.000000D+00  0.000000D+00 -0.162699D+00  0.110806D-01  0.107599D+00
     16  0.771914D-02  0.324291D-02  0.132676D-03  0.194811D-02  0.000000D+00
     17 -0.406336D-02 -0.177019D-02 -0.341011D-04 -0.500715D-03  0.000000D+00
     18  0.459081D-02  0.206801D-02  0.000000D+00  0.000000D+00  0.000000D+00
     19 -0.455729D-04  0.173256D-03  0.000000D+00  0.000000D+00  0.000000D+00
     20  0.382520D-04 -0.145424D-03  0.000000D+00  0.000000D+00  0.000000D+00
     21 -0.585926D-04  0.222753D-03  0.000000D+00  0.000000D+00  0.000000D+00
     22 -0.452048D-04  0.171856D-03  0.000000D+00  0.000000D+00  0.000000D+00
     23 -0.342654D-04  0.130268D-03  0.000000D+00  0.000000D+00  0.000000D+00
     24  0.101304D-03 -0.385131D-03  0.000000D+00  0.000000D+00  0.000000D+00
     25  0.112021D-03 -0.425873D-03  0.000000D+00  0.000000D+00  0.000000D+00
     26 -0.209920D-04  0.798058D-04  0.000000D+00  0.000000D+00  0.000000D+00
     27 -0.172218D-04  0.654724D-04  0.000000D+00  0.000000D+00  0.000000D+00
     28  0.000000D+00  0.000000D+00  0.000000D+00  0.000000D+00  0.000000D+00
     29  0.000000D+00  0.000000D+00  0.000000D+00  0.000000D+00  0.000000D+00
     30  0.000000D+00  0.000000D+00  0.000000D+00  0.000000D+00  0.000000D+00
     31  0.000000D+00  0.000000D+00  0.000000D+00  0.000000D+00  0.000000D+00
     32  0.000000D+00  0.000000D+00  0.000000D+00  0.000000D+00  0.000000D+00
     33  0.000000D+00  0.000000D+00  0.000000D+00  0.000000D+00  0.000000D+00
     34  0.000000D+00  0.000000D+00  0.000000D+00  0.000000D+00  0.000000D+00
     35  0.000000D+00  0.000000D+00  0.000000D+00  0.000000D+00  0.000000D+00
     36  0.000000D+00  0.000000D+00  0.000000D+00  0.000000D+00  0.000000D+00
               16            17            18            19            20 
     16  0.703992D+00
     17 -0.548617D-01  0.295357D+00
     18 -0.254806D-01 -0.999743D-01  0.675205D+00
     19 -0.262450D+00 -0.229918D-03  0.107223D+00  0.690347D+00
     20 -0.541022D-02 -0.110919D+00  0.183765D-02  0.250599D-03  0.655515D+00
     21  0.103008D+00 -0.216644D-02 -0.205885D+00 -0.707464D-02 -0.195466D-02
     22 -0.323272D+00  0.489813D-01 -0.792317D-01 -0.598601D-02  0.361573D-02
     23  0.513215D-01 -0.922716D-01  0.212699D-01 -0.178986D-04  0.111047D-01
     24 -0.674845D-01  0.181663D-01 -0.136532D+00  0.159293D-01 -0.344936D-02
     25 -0.112110D+00  0.570409D-02 -0.125547D-01  0.160005D-01 -0.788700D-02
     26  0.784603D-02 -0.103035D+00  0.758000D-01 -0.951580D-03  0.118422D-01
     27 -0.205208D-01  0.826641D-01 -0.334229D+00 -0.179705D-02  0.456877D-02
     28  0.535345D-02  0.207417D-01  0.662674D-02 -0.806841D-01  0.334685D-01
     29  0.147795D-02  0.920163D-02  0.179420D-02  0.241686D-01 -0.276479D+00
     30 -0.164451D-02 -0.130314D-01 -0.196806D-02  0.108302D-01 -0.110970D+00
     31  0.106665D-01 -0.175276D-01  0.138008D-01 -0.798514D-01  0.718996D-02
     32 -0.229069D-02  0.688123D-02 -0.299544D-02  0.145236D-01 -0.203383D+00
     33 -0.349657D-02  0.872020D-02 -0.455422D-02 -0.189355D-01  0.135920D+00
     34 -0.854544D-02 -0.293175D-02 -0.108842D-01 -0.280266D+00 -0.401231D-01
     35  0.859402D-03  0.320963D-02  0.106502D-02 -0.379219D-01 -0.883635D-01
     36  0.145616D-01  0.399360D-02  0.185571D-01 -0.104140D+00 -0.193958D-01
               21            22            23            24            25 
     21  0.686014D+00
     22 -0.768184D-02  0.315019D+00
     23 -0.135569D-03 -0.531704D-01  0.686752D-01
     24  0.203794D-01  0.884335D-01 -0.201402D-01  0.112658D+00
     25  0.205154D-01  0.148889D-01  0.109721D-01 -0.335407D-01  0.810522D-01
     26 -0.133552D-02  0.301407D-03  0.886322D-02  0.412874D-02 -0.777388D-02
     27 -0.234150D-02 -0.128785D-02  0.184921D-02  0.445808D-02  0.234342D-01
     28  0.148474D-01  0.240963D-03  0.167577D-02  0.290741D-03 -0.390871D-03
     29 -0.103654D+00 -0.133406D-03 -0.927774D-03 -0.160966D-03  0.216402D-03
     30 -0.136337D+00  0.309104D-03  0.214966D-02  0.372960D-03 -0.501405D-03
     31 -0.104686D-01 -0.192307D-03 -0.133739D-02 -0.232034D-03  0.311945D-03
     32  0.129677D+00 -0.279175D-03 -0.194152D-02 -0.336847D-03  0.452855D-03
     33 -0.221711D+00 -0.242775D-03 -0.168837D-02 -0.292928D-03  0.393810D-03
     34 -0.116747D+00 -0.453469D-04 -0.315364D-03 -0.547148D-04  0.735582D-04
     35 -0.206517D-01  0.409849D-03  0.285029D-02  0.494517D-03 -0.664825D-03
     36 -0.137588D+00 -0.620755D-04 -0.431703D-03 -0.748992D-04  0.100694D-03
               26            27            28            29            30 
     26  0.866400D-01
     27 -0.877808D-01  0.329336D+00
     28 -0.160362D-02 -0.482932D-03  0.625224D-01
     29  0.887830D-03  0.267370D-03 -0.257958D-01  0.276426D+00
     30 -0.205711D-02 -0.619499D-03 -0.117413D-01  0.112775D+00  0.119548D+00
     31  0.127982D-02  0.385417D-03  0.149001D-03  0.135989D-02 -0.257289D-02
     32  0.185793D-02  0.559515D-03  0.179135D-02 -0.122389D-01  0.238508D-01
     33  0.161568D-02  0.486563D-03  0.169110D-02 -0.118462D-01  0.230759D-01
     34  0.301787D-03  0.908832D-04  0.125796D-01 -0.116654D-02  0.502625D-02
     35 -0.272757D-02 -0.821410D-03 -0.300852D-01  0.302415D-02 -0.124696D-01
     36  0.413117D-03  0.124410D-03 -0.115269D-01  0.988379D-03 -0.445129D-02
               31            32            33            34            35 
     31  0.628655D-01
     32 -0.166915D-01  0.196396D+00
     33  0.189540D-01 -0.141419D+00  0.209464D+00
     34  0.623403D-02  0.275956D-02  0.186731D-02  0.270013D+00
     35  0.255730D-01  0.122048D-01  0.850420D-02  0.414391D-01  0.701300D-01
     36 -0.196310D-01 -0.899404D-02 -0.617044D-02  0.120757D+00  0.233768D-01
               36 
     36  0.129679D+00
 Internal force constants: 
                1             2             3             4             5 
      1  0.534970D+00
      2  0.000000D+00  0.362737D+00
      3  0.000000D+00  0.000000D+00  0.358617D+00
      4  0.000000D+00  0.000000D+00  0.000000D+00  0.560582D+00
      5  0.000000D+00  0.000000D+00  0.000000D+00  0.000000D+00  0.765461D-02
      6  0.000000D+00  0.000000D+00  0.000000D+00  0.000000D+00  0.000000D+00
      7  0.000000D+00  0.000000D+00  0.000000D+00  0.000000D+00  0.000000D+00
      8  0.000000D+00  0.000000D+00  0.000000D+00  0.000000D+00  0.000000D+00
      9  0.000000D+00  0.000000D+00  0.000000D+00  0.000000D+00  0.000000D+00
     10  0.000000D+00  0.000000D+00  0.000000D+00  0.000000D+00  0.000000D+00
     11  0.000000D+00  0.000000D+00  0.000000D+00  0.000000D+00  0.000000D+00
     12  0.000000D+00  0.000000D+00  0.000000D+00  0.000000D+00  0.000000D+00
     13  0.000000D+00  0.000000D+00  0.000000D+00  0.000000D+00  0.000000D+00
     14  0.000000D+00  0.000000D+00  0.000000D+00  0.000000D+00  0.000000D+00
     15  0.000000D+00  0.000000D+00  0.000000D+00  0.000000D+00  0.000000D+00
     16  0.000000D+00  0.000000D+00  0.000000D+00  0.000000D+00  0.000000D+00
     17  0.000000D+00  0.000000D+00  0.000000D+00  0.000000D+00  0.000000D+00
     18  0.000000D+00  0.000000D+00  0.000000D+00  0.000000D+00  0.000000D+00
     19  0.000000D+00  0.000000D+00  0.000000D+00  0.000000D+00  0.000000D+00
     20  0.000000D+00  0.000000D+00  0.000000D+00  0.000000D+00  0.000000D+00
     21  0.000000D+00  0.000000D+00  0.000000D+00  0.000000D+00  0.000000D+00
     22  0.000000D+00  0.000000D+00  0.000000D+00  0.000000D+00  0.000000D+00
     23  0.000000D+00  0.000000D+00  0.000000D+00  0.000000D+00  0.000000D+00
     24  0.000000D+00  0.000000D+00  0.000000D+00  0.000000D+00  0.000000D+00
     25  0.000000D+00  0.000000D+00  0.000000D+00  0.000000D+00  0.000000D+00
     26  0.000000D+00  0.000000D+00  0.000000D+00  0.000000D+00  0.000000D+00
     27  0.000000D+00  0.000000D+00  0.000000D+00  0.000000D+00  0.000000D+00
     28  0.000000D+00  0.000000D+00  0.000000D+00  0.000000D+00  0.000000D+00
     29  0.000000D+00  0.000000D+00  0.000000D+00  0.000000D+00  0.000000D+00
     30  0.000000D+00  0.000000D+00  0.000000D+00  0.000000D+00  0.000000D+00
                6             7             8             9            10 
      6  0.342963D+00
      7  0.000000D+00  0.359340D+00
      8  0.000000D+00  0.000000D+00  0.359943D+00
      9  0.000000D+00  0.000000D+00  0.000000D+00  0.338263D+00
     10  0.000000D+00  0.000000D+00  0.000000D+00  0.000000D+00  0.346743D+00
     11  0.000000D+00  0.000000D+00  0.000000D+00  0.000000D+00  0.000000D+00
     12  0.000000D+00  0.000000D+00  0.000000D+00  0.000000D+00  0.000000D+00
     13  0.000000D+00  0.000000D+00  0.000000D+00  0.000000D+00  0.000000D+00
     14  0.000000D+00  0.000000D+00  0.000000D+00  0.000000D+00  0.000000D+00
     15  0.000000D+00  0.000000D+00  0.000000D+00  0.000000D+00  0.000000D+00
     16  0.000000D+00  0.000000D+00  0.000000D+00  0.000000D+00  0.000000D+00
     17  0.000000D+00  0.000000D+00  0.000000D+00  0.000000D+00  0.000000D+00
     18  0.000000D+00  0.000000D+00  0.000000D+00  0.000000D+00  0.000000D+00
     19  0.000000D+00  0.000000D+00  0.000000D+00  0.000000D+00  0.000000D+00
     20  0.000000D+00  0.000000D+00  0.000000D+00  0.000000D+00  0.000000D+00
     21  0.000000D+00  0.000000D+00  0.000000D+00  0.000000D+00  0.000000D+00
     22  0.000000D+00  0.000000D+00  0.000000D+00  0.000000D+00  0.000000D+00
     23  0.000000D+00  0.000000D+00  0.000000D+00  0.000000D+00  0.000000D+00
     24  0.000000D+00  0.000000D+00  0.000000D+00  0.000000D+00  0.000000D+00
     25  0.000000D+00  0.000000D+00  0.000000D+00  0.000000D+00  0.000000D+00
     26  0.000000D+00  0.000000D+00  0.000000D+00  0.000000D+00  0.000000D+00
     27  0.000000D+00  0.000000D+00  0.000000D+00  0.000000D+00  0.000000D+00
     28  0.000000D+00  0.000000D+00  0.000000D+00  0.000000D+00  0.000000D+00
     29  0.000000D+00  0.000000D+00  0.000000D+00  0.000000D+00  0.000000D+00
     30  0.000000D+00  0.000000D+00  0.000000D+00  0.000000D+00  0.000000D+00
               11            12            13            14            15 
     11  0.347665D+00
     12  0.000000D+00  0.330831D+00
     13  0.000000D+00  0.129806D+00  0.324900D+00
     14  0.000000D+00  0.000000D+00  0.000000D+00  0.160000D+00
     15  0.000000D+00  0.350019D-01  0.358774D-01  0.000000D+00  0.327393D+00
     16  0.000000D+00 -0.540174D-03  0.548363D-03  0.000000D+00 -0.179640D-04
     17  0.000000D+00 -0.203724D-02  0.206813D-02  0.000000D+00  0.406209D-04
     18  0.000000D+00  0.206099D-02 -0.209224D-02  0.000000D+00  0.117743D-03
     19  0.000000D+00  0.000000D+00  0.000000D+00  0.000000D+00  0.187221D-04
     20  0.000000D+00  0.000000D+00  0.000000D+00  0.000000D+00  0.939262D-05
     21  0.000000D+00  0.000000D+00  0.000000D+00  0.000000D+00  0.794698D-05
     22  0.000000D+00  0.527056D-01 -0.269106D-03  0.000000D+00 -0.642106D-01
     23  0.000000D+00  0.000000D+00  0.000000D+00  0.000000D+00  0.000000D+00
     24  0.000000D+00 -0.567303D-01  0.515866D-01  0.000000D+00  0.419791D-02
     25  0.000000D+00  0.613188D-02 -0.622484D-02  0.000000D+00  0.563614D-03
     26  0.000000D+00 -0.363781D-03  0.369296D-03  0.000000D+00  0.684986D-04
     27  0.000000D+00 -0.161160D-04  0.163604D-04  0.000000D+00 -0.666511D-03
     28  0.000000D+00  0.000000D+00  0.000000D+00  0.000000D+00  0.000000D+00
     29  0.000000D+00  0.000000D+00  0.000000D+00  0.000000D+00  0.199875D-04
     30  0.000000D+00  0.000000D+00  0.000000D+00  0.000000D+00 -0.174263D-04
               16            17            18            19            20 
     16  0.337540D+00
     17  0.179150D-01  0.330336D+00
     18  0.969585D-04  0.157070D+00  0.324352D+00
     19 -0.297951D-04  0.000000D+00  0.000000D+00  0.252201D+00
     20 -0.161043D-04  0.000000D+00  0.000000D+00  0.462312D-01  0.254908D+00
     21 -0.986196D-05  0.000000D+00  0.000000D+00  0.464199D-01  0.492104D-01
     22  0.230427D-03  0.869042D-03 -0.879174D-03  0.000000D+00  0.000000D+00
     23  0.000000D+00  0.000000D+00  0.000000D+00  0.000000D+00  0.000000D+00
     24 -0.472863D-03 -0.179203D-02  0.164414D-02 -0.218206D-04 -0.540125D-05
     25 -0.181268D-02 -0.684167D-02  0.698224D-02 -0.146551D-05  0.165107D-04
     26 -0.199385D-02 -0.249476D-01  0.116870D-02  0.000000D+00  0.000000D+00
     27  0.709831D-01 -0.170101D-01 -0.158353D-01  0.000000D+00  0.000000D+00
     28  0.000000D+00  0.000000D+00  0.000000D+00  0.000000D+00  0.000000D+00
     29 -0.369303D-04  0.000000D+00  0.000000D+00 -0.664796D-01  0.109137D-02
     30  0.256846D-04  0.000000D+00  0.000000D+00  0.665189D-01 -0.675247D-01
               21            22            23            24            25 
     21  0.255317D+00
     22  0.000000D+00  0.168199D+00
     23  0.000000D+00  0.225662D-01  0.676986D-01
     24 -0.122845D-04 -0.100430D+00  0.225662D-01  0.230203D+00
     25 -0.164318D-04 -0.261573D-02  0.000000D+00  0.552041D-02  0.207037D-01
     26  0.000000D+00  0.155181D-03  0.000000D+00 -0.280394D-03 -0.122217D-02
     27  0.000000D+00  0.687475D-05  0.000000D+00  0.830255D-03  0.140746D-03
     28  0.000000D+00  0.000000D+00  0.000000D+00  0.000000D+00  0.000000D+00
     29  0.676309D-01  0.000000D+00  0.000000D+00 -0.179052D-04  0.270900D-04
     30 -0.104438D-02  0.000000D+00  0.000000D+00  0.305090D-04  0.328458D-04
               26            27            28            29            30 
     26  0.261738D+00
     27  0.117888D+00  0.181774D+00
     28 -0.299629D-01  0.299629D-01  0.898886D-01
     29 -0.998474D-02  0.998762D-02  0.299600D-01  0.227620D+00
     30 -0.998884D-02  0.998762D-02  0.299641D-01 -0.977343D-01  0.227552D+00
 Frcnst in PutFF: 
                1             2             3             4             5 
      1  0.534970D+00
      2  0.000000D+00  0.362737D+00
      3  0.000000D+00  0.000000D+00  0.358617D+00
      4  0.000000D+00  0.000000D+00  0.000000D+00  0.560582D+00
      5  0.000000D+00  0.000000D+00  0.000000D+00  0.000000D+00  0.330831D+00
      6  0.000000D+00  0.000000D+00  0.000000D+00  0.000000D+00  0.129806D+00
      7  0.000000D+00  0.000000D+00  0.000000D+00  0.000000D+00  0.000000D+00
      8  0.000000D+00  0.000000D+00  0.000000D+00  0.000000D+00  0.527056D-01
      9  0.000000D+00  0.000000D+00  0.000000D+00  0.000000D+00  0.000000D+00
     10  0.000000D+00  0.000000D+00  0.000000D+00  0.000000D+00  0.000000D+00
     11  0.000000D+00  0.000000D+00  0.000000D+00  0.000000D+00  0.000000D+00
     12  0.000000D+00  0.000000D+00  0.000000D+00  0.000000D+00  0.000000D+00
     13  0.000000D+00  0.000000D+00  0.000000D+00  0.000000D+00  0.000000D+00
     14  0.000000D+00  0.000000D+00  0.000000D+00  0.000000D+00  0.000000D+00
     15  0.000000D+00  0.000000D+00  0.000000D+00  0.000000D+00 -0.203724D-02
     16  0.000000D+00  0.000000D+00  0.000000D+00  0.000000D+00  0.206099D-02
     17  0.000000D+00  0.000000D+00  0.000000D+00  0.000000D+00  0.000000D+00
     18  0.000000D+00  0.000000D+00  0.000000D+00  0.000000D+00  0.000000D+00
     19  0.000000D+00  0.000000D+00  0.000000D+00  0.000000D+00  0.000000D+00
     20  0.000000D+00  0.000000D+00  0.000000D+00  0.000000D+00 -0.161160D-04
     21  0.000000D+00  0.000000D+00  0.000000D+00  0.000000D+00  0.000000D+00
     22  0.000000D+00  0.000000D+00  0.000000D+00  0.000000D+00  0.000000D+00
     23  0.000000D+00  0.000000D+00  0.000000D+00  0.000000D+00 -0.540174D-03
     24  0.000000D+00  0.000000D+00  0.000000D+00  0.000000D+00  0.613188D-02
     25  0.000000D+00  0.000000D+00  0.000000D+00  0.000000D+00 -0.363781D-03
     26  0.000000D+00  0.000000D+00  0.000000D+00  0.000000D+00  0.000000D+00
     27  0.000000D+00  0.000000D+00  0.000000D+00  0.000000D+00  0.000000D+00
     28  0.000000D+00  0.000000D+00  0.000000D+00  0.000000D+00 -0.567303D-01
     29  0.000000D+00  0.000000D+00  0.000000D+00  0.000000D+00  0.350019D-01
     30  0.000000D+00  0.000000D+00  0.000000D+00  0.000000D+00  0.000000D+00
                6             7             8             9            10 
      6  0.324900D+00
      7  0.000000D+00  0.160000D+00
      8 -0.269106D-03  0.000000D+00  0.168199D+00
      9  0.000000D+00  0.000000D+00  0.000000D+00  0.342963D+00
     10  0.000000D+00  0.000000D+00  0.000000D+00  0.000000D+00  0.359340D+00
     11  0.000000D+00  0.000000D+00  0.000000D+00  0.000000D+00  0.000000D+00
     12  0.000000D+00  0.000000D+00  0.000000D+00  0.000000D+00  0.000000D+00
     13  0.000000D+00  0.000000D+00  0.000000D+00  0.000000D+00  0.000000D+00
     14  0.000000D+00  0.000000D+00  0.000000D+00  0.000000D+00  0.000000D+00
     15  0.206813D-02  0.000000D+00  0.869042D-03  0.000000D+00  0.000000D+00
     16 -0.209224D-02  0.000000D+00 -0.879174D-03  0.000000D+00  0.000000D+00
     17  0.000000D+00  0.000000D+00  0.000000D+00  0.000000D+00  0.000000D+00
     18  0.000000D+00  0.000000D+00  0.000000D+00  0.000000D+00  0.000000D+00
     19  0.000000D+00  0.000000D+00  0.000000D+00  0.000000D+00  0.000000D+00
     20  0.163604D-04  0.000000D+00  0.687475D-05  0.000000D+00  0.000000D+00
     21  0.000000D+00  0.000000D+00  0.000000D+00  0.000000D+00  0.000000D+00
     22  0.000000D+00  0.000000D+00  0.000000D+00  0.000000D+00  0.000000D+00
     23  0.548363D-03  0.000000D+00  0.230427D-03  0.000000D+00  0.000000D+00
     24 -0.622484D-02  0.000000D+00 -0.261573D-02  0.000000D+00  0.000000D+00
     25  0.369296D-03  0.000000D+00  0.155181D-03  0.000000D+00  0.000000D+00
     26  0.000000D+00  0.000000D+00  0.225662D-01  0.000000D+00  0.000000D+00
     27  0.000000D+00  0.000000D+00  0.000000D+00  0.000000D+00  0.000000D+00
     28  0.515866D-01  0.000000D+00 -0.100430D+00  0.000000D+00  0.000000D+00
     29  0.358774D-01  0.000000D+00 -0.642106D-01  0.000000D+00  0.000000D+00
     30  0.000000D+00  0.000000D+00  0.000000D+00  0.000000D+00  0.000000D+00
               11            12            13            14            15 
     11  0.359943D+00
     12  0.000000D+00  0.338263D+00
     13  0.000000D+00  0.000000D+00  0.346743D+00
     14  0.000000D+00  0.000000D+00  0.000000D+00  0.347665D+00
     15  0.000000D+00  0.000000D+00  0.000000D+00  0.000000D+00  0.330336D+00
     16  0.000000D+00  0.000000D+00  0.000000D+00  0.000000D+00  0.157070D+00
     17  0.000000D+00  0.000000D+00  0.000000D+00  0.000000D+00  0.000000D+00
     18  0.000000D+00  0.000000D+00  0.000000D+00  0.000000D+00  0.000000D+00
     19  0.000000D+00  0.000000D+00  0.000000D+00  0.000000D+00  0.000000D+00
     20  0.000000D+00  0.000000D+00  0.000000D+00  0.000000D+00 -0.170101D-01
     21  0.000000D+00  0.000000D+00  0.000000D+00  0.000000D+00  0.000000D+00
     22  0.000000D+00  0.000000D+00  0.000000D+00  0.000000D+00  0.000000D+00
     23  0.000000D+00  0.000000D+00  0.000000D+00  0.000000D+00  0.179150D-01
     24  0.000000D+00  0.000000D+00  0.000000D+00  0.000000D+00 -0.684167D-02
     25  0.000000D+00  0.000000D+00  0.000000D+00  0.000000D+00 -0.249476D-01
     26  0.000000D+00  0.000000D+00  0.000000D+00  0.000000D+00  0.000000D+00
     27  0.000000D+00  0.000000D+00  0.000000D+00  0.000000D+00  0.000000D+00
     28  0.000000D+00  0.000000D+00  0.000000D+00  0.000000D+00 -0.179203D-02
     29  0.000000D+00  0.000000D+00  0.000000D+00  0.000000D+00  0.406209D-04
     30  0.000000D+00  0.000000D+00  0.000000D+00  0.000000D+00  0.000000D+00
               16            17            18            19            20 
     16  0.324352D+00
     17  0.000000D+00  0.252201D+00
     18  0.000000D+00  0.462312D-01  0.254908D+00
     19  0.000000D+00  0.464199D-01  0.492104D-01  0.255317D+00
     20 -0.158353D-01  0.000000D+00  0.000000D+00  0.000000D+00  0.181774D+00
     21  0.000000D+00 -0.664796D-01  0.109137D-02  0.676309D-01  0.998762D-02
     22  0.000000D+00  0.665189D-01 -0.675247D-01 -0.104438D-02  0.998762D-02
     23  0.969585D-04 -0.297951D-04 -0.161043D-04 -0.986196D-05  0.709831D-01
     24  0.698224D-02 -0.146551D-05  0.165107D-04 -0.164318D-04  0.140746D-03
     25  0.116870D-02  0.000000D+00  0.000000D+00  0.000000D+00  0.117888D+00
     26  0.000000D+00  0.000000D+00  0.000000D+00  0.000000D+00  0.000000D+00
     27  0.000000D+00  0.000000D+00  0.000000D+00  0.000000D+00  0.299629D-01
     28  0.164414D-02 -0.218206D-04 -0.540125D-05 -0.122845D-04  0.830255D-03
     29  0.117743D-03  0.187221D-04  0.939262D-05  0.794698D-05 -0.666511D-03
     30  0.000000D+00  0.000000D+00  0.000000D+00  0.000000D+00  0.000000D+00
               21            22            23            24            25 
     21  0.227620D+00
     22 -0.977343D-01  0.227552D+00
     23 -0.369303D-04  0.256846D-04  0.337540D+00
     24  0.270900D-04  0.328458D-04 -0.181268D-02  0.207037D-01
     25 -0.998474D-02 -0.998884D-02 -0.199385D-02 -0.122217D-02  0.261738D+00
     26  0.000000D+00  0.000000D+00  0.000000D+00  0.000000D+00  0.000000D+00
     27  0.299600D-01  0.299641D-01  0.000000D+00  0.000000D+00 -0.299629D-01
     28 -0.179052D-04  0.305090D-04 -0.472863D-03  0.552041D-02 -0.280394D-03
     29  0.199875D-04 -0.174263D-04 -0.179640D-04  0.563614D-03  0.684986D-04
     30  0.000000D+00  0.000000D+00  0.000000D+00  0.000000D+00  0.000000D+00
               26            27            28            29            30 
     26  0.676986D-01
     27  0.000000D+00  0.898886D-01
     28  0.225662D-01  0.000000D+00  0.230203D+00
     29  0.000000D+00  0.000000D+00  0.419791D-02  0.327393D+00
     30  0.000000D+00  0.000000D+00  0.000000D+00  0.000000D+00  0.765461D-02
 Force constants in internal coordinates: 
                1             2             3             4             5 
      1  0.534970D+00
      2  0.000000D+00  0.362737D+00
      3  0.000000D+00  0.000000D+00  0.358617D+00
      4  0.000000D+00  0.000000D+00  0.000000D+00  0.560582D+00
      5  0.000000D+00  0.000000D+00  0.000000D+00  0.000000D+00  0.765461D-02
      6  0.000000D+00  0.000000D+00  0.000000D+00  0.000000D+00  0.000000D+00
      7  0.000000D+00  0.000000D+00  0.000000D+00  0.000000D+00  0.000000D+00
      8  0.000000D+00  0.000000D+00  0.000000D+00  0.000000D+00  0.000000D+00
      9  0.000000D+00  0.000000D+00  0.000000D+00  0.000000D+00  0.000000D+00
     10  0.000000D+00  0.000000D+00  0.000000D+00  0.000000D+00  0.000000D+00
     11  0.000000D+00  0.000000D+00  0.000000D+00  0.000000D+00  0.000000D+00
     12  0.000000D+00  0.000000D+00  0.000000D+00  0.000000D+00  0.000000D+00
     13  0.000000D+00  0.000000D+00  0.000000D+00  0.000000D+00  0.000000D+00
     14  0.000000D+00  0.000000D+00  0.000000D+00  0.000000D+00  0.000000D+00
     15  0.000000D+00  0.000000D+00  0.000000D+00  0.000000D+00  0.000000D+00
     16  0.000000D+00  0.000000D+00  0.000000D+00  0.000000D+00  0.000000D+00
     17  0.000000D+00  0.000000D+00  0.000000D+00  0.000000D+00  0.000000D+00
     18  0.000000D+00  0.000000D+00  0.000000D+00  0.000000D+00  0.000000D+00
     19  0.000000D+00  0.000000D+00  0.000000D+00  0.000000D+00  0.000000D+00
     20  0.000000D+00  0.000000D+00  0.000000D+00  0.000000D+00  0.000000D+00
     21  0.000000D+00  0.000000D+00  0.000000D+00  0.000000D+00  0.000000D+00
     22  0.000000D+00  0.000000D+00  0.000000D+00  0.000000D+00  0.000000D+00
     23  0.000000D+00  0.000000D+00  0.000000D+00  0.000000D+00  0.000000D+00
     24  0.000000D+00  0.000000D+00  0.000000D+00  0.000000D+00  0.000000D+00
     25  0.000000D+00  0.000000D+00  0.000000D+00  0.000000D+00  0.000000D+00
     26  0.000000D+00  0.000000D+00  0.000000D+00  0.000000D+00  0.000000D+00
     27  0.000000D+00  0.000000D+00  0.000000D+00  0.000000D+00  0.000000D+00
     28  0.000000D+00  0.000000D+00  0.000000D+00  0.000000D+00  0.000000D+00
     29  0.000000D+00  0.000000D+00  0.000000D+00  0.000000D+00  0.000000D+00
     30  0.000000D+00  0.000000D+00  0.000000D+00  0.000000D+00  0.000000D+00
                6             7             8             9            10 
      6  0.342963D+00
      7  0.000000D+00  0.359340D+00
      8  0.000000D+00  0.000000D+00  0.359943D+00
      9  0.000000D+00  0.000000D+00  0.000000D+00  0.338263D+00
     10  0.000000D+00  0.000000D+00  0.000000D+00  0.000000D+00  0.346743D+00
     11  0.000000D+00  0.000000D+00  0.000000D+00  0.000000D+00  0.000000D+00
     12  0.000000D+00  0.000000D+00  0.000000D+00  0.000000D+00  0.000000D+00
     13  0.000000D+00  0.000000D+00  0.000000D+00  0.000000D+00  0.000000D+00
     14  0.000000D+00  0.000000D+00  0.000000D+00  0.000000D+00  0.000000D+00
     15  0.000000D+00  0.000000D+00  0.000000D+00  0.000000D+00  0.000000D+00
     16  0.000000D+00  0.000000D+00  0.000000D+00  0.000000D+00  0.000000D+00
     17  0.000000D+00  0.000000D+00  0.000000D+00  0.000000D+00  0.000000D+00
     18  0.000000D+00  0.000000D+00  0.000000D+00  0.000000D+00  0.000000D+00
     19  0.000000D+00  0.000000D+00  0.000000D+00  0.000000D+00  0.000000D+00
     20  0.000000D+00  0.000000D+00  0.000000D+00  0.000000D+00  0.000000D+00
     21  0.000000D+00  0.000000D+00  0.000000D+00  0.000000D+00  0.000000D+00
     22  0.000000D+00  0.000000D+00  0.000000D+00  0.000000D+00  0.000000D+00
     23  0.000000D+00  0.000000D+00  0.000000D+00  0.000000D+00  0.000000D+00
     24  0.000000D+00  0.000000D+00  0.000000D+00  0.000000D+00  0.000000D+00
     25  0.000000D+00  0.000000D+00  0.000000D+00  0.000000D+00  0.000000D+00
     26  0.000000D+00  0.000000D+00  0.000000D+00  0.000000D+00  0.000000D+00
     27  0.000000D+00  0.000000D+00  0.000000D+00  0.000000D+00  0.000000D+00
     28  0.000000D+00  0.000000D+00  0.000000D+00  0.000000D+00  0.000000D+00
     29  0.000000D+00  0.000000D+00  0.000000D+00  0.000000D+00  0.000000D+00
     30  0.000000D+00  0.000000D+00  0.000000D+00  0.000000D+00  0.000000D+00
               11            12            13            14            15 
     11  0.347665D+00
     12  0.000000D+00  0.330831D+00
     13  0.000000D+00  0.129806D+00  0.324900D+00
     14  0.000000D+00  0.000000D+00  0.000000D+00  0.160000D+00
     15  0.000000D+00  0.350019D-01  0.358774D-01  0.000000D+00  0.327393D+00
     16  0.000000D+00 -0.540174D-03  0.548363D-03  0.000000D+00 -0.179640D-04
     17  0.000000D+00 -0.203724D-02  0.206813D-02  0.000000D+00  0.406209D-04
     18  0.000000D+00  0.206099D-02 -0.209224D-02  0.000000D+00  0.117743D-03
     19  0.000000D+00  0.000000D+00  0.000000D+00  0.000000D+00  0.187221D-04
     20  0.000000D+00  0.000000D+00  0.000000D+00  0.000000D+00  0.939262D-05
     21  0.000000D+00  0.000000D+00  0.000000D+00  0.000000D+00  0.794698D-05
     22  0.000000D+00  0.527056D-01 -0.269106D-03  0.000000D+00 -0.642106D-01
     23  0.000000D+00  0.000000D+00  0.000000D+00  0.000000D+00  0.000000D+00
     24  0.000000D+00 -0.567303D-01  0.515866D-01  0.000000D+00  0.419791D-02
     25  0.000000D+00  0.613188D-02 -0.622484D-02  0.000000D+00  0.563614D-03
     26  0.000000D+00 -0.363781D-03  0.369296D-03  0.000000D+00  0.684986D-04
     27  0.000000D+00 -0.161160D-04  0.163604D-04  0.000000D+00 -0.666511D-03
     28  0.000000D+00  0.000000D+00  0.000000D+00  0.000000D+00  0.000000D+00
     29  0.000000D+00  0.000000D+00  0.000000D+00  0.000000D+00  0.199875D-04
     30  0.000000D+00  0.000000D+00  0.000000D+00  0.000000D+00 -0.174263D-04
               16            17            18            19            20 
     16  0.337540D+00
     17  0.179150D-01  0.330336D+00
     18  0.969585D-04  0.157070D+00  0.324352D+00
     19 -0.297951D-04  0.000000D+00  0.000000D+00  0.252201D+00
     20 -0.161043D-04  0.000000D+00  0.000000D+00  0.462312D-01  0.254908D+00
     21 -0.986196D-05  0.000000D+00  0.000000D+00  0.464199D-01  0.492104D-01
     22  0.230427D-03  0.869042D-03 -0.879174D-03  0.000000D+00  0.000000D+00
     23  0.000000D+00  0.000000D+00  0.000000D+00  0.000000D+00  0.000000D+00
     24 -0.472863D-03 -0.179203D-02  0.164414D-02 -0.218206D-04 -0.540125D-05
     25 -0.181268D-02 -0.684167D-02  0.698224D-02 -0.146551D-05  0.165107D-04
     26 -0.199385D-02 -0.249476D-01  0.116870D-02  0.000000D+00  0.000000D+00
     27  0.709831D-01 -0.170101D-01 -0.158353D-01  0.000000D+00  0.000000D+00
     28  0.000000D+00  0.000000D+00  0.000000D+00  0.000000D+00  0.000000D+00
     29 -0.369303D-04  0.000000D+00  0.000000D+00 -0.664796D-01  0.109137D-02
     30  0.256846D-04  0.000000D+00  0.000000D+00  0.665189D-01 -0.675247D-01
               21            22            23            24            25 
     21  0.255317D+00
     22  0.000000D+00  0.168199D+00
     23  0.000000D+00  0.225662D-01  0.676986D-01
     24 -0.122845D-04 -0.100430D+00  0.225662D-01  0.230203D+00
     25 -0.164318D-04 -0.261573D-02  0.000000D+00  0.552041D-02  0.207037D-01
     26  0.000000D+00  0.155181D-03  0.000000D+00 -0.280394D-03 -0.122217D-02
     27  0.000000D+00  0.687475D-05  0.000000D+00  0.830255D-03  0.140746D-03
     28  0.000000D+00  0.000000D+00  0.000000D+00  0.000000D+00  0.000000D+00
     29  0.676309D-01  0.000000D+00  0.000000D+00 -0.179052D-04  0.270900D-04
     30 -0.104438D-02  0.000000D+00  0.000000D+00  0.305090D-04  0.328458D-04
               26            27            28            29            30 
     26  0.261738D+00
     27  0.117888D+00  0.181774D+00
     28 -0.299629D-01  0.299629D-01  0.898886D-01
     29 -0.998474D-02  0.998762D-02  0.299600D-01  0.227620D+00
     30 -0.998884D-02  0.998762D-02  0.299641D-01 -0.977343D-01  0.227552D+00
 Final forces over variables, Energy=-1.94231376D+02:
 -1.07834366D-05 3.19394320D-06 2.02064695D-05-4.18729285D-05
 -1.49662128D-05 6.90483183D-06-2.46719157D-06-1.18022796D-05
  1.57106023D-05-7.32397713D-06-1.06575597D-05-7.01273214D-06
 -1.69222823D-05 2.88394557D-05-5.85182159D-06-1.05414371D-05
  1.37297452D-07 3.33845163D-06-2.61193320D-06 3.12973615D-05
  1.45345511D-05 1.76530298D-05-5.47265356D-05 2.39087520D-05
 -2.75197069D-05 1.84184266D-05-6.34465347D-06-9.42948838D-05
  1.63157835D-05-1.80190232D-03

 GradGradGradGradGradGradGradGradGradGradGradGradGradGradGradGradGradGrad
 Berny optimization.
 Search for a local minimum.
 Step number   1 out of a maximum of   50
 All quantities printed in internal units (Hartrees-Bohrs-Radians)
 Second derivative matrix not updated -- first step.
 ITU=  0
     Eigenvalues ---    0.01945   0.04025   0.06221   0.07072   0.13615
     Eigenvalues ---    0.14435   0.14721   0.16000   0.16854   0.22254
     Eigenvalues ---    0.24865   0.31066   0.33826   0.34296   0.34674
     Eigenvalues ---    0.34766   0.34855   0.35862   0.35934   0.35994
     Eigenvalues ---    0.36274   0.38655   0.39715   0.46259   0.49000
     Eigenvalues ---    0.53497   0.560581000.000001000.000001000.00000
 RFO step:  Lambda=-1.04564078D-07 EMin= 1.94466948D-02
 Linear search not attempted -- first point.
 Variable       Old X    -DE/DX   Delta X   Delta X   Delta X     New X
                                 (Linear)    (Quad)   (Total)
    R1        2.56493  -0.00001   0.00000  -0.00002  -0.00002   2.56491
    R2        2.03656   0.00000   0.00000   0.00001   0.00001   2.03657
    R3        2.04298   0.00002   0.00000   0.00006   0.00006   2.04304
    R4        1.80903  -0.00004   0.00000  -0.00007  -0.00007   1.80896
    A2        1.99088  -0.00001   0.00000  -0.00009  -0.00009   1.99079
    A3        2.07977   0.00001   0.00000   0.00008   0.00008   2.07985
    A4        1.91636  -0.00000   0.00000  -0.00002  -0.00002   1.91634
    D3        3.57868  -0.00001   0.00000  -0.00006  -0.00006   3.57862
   R21        2.80133   0.00002   0.00000   0.00005   0.00005   2.80138
   R22        2.04185  -0.00001   0.00000  -0.00002  -0.00002   2.04183
   R23        2.04090  -0.00001   0.00000  -0.00003  -0.00003   2.04087
   R24        2.07624  -0.00001   0.00000  -0.00002  -0.00002   2.07622
   R25        2.06207  -0.00002   0.00000  -0.00005  -0.00005   2.06202
   R26        2.06056   0.00003   0.00000   0.00008   0.00008   2.06064
   A22        2.10815  -0.00001   0.00000   0.00004   0.00004   2.10819
   A23        2.10931  -0.00001   0.00000  -0.00004  -0.00004   2.10926
   A24        1.94940   0.00000   0.00000  -0.00000  -0.00000   1.94939
   A25        1.95005   0.00000   0.00000   0.00009   0.00009   1.95014
   A26        1.94839  -0.00000   0.00000  -0.00008  -0.00008   1.94831
   D23        2.99357   0.00003   0.00000   0.00064   0.00064   2.99421
   D25        2.07990   0.00001   0.00000   0.00021   0.00021   2.08011
   D26        4.19899   0.00002   0.00000   0.00022   0.00022   4.19921
   ANG2       1.64458  -0.00005   0.00000  -0.00030  -0.00030   1.64428
   DH2        4.01451   0.00002   0.00000   0.00117   0.00117   4.01567
   DH3        1.82509  -0.00003   0.00000  -0.00043  -0.00043   1.82465
    D4        3.07359   0.00002   0.00000   0.00029   0.00029   3.07389
   D24        4.81893  -0.00001   0.00000  -0.00057  -0.00057   4.81836
   DH1        1.82238  -0.00009   0.00000   0.00000   0.00000   1.82238
   ANG1       1.98419   0.00002   0.00000   0.00000   0.00000   1.98419
    BB        7.18096  -0.00180   0.00000   0.00000   0.00000   7.18096
         Item               Value     Threshold  Converged?
 Maximum Force            0.000055     0.000450     YES
 RMS     Force            0.000020     0.000300     YES
 Maximum Displacement     0.001169     0.001800     YES
 RMS     Displacement     0.000296     0.001200     YES
 Predicted change in Energy=-5.228204D-08
 Optimization completed.
    -- Stationary point found.
                       ----------------------------
                       !   Optimized Parameters   !
                       ! (Angstroms and Degrees)  !
 ----------------------                            ----------------------
 !      Name          Value   Derivative information (Atomic Units)     !
 ------------------------------------------------------------------------
 !       R1          1.3573   -DE/DX =    0.0                           !
 !       R2          1.0777   -DE/DX =    0.0                           !
 !       R3          1.0811   -DE/DX =    0.0                           !
 !       R4          0.9573   -DE/DX =    0.0                           !
 !       A2        114.0689   -DE/DX =    0.0                           !
 !       A3        119.1622   -DE/DX =    0.0                           !
 !       A4        109.7991   -DE/DX =    0.0                           !
 !       D3        205.0432   -DE/DX =    0.0                           !
 !       R21         1.4824   -DE/DX =    0.0                           !
 !       R22         1.0805   -DE/DX =    0.0                           !
 !       R23         1.08     -DE/DX =    0.0                           !
 !       R24         1.0987   -DE/DX =    0.0                           !
 !       R25         1.0912   -DE/DX =    0.0                           !
 !       R26         1.0904   -DE/DX =    0.0                           !
 !       A22       120.7882   -DE/DX =    0.0                           !
 !       A23       120.8544   -DE/DX =    0.0                           !
 !       A24       111.6923   -DE/DX =    0.0                           !
 !       A25       111.7295   -DE/DX =    0.0                           !
 !       A26       111.6346   -DE/DX =    0.0                           !
 !       D23       171.5189   -DE/DX =    0.0                           !
 !       D25       119.1693   -DE/DX =    0.0                           !
 !       D26       240.5844   -DE/DX =    0.0                           !
 !      ANG2        94.2274   -DE/DX =   -0.0001                        !
 !       DH2       230.0142   -DE/DX =    0.0                           !
 !       DH3       104.5698   -DE/DX =    0.0                           !
 !       D4        176.1039   -DE/DX =    0.0                           !
 !       D24       276.1043   -DE/DX =    0.0                           !
 !       DH1       104.4145   -DE/DX =   -0.0001                        !
 !      ANG1       113.6859   -DE/DX =    0.0                           !
 !       BB          3.8      -DE/DX =   -0.0018                        !
 ------------------------------------------------------------------------
 GradGradGradGradGradGradGradGradGradGradGradGradGradGradGradGradGradGrad

 ---------------------------------------------------------------------------------------------------
                            Z-MATRIX (ANGSTROMS AND DEGREES)
   CD    Cent   Atom    N1       Length/X        N2       Alpha/Y        N3        Beta/Z          J
 ---------------------------------------------------------------------------------------------------
      1      1  C 
      2      2  O        1   1.357300(     1)
      3      3  H        1   1.077700(     2)      2  114.069(    12)
      4      4  H        1   1.081100(     3)      2  119.162(    13)      3  205.043(    22)      0
      5      5  H        2   0.957300(     4)      1  109.799(    14)      3  176.104(    23)      0
      6      6  C        1   3.800000(     5)      2  113.686(    15)      3  104.415(    24)      0
      7      7  C        6   1.482400(     6)      1   94.227(    16)      2  230.014(    25)      0
      8      8  H        6   1.080500(     7)      7  120.788(    17)      1  104.570(    26)      0
      9      9  H        6   1.080000(     8)      7  120.854(    18)      8  171.519(    27)      0
     10     10  H        7   1.098700(     9)      6  111.692(    19)      8  276.104(    28)      0
     11     11  H        7   1.091200(    10)      6  111.730(    20)     10  119.169(    29)      0
     12     12  H        7   1.090400(    11)      6  111.635(    21)     10  240.584(    30)      0
 ---------------------------------------------------------------------------------------------------
                         Z-Matrix orientation:                         
 ---------------------------------------------------------------------
 Center     Atomic      Atomic             Coordinates (Angstroms)
 Number     Number       Type             X           Y           Z
 ---------------------------------------------------------------------
      1          6           0        0.000000    0.000000    0.000000
      2          8           0        0.000000    0.000000    1.357300
      3          1           0        0.984000    0.000000   -0.439524
      4          1           0       -0.855311    0.399624   -0.526802
      5          1           0       -0.898629    0.061201    1.681560
      6          6           0       -0.866267   -3.370347   -1.526545
      7          6           0        0.300896   -3.379623   -2.440413
      8          1           0       -1.858974   -3.162922   -1.899358
      9          1           0       -0.771031   -3.701778   -0.503079
     10          1           0        0.413074   -4.348583   -2.946055
     11          1           0        0.204273   -2.629253   -3.226750
     12          1           0        1.232509   -3.195388   -1.904571
 ---------------------------------------------------------------------
                    Distance matrix (angstroms):
                    1          2          3          4          5
     1  C    0.000000
     2  O    1.357300   0.000000
     3  H    1.077700   2.048617   0.000000
     4  H    1.081100   2.107391   1.884246   0.000000
     5  H    1.907596   0.957300   2.836729   2.234562   0.000000
     6  C    3.800000   4.519538   3.995541   3.900293   4.697713
     7  C    4.179474   5.092643   3.986482   4.391062   5.501707
     8  H    4.131273   4.905678   4.496409   3.947528   4.913268
     9  H    3.814543   4.214102   4.097235   4.102336   4.353037
    10  H    5.268780   6.131857   5.051616   5.477869   6.525456
    11  H    4.167328   5.288499   3.910189   4.193630   5.704949
    12  H    3.918797   4.729628   3.524007   4.379652   5.292207
                    6          7          8          9         10
     6  C    0.000000
     7  C    1.482400   0.000000
     8  H    1.080500   2.237127   0.000000
     9  H    1.080000   2.237426   1.850292   0.000000
    10  H    2.146781   1.098700   2.768315   2.790805   0.000000
    11  H    2.141489   1.091200   2.510729   3.085436   1.754560
    12  H    2.139714   1.090400   3.091658   2.496955   1.756708
                   11         12
    11  H    0.000000
    12  H    1.768032   0.000000
 Symmetry turned off by external request.
 Stoichiometry    C3H8O
 Framework group  C1[X(C3H8O)]
 Deg. of freedom    30
 Full point group                 C1      NOp   1
 Rotational constants (GHZ):     14.8425623      1.6540090      1.5790777

 Test job not archived.
 1\1\GINC-NODE-5-15\POpt\UwB97XD\Jun-CC-pVTZ\C3H8O1\MDITEODORO\12-Jun-2
 024\1\\# uwb97xd/jun-cc-pvtz opt=(noeig,intern,maxcyc=50) # int=ultraf
 ine nosym iop(7/33=1) guess=(mix,always)\\geom 0\\0,1\C\O,1,R1\H,1,R2,
 2,A2\H,1,R3,2,A3,3,D3,0\H,2,R4,1,A4,3,D4,0\C,1,BB,2,ANG1,3,DH1,0\C,6,R
 21,1,ANG2,2,DH2,0\H,6,R22,7,A22,1,DH3,0\H,6,R23,7,A23,8,D23,0\H,7,R24,
 6,A24,8,D24,0\H,7,R25,6,A25,10,D25,0\H,7,R26,6,A26,10,D26,0\\R1=1.3573
 \R2=1.0777\R3=1.0811\R4=0.9573\A2=114.0689\A3=119.1622\A4=109.7991\D3=
 205.0432\R21=1.4824\R22=1.0805\R23=1.08\R24=1.0987\R25=1.0912\R26=1.09
 04\A22=120.7882\A23=120.8544\A24=111.6923\A25=111.7295\A26=111.6346\D2
 3=171.5189\D25=119.1693\D26=240.5844\ANG2=94.2274\DH2=230.0142\DH3=104
 .5698\D4=176.1039\D24=276.1043\DH1=104.4145\ANG1=113.6859\BB=3.8\\Vers
 ion=EM64L-G09RevD.01\HF=-194.231376\S2=0.984558\S2-1=0.\S2A=0.06552\RM
 SD=9.600e-09\RMSF=4.078e-04\Dipole=-0.459875,0.1591767,-0.0923095\Quad
 rupole=1.3120427,-1.7698028,0.45776,-1.0997257,-2.315382,0.1383693\PG=
 C01 [X(C3H8O1)]\\@


 NATURE GIVES TO EVERY TIME AND SEASON SOME BEAUTY OF ITS OWN.

                                                    --DICKENS
 Job cpu time:       0 days  0 hours 16 minutes 47.0 seconds.
 File lengths (MBytes):  RWF=    113 Int=      0 D2E=      0 Chk=     10 Scr=      1
 Normal termination of Gaussian 09 at Wed Jun 12 18:30:03 2024.
 Initial command:
 /software/cinetica/g09d1/g09d01/d01/build-node-6-2-59348/src/main/l1.exe "/scratch/mdt/200671/Gau-27418.inp" -scrdir="/scratch/mdt/200671/"
 Entering Link 1 = /software/cinetica/g09d1/g09d01/d01/build-node-6-2-59348/src/main/l1.exe PID=     28256.
  
 Copyright (c) 1988,1990,1992,1993,1995,1998,2003,2009,2013,
            Gaussian, Inc.  All Rights Reserved.
  
 This is part of the Gaussian(R) 09 program.  It is based on
 the Gaussian(R) 03 system (copyright 2003, Gaussian, Inc.),
 the Gaussian(R) 98 system (copyright 1998, Gaussian, Inc.),
 the Gaussian(R) 94 system (copyright 1995, Gaussian, Inc.),
 the Gaussian 92(TM) system (copyright 1992, Gaussian, Inc.),
 the Gaussian 90(TM) system (copyright 1990, Gaussian, Inc.),
 the Gaussian 88(TM) system (copyright 1988, Gaussian, Inc.),
 the Gaussian 86(TM) system (copyright 1986, Carnegie Mellon
 University), and the Gaussian 82(TM) system (copyright 1983,
 Carnegie Mellon University). Gaussian is a federally registered
 trademark of Gaussian, Inc.
  
 This software contains proprietary and confidential information,
 including trade secrets, belonging to Gaussian, Inc.
  
 This software is provided under written license and may be
 used, copied, transmitted, or stored only in accord with that
 written license.
  
 The following legend is applicable only to US Government
 contracts under FAR:
  
                    RESTRICTED RIGHTS LEGEND
  
 Use, reproduction and disclosure by the US Government is
 subject to restrictions as set forth in subparagraphs (a)
 and (c) of the Commercial Computer Software - Restricted
 Rights clause in FAR 52.227-19.
  
 Gaussian, Inc.
 340 Quinnipiac St., Bldg. 40, Wallingford CT 06492
  
  
 ---------------------------------------------------------------
 Warning -- This program may not be used in any manner that
 competes with the business of Gaussian, Inc. or will provide
 assistance to any competitor of Gaussian, Inc.  The licensee
 of this program is prohibited from giving any competitor of
 Gaussian, Inc. access to this program.  By using this program,
 the user acknowledges that Gaussian, Inc. is engaged in the
 business of creating and licensing software in the field of
 computational chemistry and represents and warrants to the
 licensee that it is not a competitor of Gaussian, Inc. and that
 it will not use this program in any manner prohibited above.
 ---------------------------------------------------------------
  

 Cite this work as:
 Gaussian 09, Revision D.01,
 M. J. Frisch, G. W. Trucks, H. B. Schlegel, G. E. Scuseria, 
 M. A. Robb, J. R. Cheeseman, G. Scalmani, V. Barone, B. Mennucci, 
 G. A. Petersson, H. Nakatsuji, M. Caricato, X. Li, H. P. Hratchian, 
 A. F. Izmaylov, J. Bloino, G. Zheng, J. L. Sonnenberg, M. Hada, 
 M. Ehara, K. Toyota, R. Fukuda, J. Hasegawa, M. Ishida, T. Nakajima, 
 Y. Honda, O. Kitao, H. Nakai, T. Vreven, J. A. Montgomery, Jr., 
 J. E. Peralta, F. Ogliaro, M. Bearpark, J. J. Heyd, E. Brothers, 
 K. N. Kudin, V. N. Staroverov, T. Keith, R. Kobayashi, J. Normand, 
 K. Raghavachari, A. Rendell, J. C. Burant, S. S. Iyengar, J. Tomasi, 
 M. Cossi, N. Rega, J. M. Millam, M. Klene, J. E. Knox, J. B. Cross, 
 V. Bakken, C. Adamo, J. Jaramillo, R. Gomperts, R. E. Stratmann, 
 O. Yazyev, A. J. Austin, R. Cammi, C. Pomelli, J. W. Ochterski, 
 R. L. Martin, K. Morokuma, V. G. Zakrzewski, G. A. Voth, 
 P. Salvador, J. J. Dannenberg, S. Dapprich, A. D. Daniels, 
 O. Farkas, J. B. Foresman, J. V. Ortiz, J. Cioslowski, 
 and D. J. Fox, Gaussian, Inc., Wallingford CT, 2013.
 
 ******************************************
 Gaussian 09:  EM64L-G09RevD.01 24-Apr-2013
                12-Jun-2024 
 ******************************************
 %mem=400MW
 %chk=tmp
 %NProcShared= 32
 Will use up to   32 processors via shared memory.
 ----------------------------------------------------------------------
 # uwb97xd/jun-cc-pvtz # int=ultrafine nosym freq iop(7/33=1) guess=( )
  #guess=read geom=allcheck
 ----------------------------------------------------------------------
 1/10=4,29=7,30=1,38=1/1,3;
 2/12=2,15=1,40=1/2;
 3/5=16,6=1,7=60,11=2,14=-4,16=1,25=1,30=1,71=2,74=-58,75=-5,116=2,140=1/1,2,3;
 4/5=1/1;
 5/5=2,38=6,98=1/2;
 8/6=4,10=90,11=11/1;
 11/6=1,8=1,9=11,15=111,16=1,31=1/1,2,10;
 10/6=1,31=1/2;
 6/7=2,8=2,9=2,10=2,18=1,28=1/1;
 7/8=1,10=1,25=1,30=1,33=1/1,2,3,16;
 1/10=4,30=1/3;
 99//99;
 Structure from the checkpoint file:  "tmp.chk"
 ------
 geom 0
 ------
 Charge =  0 Multiplicity = 1
 Z-Matrix found in file.
 C
 O,1,R1
 H,1,R2,2,A2
 H,1,R3,2,A3,3,D3,0
 H,2,R4,1,A4,3,D4,0
 C,1,BB,2,ANG1,3,DH1,0
 C,6,R21,1,ANG2,2,DH2,0
 H,6,R22,7,A22,1,DH3,0
 H,6,R23,7,A23,8,D23,0
 H,7,R24,6,A24,8,D24,0
 H,7,R25,6,A25,10,D25,0
 H,7,R26,6,A26,10,D26,0
      Variables:
 R1=1.3573
 R2=1.0777
 R3=1.0811
 R4=0.9573
 A2=114.0689
 A3=119.1622
 A4=109.7991
 D3=205.0432
 R21=1.4824
 R22=1.0805
 R23=1.08
 R24=1.0987
 R25=1.0912
 R26=1.0904
 A22=120.7882
 A23=120.8544
 A24=111.6923
 A25=111.7295
 A26=111.6346
 D23=171.5189
 D25=119.1693
 D26=240.5844
 ANG2=94.2274
 DH2=230.0142
 DH3=104.5698
 D4=176.1039
 D24=276.1043
      Constants:
 DH1=104.4145
 ANG1=113.6859
 BB=3.8
 Recover connectivity data from disk.

 GradGradGradGradGradGradGradGradGradGradGradGradGradGradGradGradGradGrad
 Berny optimization.
 Initialization pass.
                       ----------------------------
                       !    Initial Parameters    !
                       ! (Angstroms and Degrees)  !
 ----------------------                            ----------------------
 !      Name          Value   Derivative information (Atomic Units)     !
 ------------------------------------------------------------------------
 !       R1          1.3573   calculate D2E/DX2 analytically            !
 !       R2          1.0777   calculate D2E/DX2 analytically            !
 !       R3          1.0811   calculate D2E/DX2 analytically            !
 !       R4          0.9573   calculate D2E/DX2 analytically            !
 !       A2        114.0689   calculate D2E/DX2 analytically            !
 !       A3        119.1622   calculate D2E/DX2 analytically            !
 !       A4        109.7991   calculate D2E/DX2 analytically            !
 !       D3        205.0432   calculate D2E/DX2 analytically            !
 !       R21         1.4824   calculate D2E/DX2 analytically            !
 !       R22         1.0805   calculate D2E/DX2 analytically            !
 !       R23         1.08     calculate D2E/DX2 analytically            !
 !       R24         1.0987   calculate D2E/DX2 analytically            !
 !       R25         1.0912   calculate D2E/DX2 analytically            !
 !       R26         1.0904   calculate D2E/DX2 analytically            !
 !       A22       120.7882   calculate D2E/DX2 analytically            !
 !       A23       120.8544   calculate D2E/DX2 analytically            !
 !       A24       111.6923   calculate D2E/DX2 analytically            !
 !       A25       111.7295   calculate D2E/DX2 analytically            !
 !       A26       111.6346   calculate D2E/DX2 analytically            !
 !       D23       171.5189   calculate D2E/DX2 analytically            !
 !       D25       119.1693   calculate D2E/DX2 analytically            !
 !       D26       240.5844   calculate D2E/DX2 analytically            !
 !      ANG2        94.2274   calculate D2E/DX2 analytically            !
 !       DH2       230.0142   calculate D2E/DX2 analytically            !
 !       DH3       104.5698   calculate D2E/DX2 analytically            !
 !       D4        176.1039   calculate D2E/DX2 analytically            !
 !       D24       276.1043   calculate D2E/DX2 analytically            !
 !       DH1       104.4145   frozen, calculate D2E/DX2 analytically    !
 !      ANG1       113.6859   frozen, calculate D2E/DX2 analytically    !
 !       BB          3.8      frozen, calculate D2E/DX2 analytically    !
 ------------------------------------------------------------------------
 Trust Radius=3.00D-01 FncErr=1.00D-07 GrdErr=1.00D-07
 Number of steps in this run=      2 maximum allowed number of steps=      2.
 GradGradGradGradGradGradGradGradGradGradGradGradGradGradGradGradGradGrad

                          Input orientation:                          
 ---------------------------------------------------------------------
 Center     Atomic      Atomic             Coordinates (Angstroms)
 Number     Number       Type             X           Y           Z
 ---------------------------------------------------------------------
      1          6           0        0.000000    0.000000    0.000000
      2          8           0        0.000000    0.000000    1.357300
      3          1           0        0.984000    0.000000   -0.439524
      4          1           0       -0.855311    0.399624   -0.526802
      5          1           0       -0.898629    0.061201    1.681560
      6          6           0       -0.866267   -3.370347   -1.526545
      7          6           0        0.300896   -3.379623   -2.440413
      8          1           0       -1.858974   -3.162922   -1.899358
      9          1           0       -0.771031   -3.701778   -0.503079
     10          1           0        0.413074   -4.348583   -2.946055
     11          1           0        0.204273   -2.629253   -3.226750
     12          1           0        1.232509   -3.195388   -1.904571
 ---------------------------------------------------------------------
                    Distance matrix (angstroms):
                    1          2          3          4          5
     1  C    0.000000
     2  O    1.357300   0.000000
     3  H    1.077700   2.048617   0.000000
     4  H    1.081100   2.107391   1.884246   0.000000
     5  H    1.907596   0.957300   2.836729   2.234562   0.000000
     6  C    3.800000   4.519538   3.995541   3.900293   4.697713
     7  C    4.179474   5.092643   3.986482   4.391062   5.501707
     8  H    4.131273   4.905678   4.496409   3.947528   4.913268
     9  H    3.814543   4.214102   4.097235   4.102336   4.353037
    10  H    5.268780   6.131857   5.051616   5.477869   6.525456
    11  H    4.167328   5.288499   3.910189   4.193630   5.704949
    12  H    3.918797   4.729628   3.524007   4.379652   5.292207
                    6          7          8          9         10
     6  C    0.000000
     7  C    1.482400   0.000000
     8  H    1.080500   2.237127   0.000000
     9  H    1.080000   2.237426   1.850292   0.000000
    10  H    2.146781   1.098700   2.768315   2.790805   0.000000
    11  H    2.141489   1.091200   2.510729   3.085436   1.754560
    12  H    2.139714   1.090400   3.091658   2.496955   1.756708
                   11         12
    11  H    0.000000
    12  H    1.768032   0.000000
 Symmetry turned off by external request.
 Stoichiometry    C3H8O
 Framework group  C1[X(C3H8O)]
 Deg. of freedom    30
 Full point group                 C1      NOp   1
 Rotational constants (GHZ):     14.8425623      1.6540090      1.5790777
 Standard basis: Jun-CC-pVTZ (5D, 7F)
   268 basis functions,   384 primitive gaussians,   300 cartesian basis functions
    17 alpha electrons       17 beta electrons
       nuclear repulsion energy       106.8585412767 Hartrees.
 NAtoms=   12 NActive=   12 NUniq=   12 SFac= 1.00D+00 NAtFMM=   60 NAOKFM=F Big=F
 Integral buffers will be    131072 words long.
 Raffenetti 2 integral format.
 Two-electron integral symmetry is turned off.
 Nuclear repulsion after empirical dispersion term =      106.8558680932 Hartrees.
 One-electron integrals computed using PRISM.
 NBasis=   268 RedAO= T EigKep=  1.09D-04  NBF=   268
 NBsUse=   268 1.00D-06 EigRej= -1.00D+00 NBFU=   268
 Initial guess from the checkpoint file:  "tmp.chk"
 B after Tr=     0.000000    0.000000    0.000000
         Rot=    1.000000    0.000000    0.000000    0.000000 Ang=   0.00 deg.
 Initial guess <Sx>= 0.0000 <Sy>= 0.0000 <Sz>= 0.0000 <S**2>= 0.9846 S= 0.6111
 Requested convergence on RMS density matrix=1.00D-08 within 128 cycles.
 Requested convergence on MAX density matrix=1.00D-06.
 Requested convergence on             energy=1.00D-06.
 No special actions if energy rises.
 SCF Done:  E(UwB97XD) =  -194.231375968     A.U. after    1 cycles
            NFock=  1  Conv=0.20D-08     -V/T= 2.0065
 <Sx>= 0.0000 <Sy>= 0.0000 <Sz>= 0.0000 <S**2>= 0.9846 S= 0.6111
 <L.S>=  0.00000000000    
 Annihilation of the first spin contaminant:
 S**2 before annihilation     0.9846,   after     0.0655
 DoSCS=F DFT=T ScalE2(SS,OS)=  1.000000  1.000000
 Range of M.O.s used for correlation:     1   268
 NBasis=   268 NAE=    17 NBE=    17 NFC=     0 NFV=     0
 NROrb=    268 NOA=    17 NOB=    17 NVA=   251 NVB=   251

 **** Warning!!: The largest alpha MO coefficient is  0.20956267D+02


 **** Warning!!: The largest beta MO coefficient is  0.21243899D+02

 Symmetrizing basis deriv contribution to polar:
 IMax=3 JMax=2 DiffMx= 0.00D+00
 G2DrvN: will do    13 centers at a time, making    1 passes.
 Calling FoFCou, ICntrl=  3107 FMM=F I1Cent=   0 AccDes= 0.00D+00.
 End of G2Drv F.D. properties file   721 does not exist.
 End of G2Drv F.D. properties file   722 does not exist.
 End of G2Drv F.D. properties file   788 does not exist.
          IDoAtm=111111111111
          Differentiating once with respect to electric field.
                with respect to dipole field.
          Differentiating once with respect to nuclear coordinates.
          There are    39 degrees of freedom in the 1st order CPHF.  IDoFFX=6 NUNeed=     3.
     36 vectors produced by pass  0 Test12= 2.19D-14 2.56D-09 XBig12= 3.58D+01 2.12D+00.
 AX will form    36 AO Fock derivatives at one time.
     36 vectors produced by pass  1 Test12= 2.19D-14 2.56D-09 XBig12= 2.84D+00 5.78D-01.
     36 vectors produced by pass  2 Test12= 2.19D-14 2.56D-09 XBig12= 8.01D-02 5.61D-02.
     36 vectors produced by pass  3 Test12= 2.19D-14 2.56D-09 XBig12= 1.70D-03 8.40D-03.
     36 vectors produced by pass  4 Test12= 2.19D-14 2.56D-09 XBig12= 2.10D-05 6.36D-04.
     36 vectors produced by pass  5 Test12= 2.19D-14 2.56D-09 XBig12= 2.29D-07 7.18D-05.
     34 vectors produced by pass  6 Test12= 2.19D-14 2.56D-09 XBig12= 2.20D-09 6.12D-06.
     18 vectors produced by pass  7 Test12= 2.19D-14 2.56D-09 XBig12= 1.70D-11 5.84D-07.
      4 vectors produced by pass  8 Test12= 2.19D-14 2.56D-09 XBig12= 1.36D-13 5.33D-08.
      2 vectors produced by pass  9 Test12= 2.19D-14 2.56D-09 XBig12= 1.19D-15 4.15D-09.
 InvSVY:  IOpt=1 It=  1 EMax= 6.22D-15
 Solved reduced A of dimension   274 with    39 vectors.
 Isotropic polarizability for W=    0.000000       51.16 Bohr**3.
 End of Minotr F.D. properties file   721 does not exist.
 End of Minotr F.D. properties file   722 does not exist.
 End of Minotr F.D. properties file   788 does not exist.

 **********************************************************************

            Population analysis using the SCF density.

 **********************************************************************

 Alpha  occ. eigenvalues --  -19.28648 -10.31846 -10.28609 -10.27591  -1.15532
 Alpha  occ. eigenvalues --   -0.85465  -0.74400  -0.70095  -0.61225  -0.53709
 Alpha  occ. eigenvalues --   -0.53431  -0.49767  -0.47427  -0.45393  -0.43705
 Alpha  occ. eigenvalues --   -0.43411  -0.27796
 Alpha virt. eigenvalues --    0.03913   0.05193   0.06199   0.07125   0.07784
 Alpha virt. eigenvalues --    0.08764   0.09955   0.10963   0.11171   0.12972
 Alpha virt. eigenvalues --    0.13299   0.14940   0.17038   0.17738   0.18097
 Alpha virt. eigenvalues --    0.20384   0.21723   0.23014   0.24061   0.25406
 Alpha virt. eigenvalues --    0.25769   0.26812   0.28247   0.28569   0.29139
 Alpha virt. eigenvalues --    0.29670   0.30781   0.31448   0.31617   0.33070
 Alpha virt. eigenvalues --    0.33249   0.33892   0.36367   0.36988   0.38003
 Alpha virt. eigenvalues --    0.39456   0.40464   0.41282   0.45354   0.46471
 Alpha virt. eigenvalues --    0.47612   0.48446   0.53641   0.54587   0.55491
 Alpha virt. eigenvalues --    0.59168   0.60133   0.61486   0.61683   0.63765
 Alpha virt. eigenvalues --    0.64362   0.65272   0.66697   0.67712   0.67800
 Alpha virt. eigenvalues --    0.69519   0.70418   0.71892   0.74341   0.75153
 Alpha virt. eigenvalues --    0.76348   0.77698   0.79053   0.81566   0.85222
 Alpha virt. eigenvalues --    0.87755   0.88989   0.91246   0.91764   0.93959
 Alpha virt. eigenvalues --    0.97249   0.98997   0.99699   1.00667   1.01314
 Alpha virt. eigenvalues --    1.03279   1.06195   1.10716   1.13063   1.14937
 Alpha virt. eigenvalues --    1.16165   1.17399   1.18917   1.19701   1.21846
 Alpha virt. eigenvalues --    1.23814   1.24613   1.27892   1.30288   1.32229
 Alpha virt. eigenvalues --    1.35237   1.35931   1.37969   1.40115   1.41320
 Alpha virt. eigenvalues --    1.42203   1.43529   1.47853   1.49705   1.51908
 Alpha virt. eigenvalues --    1.52651   1.56400   1.58776   1.60604   1.62514
 Alpha virt. eigenvalues --    1.68343   1.71548   1.74400   1.82023   1.88024
 Alpha virt. eigenvalues --    1.98718   2.08000   2.10503   2.24972   2.32476
 Alpha virt. eigenvalues --    2.37307   2.39112   2.45264   2.49059   2.50999
 Alpha virt. eigenvalues --    2.54108   2.56562   2.59999   2.60783   2.63920
 Alpha virt. eigenvalues --    2.68170   2.70061   2.76094   2.78945   2.82792
 Alpha virt. eigenvalues --    2.88190   2.89513   2.91042   2.92676   2.93452
 Alpha virt. eigenvalues --    2.98159   3.00318   3.00756   3.03246   3.05752
 Alpha virt. eigenvalues --    3.07804   3.09018   3.11551   3.12086   3.13693
 Alpha virt. eigenvalues --    3.14625   3.16019   3.17051   3.19356   3.20417
 Alpha virt. eigenvalues --    3.21503   3.23612   3.24911   3.26196   3.32119
 Alpha virt. eigenvalues --    3.33762   3.39800   3.42479   3.43403   3.44369
 Alpha virt. eigenvalues --    3.50084   3.51330   3.52018   3.53317   3.53767
 Alpha virt. eigenvalues --    3.55936   3.56697   3.57351   3.60973   3.69299
 Alpha virt. eigenvalues --    3.72884   3.76131   3.79542   3.83834   3.85703
 Alpha virt. eigenvalues --    3.87649   3.91342   3.93590   3.96628   3.96765
 Alpha virt. eigenvalues --    3.99409   3.99955   4.01902   4.02096   4.04438
 Alpha virt. eigenvalues --    4.07416   4.08968   4.10443   4.10467   4.11885
 Alpha virt. eigenvalues --    4.15124   4.18062   4.21343   4.21969   4.30043
 Alpha virt. eigenvalues --    4.33321   4.33804   4.34744   4.36214   4.37074
 Alpha virt. eigenvalues --    4.40557   4.45810   4.58905   4.61311   4.74635
 Alpha virt. eigenvalues --    4.74735   4.81536   4.84342   4.88123   4.88697
 Alpha virt. eigenvalues --    4.92035   4.94362   4.96709   5.00009   5.00900
 Alpha virt. eigenvalues --    5.02576   5.06585   5.14804   5.17845   5.22144
 Alpha virt. eigenvalues --    5.27564   5.28269   5.35068   5.40484   5.43201
 Alpha virt. eigenvalues --    5.46689   5.48491   5.49181   5.63477   5.69658
 Alpha virt. eigenvalues --    5.70524   5.78084   5.86623   6.01612   6.02199
 Alpha virt. eigenvalues --    6.15972   6.16997   6.25938   6.55826   6.66081
 Alpha virt. eigenvalues --    6.74391   6.83014   6.92525   6.94563   7.16950
 Alpha virt. eigenvalues --    7.34250   7.62721  12.63770  12.76841  12.82510
 Alpha virt. eigenvalues --   13.55706
  Beta  occ. eigenvalues --  -19.29100 -10.32900 -10.27664 -10.27505  -1.16809
  Beta  occ. eigenvalues --   -0.83628  -0.77282  -0.67377  -0.62462  -0.54490
  Beta  occ. eigenvalues --   -0.52936  -0.49522  -0.48065  -0.46434  -0.44576
  Beta  occ. eigenvalues --   -0.43155  -0.25670
  Beta virt. eigenvalues --    0.02308   0.05274   0.06213   0.07392   0.07709
  Beta virt. eigenvalues --    0.08598   0.09846   0.10712   0.11448   0.12119
  Beta virt. eigenvalues --    0.14697   0.14936   0.16976   0.17516   0.18489
  Beta virt. eigenvalues --    0.20188   0.21274   0.22899   0.23854   0.25457
  Beta virt. eigenvalues --    0.25789   0.26713   0.28394   0.28465   0.29135
  Beta virt. eigenvalues --    0.29774   0.30928   0.31417   0.31591   0.33005
  Beta virt. eigenvalues --    0.33501   0.33993   0.36335   0.37192   0.38223
  Beta virt. eigenvalues --    0.39101   0.40868   0.41640   0.45804   0.46440
  Beta virt. eigenvalues --    0.46992   0.48513   0.53419   0.54214   0.55278
  Beta virt. eigenvalues --    0.58847   0.59839   0.61698   0.62293   0.63213
  Beta virt. eigenvalues --    0.64652   0.65682   0.66759   0.67718   0.67857
  Beta virt. eigenvalues --    0.69576   0.70524   0.71903   0.74603   0.75260
  Beta virt. eigenvalues --    0.76340   0.78000   0.79208   0.81366   0.85809
  Beta virt. eigenvalues --    0.87620   0.88413   0.90895   0.92173   0.94557
  Beta virt. eigenvalues --    0.97260   0.99409   0.99513   1.00697   1.01927
  Beta virt. eigenvalues --    1.03376   1.05753   1.10594   1.12852   1.14313
  Beta virt. eigenvalues --    1.15932   1.17460   1.18810   1.20566   1.22406
  Beta virt. eigenvalues --    1.23411   1.24599   1.27918   1.30068   1.32180
  Beta virt. eigenvalues --    1.35567   1.36082   1.38097   1.39974   1.41660
  Beta virt. eigenvalues --    1.42132   1.43457   1.48233   1.49956   1.51512
  Beta virt. eigenvalues --    1.52403   1.56726   1.59037   1.60478   1.63112
  Beta virt. eigenvalues --    1.68696   1.71046   1.74627   1.82752   1.87493
  Beta virt. eigenvalues --    1.97899   2.06708   2.09997   2.24601   2.27952
  Beta virt. eigenvalues --    2.36561   2.42750   2.46383   2.50437   2.51059
  Beta virt. eigenvalues --    2.53764   2.55393   2.61418   2.63679   2.64874
  Beta virt. eigenvalues --    2.67916   2.68905   2.76909   2.79763   2.83503
  Beta virt. eigenvalues --    2.86510   2.87883   2.90725   2.94101   2.94861
  Beta virt. eigenvalues --    2.96728   3.00780   3.03698   3.04382   3.06825
  Beta virt. eigenvalues --    3.07925   3.08626   3.09777   3.10863   3.12724
  Beta virt. eigenvalues --    3.14764   3.14905   3.15514   3.19815   3.21800
  Beta virt. eigenvalues --    3.23216   3.24150   3.24454   3.25242   3.30404
  Beta virt. eigenvalues --    3.34554   3.40104   3.42463   3.42911   3.43729
  Beta virt. eigenvalues --    3.49300   3.51590   3.52346   3.52780   3.55389
  Beta virt. eigenvalues --    3.55957   3.57014   3.57777   3.61248   3.69998
  Beta virt. eigenvalues --    3.71692   3.77164   3.79047   3.83363   3.85765
  Beta virt. eigenvalues --    3.87680   3.91299   3.93896   3.96298   3.96892
  Beta virt. eigenvalues --    4.00005   4.00458   4.01399   4.01954   4.04584
  Beta virt. eigenvalues --    4.07415   4.08894   4.10410   4.10898   4.12154
  Beta virt. eigenvalues --    4.15476   4.18828   4.21297   4.22240   4.30529
  Beta virt. eigenvalues --    4.32971   4.34306   4.35268   4.35936   4.37232
  Beta virt. eigenvalues --    4.39323   4.46308   4.59189   4.62615   4.73905
  Beta virt. eigenvalues --    4.75518   4.80563   4.85735   4.87305   4.89277
  Beta virt. eigenvalues --    4.92493   4.95363   4.96260   4.99812   5.00930
  Beta virt. eigenvalues --    5.02971   5.05633   5.15545   5.16854   5.22678
  Beta virt. eigenvalues --    5.26971   5.28620   5.35601   5.41221   5.42439
  Beta virt. eigenvalues --    5.45807   5.48786   5.49430   5.64059   5.68776
  Beta virt. eigenvalues --    5.71227   5.78491   5.85894   6.00133   6.02901
  Beta virt. eigenvalues --    6.16267   6.17192   6.25040   6.54797   6.64759
  Beta virt. eigenvalues --    6.73200   6.82475   6.91693   6.93153   7.16263
  Beta virt. eigenvalues --    7.33750   7.62189  12.65891  12.74990  12.81604
  Beta virt. eigenvalues --   13.55898
          Condensed to atoms (all electrons):
               1          2          3          4          5          6
     1  C    5.270345   0.140499   0.420902   0.417848   0.009405   0.015759
     2  O    0.140499   7.944995  -0.049177  -0.024367   0.213440  -0.002132
     3  H    0.420902  -0.049177   0.495267  -0.025984   0.006776  -0.001410
     4  H    0.417848  -0.024367  -0.025984   0.486087  -0.014753  -0.001398
     5  H    0.009405   0.213440   0.006776  -0.014753   0.614778  -0.000468
     6  C    0.015759  -0.002132  -0.001410  -0.001398  -0.000468   5.451863
     7  C   -0.012951   0.000667   0.000663   0.000589   0.000214   0.270371
     8  H   -0.001661   0.000222   0.000020   0.000053   0.000026   0.423510
     9  H   -0.001875  -0.000100   0.000041   0.000019   0.000016   0.423311
    10  H    0.000771  -0.000031  -0.000004  -0.000007  -0.000000  -0.039527
    11  H   -0.000320  -0.000007  -0.000008   0.000017   0.000000  -0.026366
    12  H   -0.000359   0.000144  -0.000113   0.000025   0.000002  -0.028450
               7          8          9         10         11         12
     1  C   -0.012951  -0.001661  -0.001875   0.000771  -0.000320  -0.000359
     2  O    0.000667   0.000222  -0.000100  -0.000031  -0.000007   0.000144
     3  H    0.000663   0.000020   0.000041  -0.000004  -0.000008  -0.000113
     4  H    0.000589   0.000053   0.000019  -0.000007   0.000017   0.000025
     5  H    0.000214   0.000026   0.000016  -0.000000   0.000000   0.000002
     6  C    0.270371   0.423510   0.423311  -0.039527  -0.026366  -0.028450
     7  C    4.950118  -0.027147  -0.026092   0.394668   0.408534   0.410677
     8  H   -0.027147   0.460922  -0.025946  -0.001937  -0.006022   0.003464
     9  H   -0.026092  -0.025946   0.455401  -0.001307   0.003131  -0.006028
    10  H    0.394668  -0.001937  -0.001307   0.500288  -0.015886  -0.016243
    11  H    0.408534  -0.006022   0.003131  -0.015886   0.497263  -0.019354
    12  H    0.410677   0.003464  -0.006028  -0.016243  -0.019354   0.495969
          Atomic-Atomic Spin Densities.
               1          2          3          4          5          6
     1  C   -1.058100   0.164327  -0.004072  -0.002656   0.005207  -0.007718
     2  O    0.164327  -0.281780  -0.001672   0.000445  -0.003939   0.001021
     3  H   -0.004072  -0.001672   0.025396  -0.006991   0.000290  -0.000212
     4  H   -0.002656   0.000445  -0.006991   0.025032  -0.001653  -0.000586
     5  H    0.005207  -0.003939   0.000290  -0.001653   0.005121  -0.000201
     6  C   -0.007718   0.001021  -0.000212  -0.000586  -0.000201   1.053909
     7  C    0.008567  -0.001247  -0.000312  -0.000221  -0.000029  -0.049812
     8  H    0.001329  -0.000150  -0.000013  -0.000048  -0.000004   0.007671
     9  H    0.001326  -0.000325  -0.000011  -0.000014  -0.000005   0.007702
    10  H    0.000063   0.000001  -0.000001  -0.000002  -0.000000  -0.031694
    11  H   -0.000730   0.000044   0.000038   0.000032   0.000001  -0.008413
    12  H   -0.000354   0.000075   0.000026   0.000019   0.000002  -0.006923
               7          8          9         10         11         12
     1  C    0.008567   0.001329   0.001326   0.000063  -0.000730  -0.000354
     2  O   -0.001247  -0.000150  -0.000325   0.000001   0.000044   0.000075
     3  H   -0.000312  -0.000013  -0.000011  -0.000001   0.000038   0.000026
     4  H   -0.000221  -0.000048  -0.000014  -0.000002   0.000032   0.000019
     5  H   -0.000029  -0.000004  -0.000005  -0.000000   0.000001   0.000002
     6  C   -0.049812   0.007671   0.007702  -0.031694  -0.008413  -0.006923
     7  C   -0.037171   0.003574   0.003869   0.022647   0.009903   0.007084
     8  H    0.003574  -0.034521   0.005604  -0.000904   0.000889  -0.000004
     9  H    0.003869   0.005604  -0.034344  -0.000685   0.000020   0.000682
    10  H    0.022647  -0.000904  -0.000685   0.085933  -0.007805  -0.007304
    11  H    0.009903   0.000889   0.000020  -0.007805   0.018996   0.001362
    12  H    0.007084  -0.000004   0.000682  -0.007304   0.001362   0.017318
 Mulliken charges and spin densities:
               1          2
     1  C   -0.258364  -0.892812
     2  O   -0.224153  -0.123203
     3  H    0.153028   0.012465
     4  H    0.161872   0.013357
     5  H    0.170565   0.004790
     6  C   -0.485063   0.964744
     7  C   -0.370311  -0.033149
     8  H    0.174497  -0.016579
     9  H    0.179430  -0.016181
    10  H    0.179216   0.060248
    11  H    0.159019   0.014337
    12  H    0.160267   0.011983
 Sum of Mulliken charges =  -0.00000  -0.00000
 Mulliken charges and spin densities with hydrogens summed into heavy atoms:
               1          2
     1  C    0.056536  -0.866990
     2  O   -0.053589  -0.118413
     6  C   -0.131137   0.931984
     7  C    0.128190   0.053419
 APT charges:
               1
     1  C    0.248642
     2  O   -0.598728
     3  H    0.042917
     4  H    0.024786
     5  H    0.279558
     6  C   -0.039737
     7  C    0.043728
     8  H    0.013179
     9  H    0.015085
    10  H   -0.016811
    11  H   -0.007782
    12  H   -0.004838
 Sum of APT charges =  -0.00000
 APT charges with hydrogens summed into heavy atoms:
               1
     1  C    0.316345
     2  O   -0.319170
     6  C   -0.011473
     7  C    0.014298
 Electronic spatial extent (au):  <R**2>=           1145.7045
 Charge=             -0.0000 electrons
 Dipole moment (field-independent basis, Debye):
    X=             -1.1689    Y=              0.4046    Z=             -0.2346  Tot=              1.2590
 Quadrupole moment (field-independent basis, Debye-Ang):
   XX=            -24.7696   YY=            -28.9148   ZZ=            -25.9186
   XY=             -1.4792   XZ=             -3.1143   YZ=              0.1861
 Traceless Quadrupole moment (field-independent basis, Debye-Ang):
   XX=              1.7647   YY=             -2.3804   ZZ=              0.6157
   XY=             -1.4792   XZ=             -3.1143   YZ=              0.1861
 Octapole moment (field-independent basis, Debye-Ang**2):
  XXX=             10.4666  YYY=            149.6972  ZZZ=             62.7981  XYY=              8.6645
  XXY=             49.1242  XXZ=             23.3483  XZZ=             -2.0733  YZZ=             46.5535
  YYZ=             21.7119  XYZ=              0.9755
 Hexadecapole moment (field-independent basis, Debye-Ang**3):
 XXXX=            -85.6253 YYYY=          -1064.2116 ZZZZ=           -468.8197 XXXY=            -36.1227
 XXXZ=             -6.8611 YYYX=            -61.1666 YYYZ=           -297.9668 ZZZX=            -14.0645
 ZZZY=           -284.5934 XXYY=           -192.1091 XXZZ=            -90.6383 YYZZ=           -246.2570
 XXYZ=            -97.7760 YYXZ=             -9.5545 ZZXY=            -12.3472
 N-N= 1.068558680932D+02 E-N=-6.665477093037D+02  KE= 1.929737087791D+02
  Exact polarizability:  47.799   0.863  52.206  -2.586   5.114  53.473
 Approx polarizability:  47.264  -0.046  45.758  -1.286   1.321  49.894
                          Isotropic Fermi Contact Couplings
        Atom                 a.u.       MegaHertz       Gauss      10(-4) cm-1
     1  C(13)             -0.06261     -35.19035     -12.55679     -11.73824
     2  O(17)             -0.02201       6.67001       2.38003       2.22488
     3  H(1)               0.01092      24.41145       8.71061       8.14278
     4  H(1)               0.00959      21.43950       7.65015       7.15145
     5  H(1)               0.00225       5.02982       1.79476       1.67777
     6  C(13)              0.02135      12.00141       4.28240       4.00324
     7  C(13)             -0.02756     -15.49253      -5.52812      -5.16775
     8  H(1)              -0.01357     -30.32014     -10.81898     -10.11371
     9  H(1)              -0.01380     -30.84229     -11.00529     -10.28788
    10  H(1)               0.03119      69.70633      24.87295      23.25153
    11  H(1)               0.00850      19.00520       6.78153       6.33945
    12  H(1)               0.00688      15.38755       5.49066       5.13274
 --------------------------------------------------------
       Center         ----  Spin Dipole Couplings  ----
                      3XX-RR        3YY-RR        3ZZ-RR
 --------------------------------------------------------
     1   Atom        0.445787     -0.953938      0.508151
     2   Atom        0.387119     -0.824941      0.437822
     3   Atom       -0.048202      0.003157      0.045044
     4   Atom       -0.028955     -0.006336      0.035291
     5   Atom       -0.023676      0.015819      0.007857
     6   Atom       -0.515953      0.962647     -0.446694
     7   Atom        0.000839      0.004722     -0.005561
     8   Atom        0.050526      0.000874     -0.051400
     9   Atom       -0.069343      0.003593      0.065750
    10   Atom        0.001419     -0.002941      0.001522
    11   Atom        0.000119     -0.007247      0.007127
    12   Atom        0.017722     -0.010267     -0.007455
 --------------------------------------------------------
                        XY            XZ            YZ
 --------------------------------------------------------
     1   Atom       -0.310715     -0.034868     -0.166594
     2   Atom       -0.199177     -0.011506     -0.154516
     3   Atom       -0.002812      0.049615     -0.007714
     4   Atom        0.017519     -0.055625      0.016008
     5   Atom        0.006579      0.030433     -0.005004
     6   Atom        0.236640      0.065246      0.400001
     7   Atom        0.001895     -0.012550      0.004798
     8   Atom       -0.019269      0.048840      0.005806
     9   Atom        0.004709      0.016771     -0.024285
    10   Atom       -0.005319     -0.010827      0.006788
    11   Atom        0.004561     -0.009353     -0.009217
    12   Atom        0.002602     -0.003233     -0.004343
 --------------------------------------------------------


 ---------------------------------------------------------------------------------
              Anisotropic Spin Dipole Couplings in Principal Axis System
 ---------------------------------------------------------------------------------

       Atom             a.u.   MegaHertz   Gauss  10(-4) cm-1        Axes

              Baa    -1.0385  -139.362   -49.728   -46.486  0.2061  0.9724  0.1094
     1 C(13)  Bbb     0.5116    68.658    24.499    22.902  0.9785 -0.2042 -0.0286
              Bcc     0.5269    70.704    25.229    23.584  0.0055 -0.1129  0.9936
 
              Baa    -0.8750    63.314    22.592    21.119  0.1559  0.9808  0.1168
     2 O(17)  Bbb     0.4149   -30.023   -10.713   -10.014  0.9473 -0.1149 -0.2991
              Bcc     0.4601   -33.291   -11.879   -11.105  0.2800 -0.1573  0.9470
 
              Baa    -0.0697   -37.170   -13.263   -12.399  0.9176 -0.0067 -0.3973
     3 H(1)   Bbb     0.0021     1.130     0.403     0.377  0.0562  0.9920  0.1133
              Bcc     0.0675    36.040    12.860    12.022  0.3934 -0.1263  0.9107
 
              Baa    -0.0696   -37.127   -13.248   -12.384  0.8064 -0.3449  0.4804
     4 H(1)   Bbb     0.0018     0.965     0.344     0.322  0.3351  0.9358  0.1094
              Bcc     0.0678    36.162    12.903    12.062 -0.4872  0.0728  0.8702
 
              Baa    -0.0433   -23.117    -8.249    -7.711  0.8454 -0.1377 -0.5161
     5 H(1)   Bbb     0.0169     9.010     3.215     3.005  0.1636  0.9865  0.0048
              Bcc     0.0264    14.108     5.034     4.706  0.5085 -0.0885  0.8565
 
              Baa    -0.5554   -74.527   -26.593   -24.860  0.7499  0.0568 -0.6591
     6 C(13)  Bbb    -0.5500   -73.810   -26.337   -24.620  0.6444 -0.2881  0.7084
              Bcc     1.1054   148.337    52.930    49.480  0.1497  0.9559  0.2526
 
              Baa    -0.0165    -2.211    -0.789    -0.737  0.5877 -0.2283  0.7762
     7 C(13)  Bbb     0.0055     0.737     0.263     0.246  0.3471  0.9377  0.0130
              Bcc     0.0110     1.474     0.526     0.492  0.7309 -0.2618 -0.6303
 
              Baa    -0.0732   -39.060   -13.938   -13.029 -0.3847 -0.1711  0.9070
     8 H(1)   Bbb    -0.0004    -0.208    -0.074    -0.069  0.1350  0.9617  0.2387
              Bcc     0.0736    39.268    14.012    13.099  0.9131 -0.2143  0.3468
 
              Baa    -0.0722   -38.524   -13.746   -12.850  0.9848 -0.1055 -0.1383
     9 H(1)   Bbb    -0.0033    -1.781    -0.636    -0.594  0.1429  0.9441  0.2972
              Bcc     0.0755    40.305    14.382    13.444  0.0992 -0.3124  0.9448
 
              Baa    -0.0097    -5.156    -1.840    -1.720  0.5956 -0.2865  0.7504
    10 H(1)   Bbb    -0.0065    -3.459    -1.234    -1.154  0.4962  0.8659 -0.0632
              Bcc     0.0161     8.616     3.074     2.874 -0.6317  0.4100  0.6579
 
              Baa    -0.0117    -6.268    -2.236    -2.091  0.0008  0.8984  0.4391
    11 H(1)   Bbb    -0.0060    -3.210    -1.146    -1.071  0.8614 -0.2236  0.4561
              Bcc     0.0178     9.478     3.382     3.162 -0.5080 -0.3779  0.7741
 
              Baa    -0.0134    -7.164    -2.556    -2.390 -0.0069  0.8105  0.5857
    12 H(1)   Bbb    -0.0051    -2.695    -0.962    -0.899  0.1791 -0.5752  0.7982
              Bcc     0.0185     9.859     3.518     3.289  0.9838  0.1104 -0.1411
 

 ---------------------------------------------------------------------------------

 Entering OneElI...
 Calculate overlap and kinetic energy integrals
    NBasis = 300  MinDer = 2  MaxDer = 2
 Requested accuracy = 0.1000D-12
 PrsmSu:  NPrtUS=  32 ThrOK=T IAlg=1 NPAlg=1 LenDen=           0.
 PRISM was handed    12995848 working-precision words and  4991 shell-pairs
 PRISM was handed    12995848 working-precision words and  4991 shell-pairs
 PRISM was handed    12995848 working-precision words and  4991 shell-pairs
 PRISM was handed    12995848 working-precision words and  4991 shell-pairs
 PRISM was handed    12995848 working-precision words and  4991 shell-pairs
 PRISM was handed    12995848 working-precision words and  4991 shell-pairs
 PRISM was handed    12995848 working-precision words and  4991 shell-pairs
 PRISM was handed    12995848 working-precision words and  4991 shell-pairs
 PRISM was handed    12995848 working-precision words and  4991 shell-pairs
 PRISM was handed    12995848 working-precision words and  4991 shell-pairs
 PRISM was handed    12995848 working-precision words and  4991 shell-pairs
 PRISM was handed    12995848 working-precision words and  4991 shell-pairs
 PRISM was handed    12995848 working-precision words and  4991 shell-pairs
 PRISM was handed    12995848 working-precision words and  4991 shell-pairs
 PRISM was handed    12995848 working-precision words and  4991 shell-pairs
 PRISM was handed    12995848 working-precision words and  4991 shell-pairs
 PRISM was handed    12995848 working-precision words and  4991 shell-pairs
 PRISM was handed    12995848 working-precision words and  4991 shell-pairs
 PRISM was handed    12995848 working-precision words and  4991 shell-pairs
 PRISM was handed    12995848 working-precision words and  4991 shell-pairs
 PRISM was handed    12995848 working-precision words and  4991 shell-pairs
 PRISM was handed    12995848 working-precision words and  4991 shell-pairs
 PRISM was handed    12995848 working-precision words and  4991 shell-pairs
 PRISM was handed    12995848 working-precision words and  4991 shell-pairs
 PRISM was handed    12995848 working-precision words and  4991 shell-pairs
 PRISM was handed    12995848 working-precision words and  4991 shell-pairs
 PRISM was handed    12995848 working-precision words and  4991 shell-pairs
 PRISM was handed    12995848 working-precision words and  4991 shell-pairs
 PRISM was handed    12995848 working-precision words and  4991 shell-pairs
 PRISM was handed    12995848 working-precision words and  4991 shell-pairs
 Prism:   IPart=     0 DynPar=F LinDyn=F Incr=           1.
 PRISM was handed    12995848 working-precision words and  4991 shell-pairs
 PRISM was handed    12995848 working-precision words and  4991 shell-pairs
 IPart= 18 NShTot=         147 NBatch=          21 AvBLen=         7.0
 IPart= 22 NShTot=         144 NBatch=          21 AvBLen=         6.9
 IPart= 12 NShTot=         154 NBatch=          25 AvBLen=         6.2
 IPart= 29 NShTot=         141 NBatch=          20 AvBLen=         7.0
 IPart= 14 NShTot=         150 NBatch=          21 AvBLen=         7.1
 IPart=  1 NShTot=         194 NBatch=          55 AvBLen=         3.5
 IPart=  3 NShTot=         186 NBatch=          47 AvBLen=         4.0
 IPart= 30 NShTot=         141 NBatch=          20 AvBLen=         7.0
 IPart= 10 NShTot=         158 NBatch=          27 AvBLen=         5.9
 IPart= 19 NShTot=         145 NBatch=          21 AvBLen=         6.9
 IPart= 23 NShTot=         144 NBatch=          21 AvBLen=         6.9
 IPart= 27 NShTot=         141 NBatch=          20 AvBLen=         7.0
 IPart= 28 NShTot=         141 NBatch=          20 AvBLen=         7.0
 IPart=  8 NShTot=         162 NBatch=          30 AvBLen=         5.4
 IPart= 21 NShTot=         144 NBatch=          21 AvBLen=         6.9
 IPart=  6 NShTot=         170 NBatch=          35 AvBLen=         4.9
 IPart=  5 NShTot=         173 NBatch=          36 AvBLen=         4.8
 IPart=  2 NShTot=         189 NBatch=          50 AvBLen=         3.8
 IPart= 25 NShTot=         143 NBatch=          21 AvBLen=         6.8
 IPart= 31 NShTot=         139 NBatch=          20 AvBLen=         7.0
 IPart= 26 NShTot=         141 NBatch=          20 AvBLen=         7.0
 IPart= 15 NShTot=         149 NBatch=          21 AvBLen=         7.1
 IPart= 11 NShTot=         156 NBatch=          26 AvBLen=         6.0
 IPart=  0 NShTot=         198 NBatch=          59 AvBLen=         3.4
 IPart=  4 NShTot=         176 NBatch=          37 AvBLen=         4.8
 IPart= 13 NShTot=         153 NBatch=          24 AvBLen=         6.4
 IPart= 24 NShTot=         144 NBatch=          21 AvBLen=         6.9
 IPart=  9 NShTot=         160 NBatch=          29 AvBLen=         5.5
 IPart= 17 NShTot=         147 NBatch=          21 AvBLen=         7.0
 IPart=  7 NShTot=         168 NBatch=          34 AvBLen=         4.9
 IPart= 16 NShTot=         148 NBatch=          21 AvBLen=         7.0
 IPart= 20 NShTot=         145 NBatch=          21 AvBLen=         6.9
 PrSmSu:  NxtVal=             33.
 Entering OneElI...
 Calculate potential energy integrals
    NBasis = 300  MinDer = 2  MaxDer = 2
 Requested accuracy = 0.1000D-12
 PrsmSu:  NPrtUS=  32 ThrOK=T IAlg=1 NPAlg=1 LenDen=           0.
 PRISM was handed    13014369 working-precision words and  4472 shell-pairs
 PRISM was handed    13014369 working-precision words and  4472 shell-pairs
 PRISM was handed    13014369 working-precision words and  4472 shell-pairs
 PRISM was handed    13014369 working-precision words and  4472 shell-pairs
 PRISM was handed    13014369 working-precision words and  4472 shell-pairs
 PRISM was handed    13014369 working-precision words and  4472 shell-pairs
 PRISM was handed    13014369 working-precision words and  4472 shell-pairs
 PRISM was handed    13014369 working-precision words and  4472 shell-pairs
 PRISM was handed    13014369 working-precision words and  4472 shell-pairs
 PRISM was handed    13014369 working-precision words and  4472 shell-pairs
 PRISM was handed    13014369 working-precision words and  4472 shell-pairs
 PRISM was handed    13014369 working-precision words and  4472 shell-pairs
 PRISM was handed    13014369 working-precision words and  4472 shell-pairs
 PRISM was handed    13014369 working-precision words and  4472 shell-pairs
 PRISM was handed    13014369 working-precision words and  4472 shell-pairs
 PRISM was handed    13014369 working-precision words and  4472 shell-pairs
 PRISM was handed    13014369 working-precision words and  4472 shell-pairs
 PRISM was handed    13014369 working-precision words and  4472 shell-pairs
 PRISM was handed    13014369 working-precision words and  4472 shell-pairs
 PRISM was handed    13014369 working-precision words and  4472 shell-pairs
 PRISM was handed    13014369 working-precision words and  4472 shell-pairs
 PRISM was handed    13014369 working-precision words and  4472 shell-pairs
 PRISM was handed    13014369 working-precision words and  4472 shell-pairs
 PRISM was handed    13014369 working-precision words and  4472 shell-pairs
 PRISM was handed    13014369 working-precision words and  4472 shell-pairs
 PRISM was handed    13014369 working-precision words and  4472 shell-pairs
 PRISM was handed    13014369 working-precision words and  4472 shell-pairs
 PRISM was handed    13014369 working-precision words and  4472 shell-pairs
 PRISM was handed    13014369 working-precision words and  4472 shell-pairs
 PRISM was handed    13014369 working-precision words and  4472 shell-pairs
 PRISM was handed    13014369 working-precision words and  4472 shell-pairs
 Prism:   IPart=     0 DynPar=F LinDyn=F Incr=          16.
 PRISM was handed    13014369 working-precision words and  4472 shell-pairs
 IPart= 19 NShTot=        1608 NBatch=         134 AvBLen=        12.0
 IPart= 30 NShTot=        1500 NBatch=         125 AvBLen=        12.0
 IPart= 28 NShTot=        1500 NBatch=         125 AvBLen=        12.0
 IPart= 11 NShTot=        1692 NBatch=         141 AvBLen=        12.0
 IPart=  6 NShTot=        1812 NBatch=         151 AvBLen=        12.0
 IPart= 31 NShTot=        1500 NBatch=         125 AvBLen=        12.0
 IPart=  1 NShTot=        2052 NBatch=         171 AvBLen=        12.0
 IPart=  8 NShTot=        1716 NBatch=         143 AvBLen=        12.0
 IPart= 23 NShTot=        1536 NBatch=         128 AvBLen=        12.0
 IPart= 22 NShTot=        1560 NBatch=         130 AvBLen=        12.0
 IPart= 27 NShTot=        1500 NBatch=         125 AvBLen=        12.0
 IPart=  5 NShTot=        1860 NBatch=         155 AvBLen=        12.0
 IPart= 14 NShTot=        1656 NBatch=         138 AvBLen=        12.0
 IPart=  2 NShTot=        1980 NBatch=         165 AvBLen=        12.0
 IPart= 25 NShTot=        1512 NBatch=         126 AvBLen=        12.0
 IPart=  7 NShTot=        1800 NBatch=         150 AvBLen=        12.0
 IPart=  3 NShTot=        1944 NBatch=         162 AvBLen=        12.0
 IPart= 17 NShTot=        1608 NBatch=         134 AvBLen=        12.0
 IPart= 24 NShTot=        1512 NBatch=         126 AvBLen=        12.0
 IPart= 20 NShTot=        1596 NBatch=         133 AvBLen=        12.0
 IPart= 12 NShTot=        1692 NBatch=         141 AvBLen=        12.0
 IPart= 13 NShTot=        1680 NBatch=         140 AvBLen=        12.0
 IPart=  0 NShTot=        2124 NBatch=         177 AvBLen=        12.0
 IPart= 10 NShTot=        1692 NBatch=         141 AvBLen=        12.0
 IPart= 29 NShTot=        1500 NBatch=         125 AvBLen=        12.0
 IPart= 18 NShTot=        1608 NBatch=         134 AvBLen=        12.0
 IPart= 26 NShTot=        1500 NBatch=         125 AvBLen=        12.0
 IPart=  4 NShTot=        1872 NBatch=         156 AvBLen=        12.0
 IPart=  9 NShTot=        1704 NBatch=         142 AvBLen=        12.0
 IPart= 16 NShTot=        1608 NBatch=         134 AvBLen=        12.0
 IPart= 21 NShTot=        1596 NBatch=         133 AvBLen=        12.0
 IPart= 15 NShTot=        1644 NBatch=         137 AvBLen=        12.0
 PrSmSu:  NxtVal=            513.
 Polarizability after L701:
                1             2             3 
      1  0.477992D+02
      2  0.863492D+00  0.522057D+02
      3 -0.258612D+01  0.511437D+01  0.534734D+02
 Dipole Derivatives after L701:
                 1             2             3             4             5 
      1   0.159042D+00 -0.122717D+00 -0.509894D-01 -0.257823D+00  0.271744D-01
      2  -0.130834D+00 -0.320607D+00  0.689359D-01  0.311364D-01 -0.330743D+00
      3  -0.508043D-01 -0.573033D-01  0.907491D+00  0.843407D-01 -0.679241D-01
                 6             7             8             9            10 
      1   0.645055D-01 -0.480678D-01 -0.126449D-02  0.408815D-02 -0.327107D-01
      2  -0.154134D+00  0.156161D-01  0.164939D+00  0.284267D-01  0.805165D-01
      3  -0.120762D+01  0.583804D-01  0.342744D-01  0.118795D-01 -0.534650D-01
                11            12            13            14            15 
      1   0.925566D-01  0.347566D-02  0.185288D+00  0.180609D-02 -0.242794D-01
      2   0.132063D+00  0.353358D-01 -0.248944D-02  0.343352D+00  0.120205D-01
      3   0.513313D-01 -0.249946D-01 -0.438972D-01  0.282185D-01  0.310035D+00
                16            17            18            19            20 
      1   0.100808D+00 -0.790157D-01 -0.183111D-01  0.168457D-01  0.467393D-01
      2  -0.824772D-01 -0.316948D+00 -0.832451D-01  0.209860D-01  0.101121D+00
      3  -0.245703D-01 -0.945597D-01  0.969288D-01  0.216130D-01 -0.204143D-01
                21            22            23            24            25 
      1   0.303276D-01 -0.102126D+00  0.360665D-01 -0.308549D-01  0.609517D-02
      2   0.672023D-02  0.290816D-01  0.129979D+00  0.364424D-01  0.210253D-01
      3   0.132174D-01 -0.194217D-02  0.352188D-01  0.116826D-01  0.184877D-02
                26            27            28            29            30 
      1   0.120948D-01  0.293433D-01  0.391162D-01  0.413960D-01  0.572252D-01
      2   0.121553D+00  0.607897D-01  0.150417D-01 -0.913337D-01 -0.923390D-01
      3   0.696948D-01 -0.823914D-01  0.478251D-01 -0.112735D+00  0.178581D-02
                31            32            33            34            35 
      1   0.351388D-01 -0.615073D-02  0.162011D-01 -0.101607D+00 -0.486859D-01
      2   0.308281D-01 -0.160390D-01  0.968015D-01 -0.284311D-01  0.826651D-01
      3   0.643751D-02  0.129889D+00 -0.424448D-01 -0.457666D-01  0.430961D-02
                36 
      1  -0.807316D-01
      2  -0.157550D-01
      3   0.442840D-02
 Hessian after L701:
                1             2             3             4             5 
      1  0.102366D+02
      2  0.559203D+00  0.126121D+02
      3  0.283651D+00  0.932211D-01  0.355581D+01
      4 -0.674076D+01  0.639563D-01 -0.117811D+00  0.912923D+01
      5  0.540799D-01 -0.659905D+01  0.788072D-01  0.141051D+00  0.114214D+02
      6 -0.201939D+00  0.814659D-01  0.167091D+01  0.149550D+01 -0.359370D+00
      7 -0.144414D+01 -0.562739D-01 -0.960554D+00  0.131437D+00  0.363325D-02
      8  0.193388D-02 -0.324963D+01 -0.191083D-01 -0.381666D-02  0.210031D-01
      9 -0.988190D+00  0.250433D-01 -0.272833D+01  0.136035D-01 -0.979273D-02
     10 -0.181564D+01 -0.632527D+00  0.938534D+00  0.114023D+00 -0.670106D-01
     11 -0.676635D+00 -0.286665D+01 -0.496378D+00 -0.716571D-01  0.217876D-01
     12  0.969121D+00 -0.470988D+00 -0.248391D+01  0.777232D-01 -0.602644D-01
     13  0.110449D-01 -0.583775D-02 -0.176016D+00 -0.246132D+01 -0.169049D+00
     14 -0.504846D-02 -0.140208D+00  0.554678D-02 -0.183078D+00 -0.496487D+01
     15 -0.856764D-01 -0.504395D-03  0.556847D-01 -0.151123D+01  0.911916D-01
     16 -0.134481D+00  0.615960D-01  0.258298D-01 -0.881785D-01  0.231680D-01
     17  0.794444D-01  0.121144D+00  0.149664D+00  0.439955D-01  0.545972D-01
     18  0.398415D-01  0.145743D+00 -0.650247D-01  0.443012D-01  0.143229D+00
     19 -0.858938D-01  0.617419D-02  0.460898D-02 -0.616753D-01  0.642051D-02
     20 -0.177976D-01  0.743543D-01  0.129702D+00 -0.327577D-02  0.156094D-01
     21 -0.148811D-01  0.920084D-01 -0.671441D-02 -0.759525D-02  0.792517D-01
     22  0.715165D-02  0.251118D-01  0.245640D-01  0.794082D-02  0.226777D-01
     23  0.848196D-02  0.320968D-02  0.908928D-02  0.557119D-02 -0.266337D-03
     24  0.101845D-01  0.136221D-01  0.177272D-02  0.124427D-01  0.165828D-01
     25 -0.125292D-01  0.562591D-02  0.160772D-02 -0.127773D-01  0.534404D-02
     26  0.920680D-02  0.273592D-01  0.107522D-01  0.115078D-01  0.266394D-01
     27 -0.518350D-02 -0.223225D-01 -0.221183D-01 -0.589897D-02 -0.131780D-01
     28 -0.659613D-02 -0.240140D-02 -0.256390D-02 -0.473239D-02 -0.145783D-02
     29 -0.268388D-02  0.152732D-01  0.215106D-01  0.143406D-02  0.108917D-01
     30 -0.175440D-02  0.134987D-01  0.661401D-02  0.517541D-03  0.112500D-01
     31 -0.124509D-01  0.307859D-03  0.837955D-03 -0.721736D-02  0.431621D-03
     32 -0.540845D-03 -0.649719D-02  0.185222D-02 -0.157516D-02 -0.849733D-02
     33 -0.344760D-02  0.238962D-01  0.277729D-01  0.166273D-02  0.163556D-01
     34 -0.230275D-02 -0.249350D-01 -0.226886D-01 -0.596668D-02 -0.192891D-01
     35 -0.964443D-02  0.863010D-02  0.153410D-01 -0.411328D-02  0.789279D-03
     36 -0.172570D-02  0.531616D-02 -0.124750D-01 -0.320899D-02  0.593689D-02
                6             7             8             9            10 
      6  0.241430D+01
      7 -0.512690D-01  0.145348D+01
      8  0.112001D-01 -0.752862D-01  0.315755D+01
      9 -0.876150D-01  0.105641D+01 -0.230468D-01  0.272109D+01
     10  0.133886D+00 -0.183949D+00  0.560194D-01 -0.219671D-01  0.187933D+01
     11 -0.829152D-01  0.520373D-01  0.543437D-01  0.664168D-03  0.704285D+00
     12  0.163145D-01 -0.904117D-02 -0.269893D-02  0.812483D-01 -0.103329D+01
     13 -0.140407D+01  0.443729D-01 -0.655974D-03 -0.591689D-01  0.253325D-01
     14  0.100073D+00 -0.320922D-02 -0.176272D-01  0.364846D-02 -0.161619D-02
     15 -0.407305D+01 -0.717178D-01  0.111341D-02  0.417883D-01  0.678495D-02
     16  0.169143D-01 -0.463822D-03  0.107763D-01  0.413842D-03 -0.725845D-02
     17  0.110818D+00  0.328733D-01  0.110323D-01 -0.238860D-02 -0.217600D-01
     18  0.191758D-01  0.179916D-01  0.107678D-01 -0.156164D-01 -0.113307D-01
     19  0.457929D-02 -0.178395D-02  0.771596D-02 -0.549624D-03 -0.838709D-02
     20  0.855107D-01  0.288963D-01  0.156801D-01  0.642623D-02 -0.248615D-01
     21  0.287341D-01  0.122155D-01  0.167613D-01 -0.891334D-02 -0.862610D-02
     22  0.219910D-01  0.111526D-01  0.398706D-02 -0.240799D-02 -0.841130D-02
     23  0.953155D-02  0.217481D-02  0.341626D-03  0.397162D-03 -0.398578D-03
     24  0.795228D-02  0.454870D-02  0.157980D-02 -0.200411D-02 -0.246730D-02
     25  0.341778D-02  0.553788D-03  0.197573D-02 -0.441510D-03 -0.141183D-02
     26  0.200015D-01  0.836892D-02  0.397931D-02 -0.257993D-02 -0.542883D-02
     27 -0.192754D-01 -0.933532D-02 -0.325928D-02  0.195373D-02  0.703086D-02
     28 -0.145436D-02 -0.111537D-02  0.132874D-03  0.193323D-03  0.370016D-03
     29  0.132873D-01  0.721478D-02  0.251957D-02 -0.129888D-02 -0.609666D-02
     30  0.548342D-02  0.386567D-02  0.193173D-02 -0.154194D-02 -0.318311D-02
     31  0.105411D-02 -0.208446D-03  0.868486D-03  0.304628D-03 -0.117329D-02
     32 -0.159060D-02 -0.255767D-02 -0.102433D-02  0.211219D-02  0.196520D-02
     33  0.200591D-01  0.920850D-02  0.438526D-02 -0.108504D-02 -0.760754D-02
     34 -0.186078D-01 -0.933379D-02 -0.365084D-02  0.180084D-02  0.716983D-02
     35  0.119874D-01  0.212844D-02  0.183158D-02  0.815401D-03 -0.257002D-02
     36 -0.299437D-02 -0.232199D-02  0.373835D-03 -0.974955D-03  0.223234D-02
               11            12            13            14            15 
     11  0.269640D+01
     12  0.527582D+00  0.248786D+01
     13  0.309139D-02 -0.369380D-02  0.238871D+01
     14  0.234335D-01  0.127872D-01  0.195707D+00  0.508977D+01
     15  0.122879D-01 -0.711677D-01  0.166613D+01 -0.146298D+00  0.401936D+01
     16 -0.559489D-02  0.277010D-02 -0.178390D-02 -0.182136D-02 -0.487013D-02
     17  0.328330D-01 -0.521449D-02 -0.912344D-02  0.482895D-02  0.184009D-01
     18  0.186824D-01 -0.179061D-01 -0.126996D-01  0.135029D-01  0.150784D-01
     19 -0.548484D-02 -0.289776D-02 -0.435104D-02 -0.830317D-03  0.111657D-03
     20  0.218628D-01  0.102395D-02 -0.839444D-02  0.163498D-02  0.137479D-01
     21  0.136040D-01 -0.848236D-02 -0.709746D-02  0.689421D-02  0.794296D-02
     22  0.919332D-02 -0.311940D-02 -0.507584D-02  0.243001D-02  0.679526D-02
     23  0.327767D-02  0.633233D-03 -0.930494D-04  0.165184D-03  0.135300D-02
     24  0.484600D-02 -0.278074D-02 -0.212468D-02  0.217764D-02  0.363141D-02
     25 -0.240835D-03  0.166401D-03 -0.737086D-03 -0.157981D-03 -0.183001D-03
     26  0.783475D-02 -0.335586D-02 -0.357483D-02  0.269720D-02  0.552049D-02
     27 -0.741602D-02  0.271807D-02  0.404530D-02 -0.130561D-02 -0.572503D-02
     28 -0.102096D-02  0.214925D-03  0.245079D-03 -0.321262D-03 -0.707430D-03
     29  0.498680D-02 -0.204680D-02 -0.353894D-02  0.120170D-02  0.448946D-02
     30  0.293217D-02 -0.176697D-02 -0.221348D-02  0.114331D-02  0.257877D-02
     31 -0.682664D-03 -0.445911D-03 -0.455795D-03 -0.121463D-03 -0.463956D-05
     32 -0.188811D-02  0.219723D-02  0.192697D-02 -0.930714D-03 -0.216960D-02
     33  0.726123D-02 -0.208047D-02 -0.395687D-02  0.166617D-02  0.521601D-02
     34 -0.729080D-02  0.248917D-02  0.401904D-02 -0.193301D-02 -0.543069D-02
     35  0.177733D-02  0.344632D-03 -0.458525D-03 -0.101928D-03  0.867259D-03
     36 -0.115101D-02 -0.437613D-04  0.863378D-03  0.163436D-03 -0.134072D-02
               16            17            18            19            20 
     16  0.617185D+01
     17  0.304139D+00  0.996960D+01
     18  0.132236D+01  0.444810D+00  0.675567D+01
     19 -0.188177D+01  0.170437D-02 -0.213035D+01  0.921340D+01
     20 -0.373159D-01 -0.456353D+01  0.493592D-01  0.682049D-01  0.107245D+02
     21 -0.215837D+01  0.205361D-01 -0.295025D+01  0.126938D+01 -0.196131D+00
     22 -0.103281D+01 -0.413739D+00  0.648403D+00  0.529538D-01 -0.114642D-01
     23 -0.352741D+00 -0.292385D+01 -0.111647D+00 -0.192195D-01 -0.417073D-02
     24  0.644531D+00 -0.126124D+00 -0.283515D+01  0.510882D-01 -0.857062D-02
     25 -0.309302D+01 -0.143616D-01  0.640320D-01 -0.132543D-01 -0.102491D-01
     26 -0.303002D-01 -0.284627D+01 -0.710365D+00 -0.339395D-02  0.184550D-02
     27  0.114662D+00 -0.631455D+00 -0.987648D+00 -0.500366D-02 -0.171688D-01
     28 -0.179386D-01 -0.267142D-01  0.368035D-02 -0.278377D+01 -0.254945D+00
     29 -0.497021D-01  0.121561D+00  0.898733D-01 -0.253950D+00 -0.130658D+01
     30 -0.526220D-02  0.724369D-01  0.339763D-01 -0.141935D+00  0.857471D+00
     31 -0.189863D-01 -0.234508D-02  0.328276D-02 -0.298463D+01 -0.718522D-01
     32  0.337841D-01  0.358955D-01 -0.953396D-01 -0.931386D-01 -0.201219D+01
     33 -0.319832D-01 -0.598701D-01  0.564619D-01  0.118423D+00 -0.108534D+01
     34  0.104835D+00  0.258868D-01  0.104874D-01 -0.144083D+01  0.343054D+00
     35  0.440123D-01 -0.178536D-01  0.138466D-02  0.285797D+00 -0.296904D+01
     36  0.730023D-01  0.838611D-02 -0.876435D-02  0.832546D+00  0.163975D+00
               21            22            23            24            25 
     21  0.967782D+01
     22  0.147042D-01  0.919541D+00
     23  0.105121D-02  0.331458D+00  0.288463D+01
     24  0.383598D-02 -0.627604D+00  0.435958D-01  0.289944D+01
     25  0.354872D-01 -0.888470D-02  0.398176D-01 -0.114144D+00  0.316169D+01
     26 -0.253792D-01  0.352515D-01  0.398318D-01  0.510608D-01 -0.288348D-01
     27  0.582374D-01 -0.844860D-01  0.419352D-01 -0.592521D-01  0.588694D-02
     28 -0.140737D+00  0.421864D-02 -0.336052D-02  0.171673D-02 -0.191876D-02
     29  0.849373D+00 -0.171498D-01  0.422877D-02 -0.234911D-02 -0.223832D-02
     30 -0.234695D+01 -0.884932D-02  0.235990D-02 -0.296848D-02 -0.137449D-02
     31  0.902762D-01 -0.944826D-02 -0.659491D-02  0.130547D-01 -0.866697D-02
     32 -0.100795D+01  0.897655D-02  0.335298D-02  0.354187D-02  0.676535D-02
     33 -0.187839D+01 -0.185994D-02  0.323692D-02 -0.352001D-02 -0.108769D-01
     34  0.915245D+00  0.616670D-01 -0.509560D-02  0.877382D-02 -0.903910D-02
     35  0.149985D+00  0.326715D-02 -0.107525D-01  0.370027D-04 -0.344599D-02
     36 -0.257686D+01  0.118697D-01 -0.153578D-02 -0.109560D-01  0.164220D-01
               26            27            28            29            30 
     26  0.273518D+01
     27  0.669448D+00  0.978045D+00
     28  0.427376D-03 -0.523133D-02  0.278653D+01
     29 -0.515480D-02  0.177425D-01  0.330839D+00  0.121210D+01
     30 -0.145421D-03  0.147754D-01  0.174927D+00 -0.963476D+00  0.226936D+01
     31  0.553874D-02 -0.118568D-01  0.153868D-01  0.504486D-02 -0.434804D-02
     32  0.601914D-03 -0.306818D-01  0.111725D-01 -0.525416D-01  0.419765D-01
     33 -0.209119D-01  0.455925D-01  0.137078D-02 -0.116437D-01  0.283290D-01
     34  0.123155D-02 -0.462972D-02  0.931682D-02 -0.917334D-02 -0.103903D-01
     35  0.544917D-02 -0.233898D-02 -0.523507D-01 -0.848896D-02 -0.413785D-01
     36  0.595499D-02 -0.730403D-02 -0.314089D-01 -0.154622D-01 -0.788851D-02
               31            32            33            34            35 
     31  0.302832D+01
     32  0.231879D-01  0.201759D+01
     33 -0.336213D-01  0.108123D+01  0.173128D+01
     34 -0.461750D-03  0.100336D-01 -0.373119D-01  0.128093D+01
     35  0.462168D-01  0.261370D-01  0.397412D-01 -0.308839D+00  0.296163D+01
     36 -0.585336D-01  0.482820D-02 -0.296290D-01 -0.839737D+00 -0.176786D+00
               36 
     36  0.265923D+01
 ICntrl=    100127.
 Calling FoFJK, ICntrl=    100127 FMM=F ISym2X=0 I1Cent= 0 IOpClX= 1 NMat=1 NMatS=1 NMatT=0.
 FoFJK:  IHMeth= 1 ICntrl=  100127 DoSepK=T KAlg= 0 I1Cent=   0 FoldK=F
 IRaf=         1 NMat=   1 IRICut=       1 DoRegI=T DoRafI=F ISym2E= 0.
 FoFCou: FMM=F IPFlag=           0 FMFlag=      100000 FMFlg1=         800
         NFxFlg=           0 DoJE=F BraDBF=F KetDBF=F FulRan=T
         wScrn=  0.000000 ICntrl=  100527 IOpCl=  0 I1Cent=           0 NGrid=           0
         NMat0=    1 NMatS0=      1 NMatT0=    0 NMatD0=    1 NMtDS0=    0 NMtDT0=    0
 Symmetry not used in FoFCou.
 FoFCou:  KetSym=F NOpSet=  1 NOpAb=1 NOp=  1.
 FoFCou:  CnvScl= 1.00D+00 Thresh= 1.00D-10 IAcrcy=      10.
 PrismS was handed   418929218 working-precision words and  4791 shell-pairs
 FoFCou: LinMIO=F DoNuc=F BraDBF=F KetDBF=F HaveP=T PDBF=F HaveZ=T HaveW=F
         NIJTC =      10 NIJTAt=       0 NIJTCD=       0 NIJTT =      10
         IJTBeg=       1 IJTEnd=      10 KLTBeg=       1 KLTEnd=      10
         IPTBeg=       1 IPTEnd=      10 IPTBCv=       1 IPTECv=      10
         IZTBeg=       1 IZTEnd=      10 IZTBCv=       1 IZTECv=      10
         IWTBeg=      11 IWTEnd=      10 IWTBCv=      11 IWTECv=      10
         INTBeg=       1 INTEnd=       0 IFTBCv=       1 IFTECv=      10
 NCel replicated for PrismC:     1
 CoulSu:  IncDef=  1024 NBBP=       11479236 NTPThr=   100 NPartT=   32 Incr=        1024 LDynOK=F.
 CoulSu:  NPrtUS=  32 ThrOK=T IAlg=1 NPAlg=1 LenDen=           0 LWGrdD=           0 DoCopy=F.
 Enter PrismC: JobTyp=22 DoJE=F Cont=F.
 Enter PrismC: JobTyp=22 DoJE=F Cont=F.
 PrismC was handed    13005172 working-precision words and  4791 shell-pairs
 Enter PrismC: JobTyp=22 DoJE=F Cont=F.
 Enter PrismC: JobTyp=22 DoJE=F Cont=F.
 Enter PrismC: JobTyp=22 DoJE=F Cont=F.
 Enter PrismC: JobTyp=22 DoJE=F Cont=F.
 Enter PrismC: JobTyp=22 DoJE=F Cont=F.
 PrismC was handed    13005172 working-precision words and  4791 shell-pairs
 Enter PrismC: JobTyp=22 DoJE=F Cont=F.
 Enter PrismC: JobTyp=22 DoJE=F Cont=F.
 Enter PrismC: JobTyp=22 DoJE=F Cont=F.
 Enter PrismC: JobTyp=22 DoJE=F Cont=F.
 Enter PrismC: JobTyp=22 DoJE=F Cont=F.
 Enter PrismC: JobTyp=22 DoJE=F Cont=F.
 Enter PrismC: JobTyp=22 DoJE=F Cont=F.
 Enter PrismC: JobTyp=22 DoJE=F Cont=F.
 PrismC was handed    13005172 working-precision words and  4791 shell-pairs
 PrismC was handed    13005172 working-precision words and  4791 shell-pairs
 Enter PrismC: JobTyp=22 DoJE=F Cont=F.
 PrismC was handed    13005172 working-precision words and  4791 shell-pairs
 PrismC was handed    13005172 working-precision words and  4791 shell-pairs
 Enter PrismC: JobTyp=22 DoJE=F Cont=F.
 Enter PrismC: JobTyp=22 DoJE=F Cont=F.
 Enter PrismC: JobTyp=22 DoJE=F Cont=F.
 PrismC was handed    13005172 working-precision words and  4791 shell-pairs
 Enter PrismC: JobTyp=22 DoJE=F Cont=F.
 PrismC was handed    13005172 working-precision words and  4791 shell-pairs
 Enter PrismC: JobTyp=22 DoJE=F Cont=F.
 Enter PrismC: JobTyp=22 DoJE=F Cont=F.
 PrismC was handed    13005172 working-precision words and  4791 shell-pairs
 Enter PrismC: JobTyp=22 DoJE=F Cont=F.
 PrismC was handed    13005172 working-precision words and  4791 shell-pairs
 Enter PrismC: JobTyp=22 DoJE=F Cont=F.
 PrismC was handed    13005172 working-precision words and  4791 shell-pairs
 Enter PrismC: JobTyp=22 DoJE=F Cont=F.
 PrismC was handed    13005172 working-precision words and  4791 shell-pairs
 Enter PrismC: JobTyp=22 DoJE=F Cont=F.
 PrismC was handed    13005172 working-precision words and  4791 shell-pairs
 Enter PrismC: JobTyp=22 DoJE=F Cont=F.
 PrismC was handed    13005172 working-precision words and  4791 shell-pairs
 Enter PrismC: JobTyp=22 DoJE=F Cont=F.
 Enter PrismC: JobTyp=22 DoJE=F Cont=F.
 PrismC was handed    13005172 working-precision words and  4791 shell-pairs
 Enter PrismC: JobTyp=22 DoJE=F Cont=F.
 PrismC was handed    13005172 working-precision words and  4791 shell-pairs
 PrismC was handed    13005172 working-precision words and  4791 shell-pairs
 PrismC was handed    13005172 working-precision words and  4791 shell-pairs
 Enter PrismC: JobTyp=22 DoJE=F Cont=F.
 PrismC was handed    13005172 working-precision words and  4791 shell-pairs
 PrismC:  IPart=     0 DynPar=T LinDyn=F Incr=        1024 UseFst=F UseS4=T IGathr=2.
 PrismC was handed    13005172 working-precision words and  4791 shell-pairs
 PrismC was handed    13005172 working-precision words and  4791 shell-pairs
 Enter PrismC: JobTyp=22 DoJE=F Cont=F.
 PrismC was handed    13005172 working-precision words and  4791 shell-pairs
 PrismC was handed    13005172 working-precision words and  4791 shell-pairs
 PrismC was handed    13005172 working-precision words and  4791 shell-pairs
 PrismC was handed    13005172 working-precision words and  4791 shell-pairs
 PrismC was handed    13005172 working-precision words and  4791 shell-pairs
 PrismC was handed    13005172 working-precision words and  4791 shell-pairs
 PrismC was handed    13005172 working-precision words and  4791 shell-pairs
 PrismC was handed    13005172 working-precision words and  4791 shell-pairs
 PrismC was handed    13005172 working-precision words and  4791 shell-pairs
 PrismC was handed    13005172 working-precision words and  4791 shell-pairs
 PrismC was handed    13005172 working-precision words and  4791 shell-pairs
 IPart= 14 NShTot=      264273 NShNF=      264273 NShFF=           0 NBatch=        4884 AvBLen=        54.1
 IPart= 23 NShTot=      246112 NShNF=      246112 NShFF=           0 NBatch=        4891 AvBLen=        50.3
 IPart= 12 NShTot=      262841 NShNF=      262841 NShFF=           0 NBatch=        5480 AvBLen=        48.0
 IPart= 22 NShTot=      301456 NShNF=      301456 NShFF=           0 NBatch=        5397 AvBLen=        55.9
 IPart=  8 NShTot=      289259 NShNF=      289259 NShFF=           0 NBatch=        5683 AvBLen=        50.9
 IPart= 24 NShTot=      245131 NShNF=      245131 NShFF=           0 NBatch=        4838 AvBLen=        50.7
 IPart= 29 NShTot=      254762 NShNF=      254762 NShFF=           0 NBatch=        4749 AvBLen=        53.6
 IPart= 26 NShTot=      253761 NShNF=      253761 NShFF=           0 NBatch=        4650 AvBLen=        54.6
 IPart= 27 NShTot=      242485 NShNF=      242485 NShFF=           0 NBatch=        5246 AvBLen=        46.2
 IPart= 15 NShTot=      238712 NShNF=      238712 NShFF=           0 NBatch=        5064 AvBLen=        47.1
 IPart= 25 NShTot=      200691 NShNF=      200691 NShFF=           0 NBatch=        4419 AvBLen=        45.4
 IPart= 16 NShTot=      207235 NShNF=      207235 NShFF=           0 NBatch=        4343 AvBLen=        47.7
 IPart=  4 NShTot=      282628 NShNF=      282628 NShFF=           0 NBatch=        5436 AvBLen=        52.0
 IPart= 28 NShTot=      191349 NShNF=      191349 NShFF=           0 NBatch=        3866 AvBLen=        49.5
 IPart= 13 NShTot=      236281 NShNF=      236281 NShFF=           0 NBatch=        4644 AvBLen=        50.9
 IPart=  1 NShTot=      244808 NShNF=      244808 NShFF=           0 NBatch=        5332 AvBLen=        45.9
 IPart=  0 NShTot=      248195 NShNF=      248195 NShFF=           0 NBatch=        5333 AvBLen=        46.5
 IPart= 31 NShTot=      226359 NShNF=      226359 NShFF=           0 NBatch=        4881 AvBLen=        46.4
 IPart= 11 NShTot=      253928 NShNF=      253928 NShFF=           0 NBatch=        4756 AvBLen=        53.4
 IPart=  9 NShTot=      289978 NShNF=      289978 NShFF=           0 NBatch=        5270 AvBLen=        55.0
 IPart= 17 NShTot=      276175 NShNF=      276175 NShFF=           0 NBatch=        5907 AvBLen=        46.8
 IPart= 10 NShTot=      200357 NShNF=      200357 NShFF=           0 NBatch=        4549 AvBLen=        44.0
 IPart= 18 NShTot=      246798 NShNF=      246798 NShFF=           0 NBatch=        4820 AvBLen=        51.2
 IPart=  2 NShTot=      255292 NShNF=      255292 NShFF=           0 NBatch=        5026 AvBLen=        50.8
 IPart=  3 NShTot=      276990 NShNF=      276990 NShFF=           0 NBatch=        5447 AvBLen=        50.9
 IPart=  6 NShTot=      185257 NShNF=      185257 NShFF=           0 NBatch=        3932 AvBLen=        47.1
 IPart= 19 NShTot=      201428 NShNF=      201428 NShFF=           0 NBatch=        4372 AvBLen=        46.1
 IPart=  5 NShTot=      285979 NShNF=      285979 NShFF=           0 NBatch=        5729 AvBLen=        49.9
 IPart=  7 NShTot=      177657 NShNF=      177657 NShFF=           0 NBatch=        4087 AvBLen=        43.5
 IPart= 21 NShTot=      187214 NShNF=      187214 NShFF=           0 NBatch=        3918 AvBLen=        47.8
 IPart= 20 NShTot=      216190 NShNF=      216190 NShFF=           0 NBatch=        4968 AvBLen=        43.5
 IPart= 30 NShTot=      212249 NShNF=      212249 NShFF=           0 NBatch=        4449 AvBLen=        47.7
 CoulSu:  NxtVal=       12492801.
 FoFCou: FMM=F IPFlag=           0 FMFlag=      100000 FMFlg1=         800
         NFxFlg=           0 DoJE=F BraDBF=F KetDBF=F FulRan=T
         wScrn=  0.000000 ICntrl=  100127 IOpCl=  1 I1Cent=           0 NGrid=           0
         NMat0=    1 NMatS0=      0 NMatT0=    1 NMatD0=    1 NMtDS0=    0 NMtDT0=    0
         CW=    0.222036    0.777964
         WU=    0.000000   12.500000
 Symmetry not used in FoFCou.
 FoFCou:  KetSym=F NOpSet=  1 NOpAb=1 NOp=  1.
 FoFCou:  CnvScl= 1.00D+00 Thresh= 1.00D-10 IAcrcy=      10.
 PrismS was handed   418924252 working-precision words and  4791 shell-pairs
 FoFCou: LinMIO=F DoNuc=F BraDBF=F KetDBF=F HaveP=T PDBF=F HaveZ=T HaveW=F
         NIJTC =      10 NIJTAt=       0 NIJTCD=       0 NIJTT =      10
         IJTBeg=       1 IJTEnd=      10 KLTBeg=       1 KLTEnd=      10
         IPTBeg=       1 IPTEnd=      10 IPTBCv=       1 IPTECv=      10
         IZTBeg=       1 IZTEnd=      10 IZTBCv=       1 IZTECv=      10
         IWTBeg=      11 IWTEnd=      10 IWTBCv=      11 IWTECv=      10
         INTBeg=       1 INTEnd=       0 IFTBCv=       1 IFTECv=      10
 NCel replicated for PrismC:     1
 CoulSu:  IncDef=  1024 NBBP=       11479236 NTPThr=   100 NPartT=   32 Incr=        1024 LDynOK=F.
 CoulSu:  NPrtUS=  32 ThrOK=T IAlg=1 NPAlg=1 LenDen=           0 LWGrdD=           0 DoCopy=F.
 Enter PrismC: JobTyp=22 DoJE=F Cont=F.
 Linear combination for Coulomb/exchange, wScrn=  0.000000
 CW=    0.222036    0.777964
 WU=    0.000000   12.500000
 Enter PrismC: JobTyp=22 DoJE=F Cont=F.
 Enter PrismC: JobTyp=22 DoJE=F Cont=F.
 Enter PrismC: JobTyp=22 DoJE=F Cont=F.
 Enter PrismC: JobTyp=22 DoJE=F Cont=F.
 Enter PrismC: JobTyp=22 DoJE=F Cont=F.
 Enter PrismC: JobTyp=22 DoJE=F Cont=F.
 Enter PrismC: JobTyp=22 DoJE=F Cont=F.
 Linear combination for Coulomb/exchange, wScrn=  0.000000
 CW=    0.222036    0.777964
 WU=    0.000000   12.500000
 Enter PrismC: JobTyp=22 DoJE=F Cont=F.
 Enter PrismC: JobTyp=22 DoJE=F Cont=F.
 Enter PrismC: JobTyp=22 DoJE=F Cont=F.
 Linear combination for Coulomb/exchange, wScrn=  0.000000
 CW=    0.222036    0.777964
 WU=    0.000000   12.500000
 Enter PrismC: JobTyp=22 DoJE=F Cont=F.
 Linear combination for Coulomb/exchange, wScrn=  0.000000
 CW=    0.222036    0.777964
 WU=    0.000000   12.500000
 Linear combination for Coulomb/exchange, wScrn=  0.000000
 PrismC was handed    13005016 working-precision words and  4791 shell-pairs
 Enter PrismC: JobTyp=22 DoJE=F Cont=F.
 Linear combination for Coulomb/exchange, wScrn=  0.000000
 CW=    0.222036    0.777964
 WU=    0.000000   12.500000
 PrismC was handed    13005016 working-precision words and  4791 shell-pairs
 Enter PrismC: JobTyp=22 DoJE=F Cont=F.
 Linear combination for Coulomb/exchange, wScrn=  0.000000
 CW=    0.222036    0.777964
 WU=    0.000000   12.500000
 Enter PrismC: JobTyp=22 DoJE=F Cont=F.
 Linear combination for Coulomb/exchange, wScrn=  0.000000
 CW=    0.222036    0.777964
 WU=    0.000000   12.500000
 Enter PrismC: JobTyp=22 DoJE=F Cont=F.
 Linear combination for Coulomb/exchange, wScrn=  0.000000
 CW=    0.222036    0.777964
 WU=    0.000000   12.500000
 PrismC was handed    13005016 working-precision words and  4791 shell-pairs
 Enter PrismC: JobTyp=22 DoJE=F Cont=F.
 Linear combination for Coulomb/exchange, wScrn=  0.000000
 CW=    0.222036    0.777964
 WU=    0.000000   12.500000
 Enter PrismC: JobTyp=22 DoJE=F Cont=F.
 Linear combination for Coulomb/exchange, wScrn=  0.000000
 CW=    0.222036    0.777964
 WU=    0.000000   12.500000
 Linear combination for Coulomb/exchange, wScrn=  0.000000
 CW=    0.222036    0.777964
 WU=    0.000000   12.500000
 Enter PrismC: JobTyp=22 DoJE=F Cont=F.
 Linear combination for Coulomb/exchange, wScrn=  0.000000
 CW=    0.222036    0.777964
 WU=    0.000000   12.500000
 Enter PrismC: JobTyp=22 DoJE=F Cont=F.
 Linear combination for Coulomb/exchange, wScrn=  0.000000
 CW=    0.222036    0.777964
 WU=    0.000000   12.500000
 Enter PrismC: JobTyp=22 DoJE=F Cont=F.
 Linear combination for Coulomb/exchange, wScrn=  0.000000
 CW=    0.222036    0.777964
 WU=    0.000000   12.500000
 Enter PrismC: JobTyp=22 DoJE=F Cont=F.
 PrismC was handed    13005016 working-precision words and  4791 shell-pairs
 PrismC was handed    13005016 working-precision words and  4791 shell-pairs
 Linear combination for Coulomb/exchange, wScrn=  0.000000
 CW=    0.222036    0.777964
 WU=    0.000000   12.500000
 PrismC was handed    13005016 working-precision words and  4791 shell-pairs
 Enter PrismC: JobTyp=22 DoJE=F Cont=F.
 Linear combination for Coulomb/exchange, wScrn=  0.000000
 Linear combination for Coulomb/exchange, wScrn=  0.000000
 CW=    0.222036    0.777964
 WU=    0.000000   12.500000
 PrismC was handed    13005016 working-precision words and  4791 shell-pairs
 PrismC:  IPart=     0 DynPar=T LinDyn=F Incr=        1024 UseFst=F UseS4=T IGathr=2.
 PrismC was handed    13005016 working-precision words and  4791 shell-pairs
 PrismC was handed    13005016 working-precision words and  4791 shell-pairs
 Enter PrismC: JobTyp=22 DoJE=F Cont=F.
 Linear combination for Coulomb/exchange, wScrn=  0.000000
 CW=    0.222036    0.777964
 WU=    0.000000   12.500000
 PrismC was handed    13005016 working-precision words and  4791 shell-pairs
 CW=    0.222036    0.777964
 WU=    0.000000   12.500000
 PrismC was handed    13005016 working-precision words and  4791 shell-pairs
 Linear combination for Coulomb/exchange, wScrn=  0.000000
 CW=    0.222036    0.777964
 WU=    0.000000   12.500000
 PrismC was handed    13005016 working-precision words and  4791 shell-pairs
 PrismC was handed    13005016 working-precision words and  4791 shell-pairs
 Linear combination for Coulomb/exchange, wScrn=  0.000000
 CW=    0.222036    0.777964
 WU=    0.000000   12.500000
 PrismC was handed    13005016 working-precision words and  4791 shell-pairs
 PrismC was handed    13005016 working-precision words and  4791 shell-pairs
 Enter PrismC: JobTyp=22 DoJE=F Cont=F.
 Linear combination for Coulomb/exchange, wScrn=  0.000000
 CW=    0.222036    0.777964
 WU=    0.000000   12.500000
 PrismC was handed    13005016 working-precision words and  4791 shell-pairs
 PrismC was handed    13005016 working-precision words and  4791 shell-pairs
 Linear combination for Coulomb/exchange, wScrn=  0.000000
 CW=    0.222036    0.777964
 WU=    0.000000   12.500000
 Linear combination for Coulomb/exchange, wScrn=  0.000000
 CW=    0.222036    0.777964
 WU=    0.000000   12.500000
 PrismC was handed    13005016 working-precision words and  4791 shell-pairs
 Enter PrismC: JobTyp=22 DoJE=F Cont=F.
 Linear combination for Coulomb/exchange, wScrn=  0.000000
 CW=    0.222036    0.777964
 WU=    0.000000   12.500000
 Enter PrismC: JobTyp=22 DoJE=F Cont=F.
 Linear combination for Coulomb/exchange, wScrn=  0.000000
 CW=    0.222036    0.777964
 WU=    0.000000   12.500000
 PrismC was handed    13005016 working-precision words and  4791 shell-pairs
 PrismC was handed    13005016 working-precision words and  4791 shell-pairs
 Enter PrismC: JobTyp=22 DoJE=F Cont=F.
 Linear combination for Coulomb/exchange, wScrn=  0.000000
 CW=    0.222036    0.777964
 WU=    0.000000   12.500000
 PrismC was handed    13005016 working-precision words and  4791 shell-pairs
 PrismC was handed    13005016 working-precision words and  4791 shell-pairs
 Enter PrismC: JobTyp=22 DoJE=F Cont=F.
 Linear combination for Coulomb/exchange, wScrn=  0.000000
 CW=    0.222036    0.777964
 WU=    0.000000   12.500000
 PrismC was handed    13005016 working-precision words and  4791 shell-pairs
 Enter PrismC: JobTyp=22 DoJE=F Cont=F.
 Linear combination for Coulomb/exchange, wScrn=  0.000000
 CW=    0.222036    0.777964
 WU=    0.000000   12.500000
 PrismC was handed    13005016 working-precision words and  4791 shell-pairs
 Enter PrismC: JobTyp=22 DoJE=F Cont=F.
 Linear combination for Coulomb/exchange, wScrn=  0.000000
 CW=    0.222036    0.777964
 WU=    0.000000   12.500000
 PrismC was handed    13005016 working-precision words and  4791 shell-pairs
 PrismC was handed    13005016 working-precision words and  4791 shell-pairs
 PrismC was handed    13005016 working-precision words and  4791 shell-pairs
 Linear combination for Coulomb/exchange, wScrn=  0.000000
 CW=    0.222036    0.777964
 WU=    0.000000   12.500000
 PrismC was handed    13005016 working-precision words and  4791 shell-pairs
 Enter PrismC: JobTyp=22 DoJE=F Cont=F.
 PrismC was handed    13005016 working-precision words and  4791 shell-pairs
 PrismC was handed    13005016 working-precision words and  4791 shell-pairs
 CW=    0.222036    0.777964
 WU=    0.000000   12.500000
 Linear combination for Coulomb/exchange, wScrn=  0.000000
 CW=    0.222036    0.777964
 WU=    0.000000   12.500000
 PrismC was handed    13005016 working-precision words and  4791 shell-pairs
 PrismC was handed    13005016 working-precision words and  4791 shell-pairs
 IPart= 25 NShTot=      227820 NShNF=      227820 NShFF=           0 NBatch=        5313 AvBLen=        42.9
 IPart=  7 NShTot=      226319 NShNF=      226319 NShFF=           0 NBatch=        5429 AvBLen=        41.7
 IPart=  8 NShTot=      276193 NShNF=      276193 NShFF=           0 NBatch=        7440 AvBLen=        37.1
 IPart= 14 NShTot=      272336 NShNF=      272336 NShFF=           0 NBatch=        7138 AvBLen=        38.2
 IPart= 24 NShTot=      291438 NShNF=      291438 NShFF=           0 NBatch=        7264 AvBLen=        40.1
 IPart= 23 NShTot=      290524 NShNF=      290524 NShFF=           0 NBatch=        7990 AvBLen=        36.4
 IPart= 13 NShTot=      240754 NShNF=      240754 NShFF=           0 NBatch=        6057 AvBLen=        39.7
 IPart= 12 NShTot=      274198 NShNF=      274198 NShFF=           0 NBatch=        5136 AvBLen=        53.4
 IPart=  5 NShTot=      258363 NShNF=      258363 NShFF=           0 NBatch=        7258 AvBLen=        35.6
 IPart= 20 NShTot=      248182 NShNF=      248182 NShFF=           0 NBatch=        6670 AvBLen=        37.2
 IPart= 18 NShTot=      213650 NShNF=      213650 NShFF=           0 NBatch=        5690 AvBLen=        37.5
 IPart= 27 NShTot=      281681 NShNF=      281681 NShFF=           0 NBatch=        6836 AvBLen=        41.2
 IPart= 28 NShTot=      305711 NShNF=      305711 NShFF=           0 NBatch=        6965 AvBLen=        43.9
 IPart= 21 NShTot=      257694 NShNF=      257694 NShFF=           0 NBatch=        6344 AvBLen=        40.6
 IPart= 19 NShTot=      224132 NShNF=      224132 NShFF=           0 NBatch=        5485 AvBLen=        40.9
 IPart=  2 NShTot=      264624 NShNF=      264624 NShFF=           0 NBatch=        7395 AvBLen=        35.8
 IPart= 29 NShTot=      203727 NShNF=      203727 NShFF=           0 NBatch=        4868 AvBLen=        41.9
 IPart= 15 NShTot=      220130 NShNF=      220130 NShFF=           0 NBatch=        4769 AvBLen=        46.2
 IPart=  4 NShTot=      193441 NShNF=      193441 NShFF=           0 NBatch=        4145 AvBLen=        46.7
 IPart=  1 NShTot=      261291 NShNF=      261291 NShFF=           0 NBatch=        7556 AvBLen=        34.6
 IPart=  0 NShTot=      254600 NShNF=      254600 NShFF=           0 NBatch=        6490 AvBLen=        39.2
 IPart=  9 NShTot=      372030 NShNF=      372030 NShFF=           0 NBatch=        7866 AvBLen=        47.3
 IPart= 31 NShTot=      237035 NShNF=      237035 NShFF=           0 NBatch=        6329 AvBLen=        37.5
 IPart=  3 NShTot=      177267 NShNF=      177267 NShFF=           0 NBatch=        4057 AvBLen=        43.7
 IPart= 11 NShTot=      247213 NShNF=      247213 NShFF=           0 NBatch=        6747 AvBLen=        36.6
 IPart=  6 NShTot=      202056 NShNF=      202056 NShFF=           0 NBatch=        5540 AvBLen=        36.5
 IPart= 16 NShTot=      219619 NShNF=      219619 NShFF=           0 NBatch=        5435 AvBLen=        40.4
 IPart= 26 NShTot=      190443 NShNF=      190443 NShFF=           0 NBatch=        5330 AvBLen=        35.7
 IPart= 17 NShTot=      189531 NShNF=      189531 NShFF=           0 NBatch=        4173 AvBLen=        45.4
 IPart= 10 NShTot=      228566 NShNF=      228566 NShFF=           0 NBatch=        5502 AvBLen=        41.5
 IPart= 30 NShTot=      227658 NShNF=      227658 NShFF=           0 NBatch=        5790 AvBLen=        39.3
 IPart= 22 NShTot=      191191 NShNF=      191191 NShFF=           0 NBatch=        4134 AvBLen=        46.2
 CoulSu:  NxtVal=       12492801.
 ReadGW:  IGet=0 IStart=           1 Next=           1 LGW=           0.
 Remaining memory in FofDFT      399.83 Mw
 CkSvGd:  ISavGI=        -1 IRadAn=       5 IRASav=       5 ISavGd=        -1.
 CalDSu:  NPrtUS=  32 ThrOK=T IAlg=1 NPAlg=2 DoDPD=T LenP=       45150 LenD1P=             0.
 IPart=  0 IRanGd=          0 ScrnBf=T ScrnGd=T RCrit=4.00D+00 DoMicB=T.
 IPart= 21         8615 of        10114 points in      17 batches and       43 microbatches, Max-NSigAt=      12 Max-NSgAt2=      12
 IPart= 13         7659 of         7916 points in      14 batches and       39 microbatches, Max-NSigAt=      12 Max-NSgAt2=      12
 IPart= 25         6106 of         7532 points in      13 batches and       69 microbatches, Max-NSigAt=      12 Max-NSgAt2=      12
 IPart= 24         8378 of         8724 points in      15 batches and       28 microbatches, Max-NSigAt=      12 Max-NSgAt2=      12
 IPart= 19         7958 of         9718 points in      17 batches and       77 microbatches, Max-NSigAt=      12 Max-NSgAt2=      12
 IPart= 15         5692 of         6566 points in      11 batches and       68 microbatches, Max-NSigAt=      12 Max-NSgAt2=      12
 IPart= 23         7953 of         8540 points in      15 batches and       47 microbatches, Max-NSigAt=      12 Max-NSgAt2=      12
 IPart=  7         7436 of         8312 points in      15 batches and       64 microbatches, Max-NSigAt=      12 Max-NSgAt2=      12
 IPart=  8         8711 of         8898 points in      15 batches and       42 microbatches, Max-NSigAt=      12 Max-NSgAt2=      12
 IPart= 26         6909 of         7094 points in      12 batches and       29 microbatches, Max-NSigAt=      12 Max-NSgAt2=      12
 IPart= 11         8431 of         8738 points in      16 batches and       29 microbatches, Max-NSigAt=      12 Max-NSgAt2=      12
 IPart=  3         6083 of         6912 points in      12 batches and       57 microbatches, Max-NSigAt=      12 Max-NSgAt2=      12
 IPart= 28         6251 of         6948 points in      12 batches and       56 microbatches, Max-NSigAt=      12 Max-NSgAt2=      12
 IPart=  9         8238 of         9540 points in      16 batches and       46 microbatches, Max-NSigAt=      12 Max-NSgAt2=      12
 IPart= 30         8329 of         9850 points in      17 batches and       42 microbatches, Max-NSigAt=      12 Max-NSgAt2=      12
 IPart= 10         7727 of         8606 points in      15 batches and       48 microbatches, Max-NSigAt=      12 Max-NSgAt2=      12
 IPart= 22         7282 of         8476 points in      15 batches and       52 microbatches, Max-NSigAt=      12 Max-NSgAt2=      12
 IPart=  4         8869 of        10542 points in      18 batches and       60 microbatches, Max-NSigAt=      12 Max-NSgAt2=      12
 IPart= 31         7845 of         8630 points in      15 batches and       52 microbatches, Max-NSigAt=      12 Max-NSgAt2=      12
 IPart= 14         6485 of         7120 points in      12 batches and       54 microbatches, Max-NSigAt=      12 Max-NSgAt2=      12
 IPart=  0         7963 of         9224 points in      16 batches and       41 microbatches, Max-NSigAt=      12 Max-NSgAt2=      12
 IPart=  1         8618 of        10480 points in      18 batches and       46 microbatches, Max-NSigAt=      12 Max-NSgAt2=      12
 IPart= 16         7267 of         8784 points in      15 batches and       59 microbatches, Max-NSigAt=      12 Max-NSgAt2=      12
 IPart= 20         8353 of         9130 points in      16 batches and       56 microbatches, Max-NSigAt=      12 Max-NSgAt2=      12
 IPart=  5         7438 of         8012 points in      14 batches and       47 microbatches, Max-NSigAt=      12 Max-NSgAt2=      12
 IPart= 27         7181 of         8320 points in      14 batches and       44 microbatches, Max-NSigAt=      12 Max-NSgAt2=      12
 IPart= 18         8439 of         8586 points in      15 batches and       36 microbatches, Max-NSigAt=      12 Max-NSgAt2=      12
 IPart=  2         6667 of         8132 points in      14 batches and       66 microbatches, Max-NSigAt=      12 Max-NSgAt2=      12
 IPart= 17         8816 of         9374 points in      16 batches and       45 microbatches, Max-NSigAt=      12 Max-NSgAt2=      12
 IPart= 12         7590 of        10172 points in      17 batches and       67 microbatches, Max-NSigAt=      12 Max-NSgAt2=      12
 IPart= 29         7367 of         8318 points in      14 batches and       69 microbatches, Max-NSigAt=      12 Max-NSgAt2=      12
 IPart=  6         7285 of         8346 points in      14 batches and       75 microbatches, Max-NSigAt=      12 Max-NSgAt2=      12
 Polarizability after L703:
                1             2             3 
      1  0.477992D+02
      2  0.863492D+00  0.522057D+02
      3 -0.258612D+01  0.511437D+01  0.534734D+02
 Dipole Derivatives after L703:
                 1             2             3             4             5 
      1   0.159042D+00 -0.122717D+00 -0.509894D-01 -0.257823D+00  0.271744D-01
      2  -0.130834D+00 -0.320607D+00  0.689359D-01  0.311364D-01 -0.330743D+00
      3  -0.508043D-01 -0.573033D-01  0.907491D+00  0.843407D-01 -0.679241D-01
                 6             7             8             9            10 
      1   0.645055D-01 -0.480678D-01 -0.126449D-02  0.408815D-02 -0.327107D-01
      2  -0.154134D+00  0.156161D-01  0.164939D+00  0.284267D-01  0.805165D-01
      3  -0.120762D+01  0.583804D-01  0.342744D-01  0.118795D-01 -0.534650D-01
                11            12            13            14            15 
      1   0.925566D-01  0.347566D-02  0.185288D+00  0.180609D-02 -0.242794D-01
      2   0.132063D+00  0.353358D-01 -0.248944D-02  0.343352D+00  0.120205D-01
      3   0.513313D-01 -0.249946D-01 -0.438972D-01  0.282185D-01  0.310035D+00
                16            17            18            19            20 
      1   0.100808D+00 -0.790157D-01 -0.183111D-01  0.168457D-01  0.467393D-01
      2  -0.824772D-01 -0.316948D+00 -0.832451D-01  0.209860D-01  0.101121D+00
      3  -0.245703D-01 -0.945597D-01  0.969288D-01  0.216130D-01 -0.204143D-01
                21            22            23            24            25 
      1   0.303276D-01 -0.102126D+00  0.360665D-01 -0.308549D-01  0.609517D-02
      2   0.672023D-02  0.290816D-01  0.129979D+00  0.364424D-01  0.210253D-01
      3   0.132174D-01 -0.194217D-02  0.352188D-01  0.116826D-01  0.184877D-02
                26            27            28            29            30 
      1   0.120948D-01  0.293433D-01  0.391162D-01  0.413960D-01  0.572252D-01
      2   0.121553D+00  0.607897D-01  0.150417D-01 -0.913337D-01 -0.923390D-01
      3   0.696948D-01 -0.823914D-01  0.478251D-01 -0.112735D+00  0.178581D-02
                31            32            33            34            35 
      1   0.351388D-01 -0.615073D-02  0.162011D-01 -0.101607D+00 -0.486859D-01
      2   0.308281D-01 -0.160390D-01  0.968015D-01 -0.284311D-01  0.826651D-01
      3   0.643751D-02  0.129889D+00 -0.424448D-01 -0.457666D-01  0.430961D-02
                36 
      1  -0.807316D-01
      2  -0.157550D-01
      3   0.442840D-02
 Hessian after L703:
                1             2             3             4             5 
      1  0.665137D+00
      2 -0.125685D+00  0.701511D-01
      3 -0.207029D-01 -0.572067D-01  0.604133D+00
      4 -0.992198D-01  0.167485D-01  0.233706D-01  0.572924D+00
      5  0.152866D-01 -0.773190D-02 -0.100433D-01 -0.464334D-01  0.146239D-01
      6 -0.249141D-01  0.714695D-02 -0.374214D+00 -0.154321D+00  0.390617D-02
      7 -0.317407D+00  0.133309D-01  0.111226D+00  0.663983D-02 -0.138107D-02
      8 -0.237683D-02 -0.933738D-02  0.762653D-02  0.660109D-04 -0.236359D-02
      9  0.944694D-01  0.458703D-02 -0.928734D-01  0.357362D-01 -0.456555D-03
     10 -0.246890D+00  0.950395D-01 -0.106852D+00  0.820022D-02 -0.837287D-03
     11  0.111363D+00 -0.525588D-01  0.583678D-01 -0.485027D-02  0.313995D-02
     12 -0.968003D-01  0.490338D-01 -0.113662D+00 -0.249888D-01  0.142868D-01
     13 -0.127852D-02 -0.102084D-03 -0.722861D-02 -0.488650D+00  0.334057D-01
     14  0.563487D-03 -0.173562D-02  0.705485D-03  0.345470D-01 -0.777677D-02
     15  0.474964D-01 -0.455137D-02 -0.230736D-01  0.120315D+00 -0.739627D-02
     16 -0.151035D-03  0.646659D-03  0.335395D-03 -0.203041D-05 -0.101454D-03
     17  0.947250D-03  0.153714D-02  0.534529D-03 -0.111852D-03  0.602609D-04
     18  0.393270D-03  0.152179D-02 -0.251813D-03 -0.913145D-04 -0.229232D-03
     19  0.859687D-04  0.286022D-03 -0.888583D-04 -0.941939D-04 -0.795271D-05
     20  0.139286D-03 -0.273573D-03  0.143218D-03 -0.149988D-04 -0.158335D-03
     21  0.644066D-04 -0.200013D-03 -0.523562D-04 -0.380129D-04 -0.121397D-03
     22 -0.609340D-04  0.677146D-04 -0.561819D-04  0.737421D-04 -0.330981D-05
     23 -0.215242D-03  0.179096D-03 -0.116738D-03  0.564109D-04 -0.682162D-04
     24 -0.534992D-05  0.971747D-04 -0.139166D-03  0.305133D-04 -0.675054D-04
     25 -0.830933D-04 -0.638607D-04  0.113766D-04 -0.120097D-04  0.293604D-04
     26 -0.108163D-03 -0.342972D-03  0.289616D-03  0.704016D-04  0.270158D-03
     27 -0.107274D-03 -0.389634D-03  0.131460D-03  0.336967D-04  0.965218D-04
     28 -0.895645D-04 -0.942279D-04 -0.178706D-04  0.688545D-04  0.529875D-04
     29 -0.454599D-04 -0.452906D-04  0.126262D-03  0.332802D-04 -0.636263D-04
     30  0.694829D-04 -0.107626D-03  0.153732D-03 -0.845901D-05 -0.296432D-04
     31  0.630211D-04  0.317810D-04 -0.789770D-04 -0.405621D-04  0.175923D-04
     32 -0.119291D-04  0.600529D-04 -0.140389D-03 -0.723113D-05  0.116654D-04
     33  0.569535D-04  0.347171D-04 -0.208072D-03 -0.487592D-04  0.371273D-04
     34 -0.106829D-03 -0.206125D-03  0.819190D-04  0.112420D-03 -0.276678D-04
     35  0.142686D-03  0.981039D-04 -0.286186D-03 -0.103768D-03  0.565054D-04
     36 -0.200333D-04  0.338592D-04  0.568673D-04  0.100899D-04  0.172739D-04
                6             7             8             9            10 
      6  0.509090D+00
      7 -0.585909D-03  0.318611D+00
      8  0.128676D-02 -0.785462D-02  0.785475D-02
      9 -0.200137D-01 -0.117698D+00 -0.461446D-02  0.110332D+00
     10  0.480174D-02 -0.102729D-01  0.981769D-02 -0.124235D-01  0.246532D+00
     11 -0.257659D-03 -0.405538D-02  0.753789D-03 -0.473895D-03 -0.102208D+00
     12 -0.257125D-01  0.901562D-02 -0.450967D-02  0.895213D-02  0.115293D+00
     13  0.174918D+00  0.232032D-02  0.417048D-03 -0.858147D-04  0.243197D-02
     14 -0.122613D-01 -0.105719D-03  0.308250D-02  0.917007D-03 -0.150949D-02
     15 -0.893328D-01 -0.195562D-02  0.160881D-03 -0.641680D-02 -0.757741D-03
     16 -0.220206D-03 -0.452991D-04 -0.193542D-03 -0.627918D-04 -0.172364D-04
     17  0.643197D-03  0.181908D-03  0.832616D-04 -0.726105D-05 -0.421595D-03
     18  0.356909D-03  0.929886D-04  0.654415D-04  0.433128D-05 -0.992821D-04
     19  0.270077D-03  0.772999D-05 -0.200115D-03 -0.159300D-04 -0.125539D-03
     20 -0.564790D-03  0.424327D-05  0.124808D-03  0.296328D-04  0.233323D-04
     21 -0.352763D-03  0.212977D-05  0.160489D-05  0.660733D-04 -0.174699D-04
     22  0.109602D-03  0.432222D-04  0.508000D-04  0.286897D-04  0.321358D-04
     23  0.382417D-04 -0.405783D-05 -0.644042D-04  0.136248D-04  0.702903D-04
     24  0.124660D-03  0.311609D-04  0.619305D-05  0.718449D-05  0.114498D-04
     25  0.164690D-05 -0.136708D-04 -0.357969D-04  0.256407D-04 -0.193062D-05
     26 -0.250997D-03 -0.318092D-04 -0.581450D-04  0.693922D-05  0.235860D-04
     27 -0.111439D-03 -0.128727D-04  0.219795D-05 -0.172025D-04  0.242754D-04
     28  0.307483D-04  0.441547D-04  0.109003D-03  0.275212D-04  0.523678D-04
     29 -0.251299D-03  0.447052D-04  0.819327D-04  0.394476D-04  0.114997D-04
     30 -0.178912D-03 -0.651548D-05  0.487887D-04 -0.134830D-04 -0.255786D-05
     31  0.971710D-04 -0.200325D-04 -0.597115D-05 -0.443728D-04 -0.861198D-05
     32  0.169616D-03 -0.333283D-04 -0.457412D-05  0.351384D-05  0.333056D-04
     33  0.454213D-03 -0.821451D-04 -0.705944D-04 -0.796266D-04  0.199267D-04
     34 -0.187963D-03  0.926419D-04  0.206315D-03  0.430623D-04  0.675274D-04
     35  0.395128D-03 -0.957781D-04 -0.152943D-03 -0.450265D-04 -0.424510D-04
     36 -0.109170D-03 -0.270261D-04 -0.366838D-05  0.522021D-04  0.207424D-05
               11            12            13            14            15 
     11  0.494666D-01
     12 -0.584071D-01  0.128703D+00
     13 -0.210758D-03 -0.252465D-02  0.485210D+00
     14 -0.681825D-03 -0.342207D-03 -0.335103D-01  0.712575D-02
     15  0.834812D-03  0.173790D-02 -0.165070D+00  0.108942D-01  0.117025D+00
     16  0.919749D-04  0.433677D-04 -0.325590D-04  0.812019D-05  0.589026D-04
     17  0.548840D-04 -0.133488D-03 -0.152890D-04  0.198831D-03  0.200767D-03
     18  0.886459D-04 -0.329495D-04  0.462281D-04 -0.350097D-04  0.661468D-04
     19  0.830974D-04  0.234884D-04  0.137783D-04  0.789716D-04  0.162205D-04
     20 -0.443257D-04 -0.101900D-04 -0.333406D-04  0.115174D-04  0.394696D-04
     21  0.267915D-05  0.750403D-04 -0.329616D-04  0.170633D-04  0.261908D-05
     22 -0.133250D-03 -0.259869D-04 -0.129431D-04 -0.191747D-04 -0.464317D-04
     23 -0.915841D-04  0.161588D-04 -0.463667D-05 -0.245924D-04 -0.666277D-04
     24 -0.842328D-04  0.211764D-04 -0.439204D-04  0.649637D-05 -0.367061D-04
     25  0.000000D+00 -0.663463D-05  0.290763D-04  0.435097D-04 -0.161990D-04
     26 -0.663408D-04  0.155868D-04  0.192306D-04 -0.179839D-03 -0.920695D-04
     27  0.825155D-05 -0.107281D-04 -0.513610D-05  0.285844D-04  0.159930D-04
     28 -0.440244D-04 -0.174165D-04  0.000000D+00 -0.498567D-04 -0.335743D-04
     29  0.292566D-04  0.765674D-05 -0.214486D-04  0.175850D-04  0.261917D-04
     30 -0.197563D-04 -0.309990D-04 -0.121074D-04  0.388287D-04  0.388054D-04
     31  0.342199D-04  0.186740D-04  0.111875D-04 -0.285973D-04  0.212872D-05
     32 -0.184354D-04  0.788407D-05  0.166544D-04 -0.254364D-04 -0.240483D-04
     33 -0.614035D-04 -0.336567D-04  0.323904D-04  0.541205D-04 -0.153813D-04
     34 -0.709157D-04 -0.306931D-04 -0.418791D-04 -0.179198D-04 -0.919333D-05
     35  0.168393D-04  0.346825D-04  0.392544D-04 -0.120939D-04 -0.259220D-04
     36  0.191087D-05 -0.588041D-05  0.651077D-05 -0.232220D-04 -0.107078D-04
               16            17            18            19            20 
     16  0.569911D+00
     17 -0.861600D-01  0.103190D+00
     18  0.160404D-01 -0.139452D+00  0.569685D+00
     19 -0.185100D+00  0.790396D-02  0.789090D-01  0.525294D+00
     20  0.337641D-02 -0.457781D-01  0.139815D-01  0.267812D-02  0.499344D+00
     21  0.762823D-01  0.101811D-01 -0.143680D+00  0.381803D-01 -0.286649D-01
     22 -0.299105D+00  0.595402D-01 -0.929664D-01 -0.138206D-01  0.242842D-02
     23  0.563115D-01 -0.243306D-01  0.300991D-01  0.651110D-03  0.203983D-02
     24 -0.951619D-01  0.325441D-01 -0.910753D-01  0.183529D-01 -0.323804D-02
     25 -0.580439D-01  0.158986D-01 -0.271090D-01  0.534799D-02 -0.849686D-02
     26  0.166505D-01 -0.418556D-01  0.998624D-01 -0.105436D-02  0.403252D-02
     27 -0.256723D-01  0.958476D-01 -0.315843D+00 -0.488864D-02  0.667952D-02
     28 -0.712619D-02  0.197630D-01  0.144529D-01 -0.427661D-01  0.239169D-01
     29  0.590864D-02  0.447786D-02 -0.279229D-02  0.137115D-01 -0.235190D+00
     30  0.842547D-02 -0.136481D-01 -0.124887D-01  0.561913D-02 -0.101886D+00
     31  0.377055D-02 -0.167745D-01  0.217795D-01 -0.525154D-01  0.161224D-01
     32  0.121703D-03  0.246533D-02 -0.285961D-02  0.170256D-01 -0.170709D+00
     33 -0.352421D-03  0.114640D-01 -0.185980D-01 -0.221016D-01  0.132314D+00
     34 -0.240579D-01 -0.751761D-03 -0.114482D-01 -0.236328D+00 -0.401439D-01
     35  0.333943D-02 -0.103032D-03 -0.250448D-03 -0.411560D-01 -0.533993D-01
     36  0.202837D-01  0.182597D-02  0.118569D-01 -0.114276D+00 -0.188230D-01
               21            22            23            24            25 
     21  0.527946D+00
     22 -0.105027D-01  0.313538D+00
     23  0.262880D-02 -0.619319D-01  0.195231D-01
     24  0.105057D-01  0.982051D-01 -0.329420D-01  0.863698D-01
     25  0.214117D-01  0.135729D-02  0.800205D-02 -0.238526D-01  0.535330D-01
     26 -0.337637D-02 -0.667238D-03  0.169724D-02  0.430911D-02 -0.155339D-01
     27 -0.101087D-01  0.200173D-02  0.240841D-02 -0.442475D-02  0.256279D-01
     28  0.100756D-01 -0.657948D-03 -0.109322D-02 -0.246217D-04 -0.350674D-03
     29 -0.940648D-01  0.248379D-03 -0.988190D-04 -0.528302D-03  0.274431D-03
     30 -0.906593D-01  0.157561D-03 -0.449318D-03 -0.396651D-03  0.845110D-03
     31 -0.209519D-01  0.105044D-02 -0.209588D-03 -0.873721D-03 -0.329336D-02
     32  0.132792D+00 -0.372574D-03  0.398434D-03  0.187879D-03  0.272614D-03
     33 -0.178378D+00 -0.730321D-04 -0.122889D-02  0.106898D-02  0.377441D-02
     34 -0.114473D+00 -0.243670D-02 -0.163267D-02  0.333094D-02  0.153134D-02
     35 -0.191960D-01  0.791986D-03  0.840466D-03 -0.290830D-03 -0.390743D-03
     36 -0.115364D+00  0.316801D-02 -0.400780D-03 -0.202499D-02 -0.713248D-03
               26            27            28            29            30 
     26  0.375807D-01
     27 -0.103011D+00  0.330182D+00
     28  0.100388D-03  0.288000D-03  0.486021D-01
     29 -0.101469D-02 -0.208789D-03 -0.216288D-01  0.258867D+00
     30  0.828233D-03 -0.269898D-03 -0.137934D-01  0.109974D+00  0.101130D+00
     31  0.885106D-04  0.236552D-02 -0.322080D-03  0.133424D-02 -0.226420D-02
     32  0.990524D-04 -0.120179D-02  0.387819D-02 -0.215098D-01  0.209244D-01
     33  0.107283D-02 -0.651899D-03  0.138133D-02 -0.102472D-01  0.105555D-01
     34  0.442868D-03  0.345115D-03  0.254542D-02  0.128990D-03  0.970462D-03
     35 -0.162017D-03 -0.260009D-03 -0.249103D-01 -0.555122D-02 -0.156739D-01
     36  0.345622D-03  0.110754D-02 -0.123692D-01 -0.208103D-02 -0.784006D-02
               31            32            33            34            35 
     31  0.529687D-01
     32 -0.209340D-01  0.184520D+00
     33  0.177721D-01 -0.143919D+00  0.196801D+00
     34 -0.166386D-02  0.110089D-04 -0.379152D-03  0.260286D+00
     35  0.203240D-01  0.471297D-02  0.105511D-01  0.420617D-01  0.536558D-01
     36 -0.178219D-01 -0.594040D-02 -0.109147D-01  0.121757D+00  0.250474D-01
               36 
     36  0.123196D+00
 FrcOut:
 IF    =    61 IFX   =    97 IFXYZ =   133
 IFFX  =   169 IFFFX =   835 IFLen =    36
 IFFLen=   666 IFFFLn=     0 IEDerv=   835
 LEDerv=  1781 IFroze=  3022 ICStrt=147347
 DipoleDeriv   = 1.59042313D-01-1.30834017D-01-5.08042577D-02
                -1.22716735D-01-3.20606981D-01-5.73032714D-02
                -5.09894091D-02 6.89358694D-02 9.07491391D-01
                -2.57823023D-01 3.11363654D-02 8.43407273D-02
                 2.71744311D-02-3.30743113D-01-6.79240561D-02
                 6.45054795D-02-1.54133681D-01-1.20761770D+00
                -4.80678079D-02 1.56161334D-02 5.83803864D-02
                -1.26448897D-03 1.64938672D-01 3.42743979D-02
                 4.08814943D-03 2.84266750D-02 1.18795088D-02
                -3.27106813D-02 8.05165164D-02-5.34649964D-02
                 9.25565593D-02 1.32062987D-01 5.13312620D-02
                 3.47565799D-03 3.53357991D-02-2.49946237D-02
                 1.85288484D-01-2.48943921D-03-4.38972476D-02
                 1.80608578D-03 3.43352030D-01 2.82184984D-02
                -2.42794335D-02 1.20205441D-02 3.10034562D-01
                 1.00807828D-01-8.24771581D-02-2.45703324D-02
                -7.90157422D-02-3.16948451D-01-9.45597072D-02
                -1.83110874D-02-8.32450655D-02 9.69287886D-02
                 1.68457000D-02 2.09859542D-02 2.16130373D-02
                 4.67393092D-02 1.01120924D-01-2.04142729D-02
                 3.03276462D-02 6.72023112D-03 1.32173808D-02
                -1.02126069D-01 2.90816347D-02-1.94216783D-03
                 3.60664600D-02 1.29978956D-01 3.52188144D-02
                -3.08549496D-02 3.64424306D-02 1.16826238D-02
                 6.09516729D-03 2.10253194D-02 1.84877321D-03
                 1.20947629D-02 1.21552614D-01 6.96948036D-02
                 2.93432612D-02 6.07897364D-02-8.23913726D-02
                 3.91161724D-02 1.50417028D-02 4.78251395D-02
                 4.13960031D-02-9.13336680D-02-1.12735038D-01
                 5.72251637D-02-9.23390148D-02 1.78580559D-03
                 3.51387998D-02 3.08281307D-02 6.43751488D-03
                -6.15072673D-03-1.60390292D-02 1.29888955D-01
                 1.62011070D-02 9.68015225D-02-4.24447670D-02
                -1.01606884D-01-2.84311427D-02-4.57665766D-02
                -4.86859187D-02 8.26650579D-02 4.30961392D-03
                -8.07315853D-02-1.57550472D-02 4.42839856D-03
 VibFq2-Diag1:  N=     36 IV=          13 MDV=   419278281 NE2=    11646618
 Full mass-weighted force constant matrix:
 Low frequencies ---  -77.6462   -0.0004    0.0014    0.0014    9.1017   12.2400
 Low frequencies ---   16.5443   23.9141   35.0687
 OrtVCM:  Ph=1 IPass= 1 DotMx1= 0.00D+00
 OrtVCM:  IS=    1 I=    1 IndO=    1 Dot= 1.00D+00 DotN= 1.00D+00 ElMax1= 5.16D-01 ElMax1N= 5.16D-01
 OrtVCM:  Ph=2 NNew=    0 IAdd=    2 IPass= 1 DotMx2= 0.00D+00
 OrtVCM:  IS=    1 I=    2 IndO=    2 Dot= 1.00D+00 DotN= 1.00D+00 ElMax1= 5.16D-01 ElMax1N= 5.16D-01
 OrtVCM:  Ph=2 NNew=    0 IAdd=    3 IPass= 1 DotMx2= 0.00D+00
 OrtVCM:  IS=    1 I=    3 IndO=    3 Dot= 1.00D+00 DotN= 1.00D+00 ElMax1= 5.16D-01 ElMax1N= 5.16D-01
 OrtVCM:  Ph=2 NNew=    0 IAdd=    4 IPass= 1 DotMx2= 3.61D-16
 OrtVCM:  IS=    1 I=    4 IndO=    4 Dot= 1.00D+00 DotN= 1.00D+00 ElMax1= 3.69D-01 ElMax1N= 3.69D-01
 OrtVCM:  Ph=2 NNew=    0 IAdd=    5 IPass= 1 DotMx2= 7.22D-16
 OrtVCM:  IS=    1 I=    5 IndO=    5 Dot= 1.00D+00 DotN= 1.00D+00 ElMax1= 4.04D-01 ElMax1N= 4.04D-01
 OrtVCM:  Ph=2 NNew=    0 IAdd=    6 IPass= 1 DotMx2= 3.05D-16
 OrtVCM:  IS=    1 I=    6 IndO=    6 Dot= 1.00D+00 DotN= 1.00D+00 ElMax1= 3.98D-01 ElMax1N= 3.98D-01
 OrtVCM:  Ph=1 IPass= 1 DotMx1= 5.16D-01
 OrtVCM:  Ph=1 IPass= 2 DotMx1= 1.66D-16
 OrtVCM:  IS=    1 I=    1 IndO=    7 Dot= 5.64D-01 DotN= 5.64D-01 ElMax1= 5.64D-01 ElMax1N= 5.64D-01
 OrtVCM:  Ph=2 NNew=    0 IAdd=    2 IPass= 1 DotMx2= 3.16D-02
 OrtVCM:  Ph=2 NNew=    0 IAdd=    2 IPass= 2 DotMx2= 2.08D-17
 OrtVCM:  IS=    1 I=    2 IndO=    8 Dot= 7.83D-01 DotN= 7.83D-01 ElMax1= 7.83D-01 ElMax1N= 7.83D-01
 OrtVCM:  Ph=2 NNew=    0 IAdd=    3 IPass= 1 DotMx2= 4.39D-02
 OrtVCM:  Ph=2 NNew=    0 IAdd=    3 IPass= 2 DotMx2= 2.78D-17
 OrtVCM:  IS=    1 I=    3 IndO=    9 Dot= 6.95D-01 DotN= 6.95D-01 ElMax1= 6.95D-01 ElMax1N= 6.95D-01
 OrtVCM:  Ph=2 NNew=    0 IAdd=    4 IPass= 1 DotMx2= 4.12D-01
 OrtVCM:  Ph=2 NNew=    0 IAdd=    4 IPass= 2 DotMx2= 3.89D-16
 OrtVCM:  IS=    1 I=    4 IndO=   10 Dot= 1.66D-01 DotN= 1.66D-01 ElMax1= 2.23D-01 ElMax1N= 2.23D-01
 OrtVCM:  Ph=2 NNew=    0 IAdd=    5 IPass= 1 DotMx2= 3.22D-01
 OrtVCM:  Ph=2 NNew=    0 IAdd=    5 IPass= 2 DotMx2= 4.86D-17
 OrtVCM:  IS=    1 I=    5 IndO=   11 Dot= 3.93D-01 DotN= 3.93D-01 ElMax1= 3.93D-01 ElMax1N= 3.93D-01
 OrtVCM:  Ph=2 NNew=    0 IAdd=    6 IPass= 1 DotMx2= 4.22D-01
 OrtVCM:  Ph=2 NNew=    0 IAdd=    6 IPass= 2 DotMx2= 2.01D-16
 OrtVCM:  IS=    1 I=    6 IndO=   12 Dot= 2.47D-01 DotN= 2.47D-01 ElMax1= 2.47D-01 ElMax1N= 2.47D-01
 OrtVCM:  Ph=2 NNew=    0 IAdd=    7 IPass= 1 DotMx2= 3.51D-01
 OrtVCM:  Ph=2 NNew=    0 IAdd=    7 IPass= 2 DotMx2= 1.53D-16
 OrtVCM:  IS=    1 I=    7 IndO=   13 Dot= 7.84D-01 DotN= 7.84D-01 ElMax1= 7.84D-01 ElMax1N= 7.84D-01
 OrtVCM:  Ph=2 NNew=    0 IAdd=    8 IPass= 1 DotMx2= 1.76D-01
 OrtVCM:  Ph=2 NNew=    0 IAdd=    8 IPass= 2 DotMx2= 4.16D-17
 OrtVCM:  IS=    1 I=    8 IndO=   14 Dot= 8.76D-01 DotN= 8.76D-01 ElMax1= 8.76D-01 ElMax1N= 8.76D-01
 OrtVCM:  Ph=2 NNew=    0 IAdd=    9 IPass= 1 DotMx2= 4.08D-01
 OrtVCM:  Ph=2 NNew=    0 IAdd=    9 IPass= 2 DotMx2= 5.55D-17
 OrtVCM:  IS=    1 I=    9 IndO=   15 Dot= 7.37D-01 DotN= 7.37D-01 ElMax1= 7.37D-01 ElMax1N= 7.37D-01
 OrtVCM:  Ph=2 NNew=    0 IAdd=   10 IPass= 1 DotMx2= 3.66D-01
 OrtVCM:  Ph=2 NNew=    0 IAdd=   10 IPass= 2 DotMx2= 2.36D-16
 OrtVCM:  IS=    1 I=   10 IndO=   16 Dot= 6.34D-01 DotN= 6.34D-01 ElMax1= 6.34D-01 ElMax1N= 6.34D-01
 OrtVCM:  Ph=2 NNew=    0 IAdd=   11 IPass= 1 DotMx2= 1.29D-01
 OrtVCM:  Ph=2 NNew=    0 IAdd=   11 IPass= 2 DotMx2= 4.86D-17
 OrtVCM:  IS=    1 I=   11 IndO=   17 Dot= 9.31D-01 DotN= 9.31D-01 ElMax1= 9.31D-01 ElMax1N= 9.31D-01
 OrtVCM:  Ph=2 NNew=    0 IAdd=   12 IPass= 1 DotMx2= 3.97D-01
 OrtVCM:  Ph=2 NNew=    0 IAdd=   12 IPass= 2 DotMx2= 1.39D-16
 OrtVCM:  IS=    1 I=   12 IndO=   18 Dot= 6.86D-01 DotN= 6.86D-01 ElMax1= 6.86D-01 ElMax1N= 6.86D-01
 OrtVCM:  Ph=2 NNew=    0 IAdd=   13 IPass= 1 DotMx2= 5.46D-01
 OrtVCM:  Ph=2 NNew=    0 IAdd=   13 IPass= 2 DotMx2= 1.94D-16
 OrtVCM:  IS=    1 I=   13 IndO=   19 Dot= 3.99D-01 DotN= 3.99D-01 ElMax1= 3.99D-01 ElMax1N= 3.99D-01
 OrtVCM:  Ph=2 NNew=    0 IAdd=   14 IPass= 1 DotMx2= 3.35D-01
 OrtVCM:  Ph=2 NNew=    0 IAdd=   14 IPass= 2 DotMx2= 1.67D-16
 OrtVCM:  IS=    1 I=   14 IndO=   20 Dot= 5.96D-01 DotN= 5.96D-01 ElMax1= 5.96D-01 ElMax1N= 5.96D-01
 OrtVCM:  Ph=2 NNew=    0 IAdd=   15 IPass= 1 DotMx2= 4.66D-01
 OrtVCM:  Ph=2 NNew=    0 IAdd=   15 IPass= 2 DotMx2= 1.80D-16
 OrtVCM:  IS=    1 I=   15 IndO=   21 Dot= 3.59D-01 DotN= 3.59D-01 ElMax1= 3.59D-01 ElMax1N= 3.59D-01
 OrtVCM:  Ph=2 NNew=    0 IAdd=   16 IPass= 1 DotMx2= 2.39D-01
 OrtVCM:  Ph=2 NNew=    0 IAdd=   16 IPass= 2 DotMx2= 4.16D-17
 OrtVCM:  IS=    1 I=   16 IndO=   22 Dot= 4.71D-01 DotN= 4.71D-01 ElMax1= 4.71D-01 ElMax1N= 4.71D-01
 OrtVCM:  Ph=2 NNew=    0 IAdd=   17 IPass= 1 DotMx2= 2.85D-01
 OrtVCM:  Ph=2 NNew=    0 IAdd=   17 IPass= 2 DotMx2= 1.70D-16
 OrtVCM:  IS=    1 I=   17 IndO=   23 Dot= 2.66D-01 DotN= 2.66D-01 ElMax1= 2.82D-01 ElMax1N= 2.82D-01
 OrtVCM:  Ph=2 NNew=    0 IAdd=   18 IPass= 1 DotMx2= 2.36D-01
 OrtVCM:  Ph=2 NNew=    0 IAdd=   18 IPass= 2 DotMx2= 1.04D-16
 OrtVCM:  IS=    1 I=   18 IndO=   24 Dot= 3.55D-01 DotN= 3.55D-01 ElMax1= 3.55D-01 ElMax1N= 3.55D-01
 OrtVCM:  Ph=2 NNew=    0 IAdd=   19 IPass= 1 DotMx2= 4.48D-01
 OrtVCM:  Ph=2 NNew=    0 IAdd=   19 IPass= 2 DotMx2= 1.39D-16
 OrtVCM:  IS=    1 I=   19 IndO=   25 Dot= 2.85D-01 DotN= 2.85D-01 ElMax1= 2.85D-01 ElMax1N= 2.85D-01
 OrtVCM:  Ph=2 NNew=    0 IAdd=   20 IPass= 1 DotMx2= 2.54D-01
 OrtVCM:  Ph=2 NNew=    0 IAdd=   20 IPass= 2 DotMx2= 1.11D-16
 OrtVCM:  IS=    1 I=   20 IndO=   26 Dot= 2.62D-01 DotN= 2.62D-01 ElMax1= 2.62D-01 ElMax1N= 2.62D-01
 OrtVCM:  Ph=2 NNew=    0 IAdd=   21 IPass= 1 DotMx2= 3.33D-01
 OrtVCM:  Ph=2 NNew=    0 IAdd=   21 IPass= 2 DotMx2= 1.01D-16
 OrtVCM:  IS=    1 I=   21 IndO=   27 Dot= 2.76D-01 DotN= 2.76D-01 ElMax1= 2.76D-01 ElMax1N= 2.76D-01
 OrtVCM:  Ph=2 NNew=    0 IAdd=   22 IPass= 1 DotMx2= 3.58D-01
 OrtVCM:  Ph=2 NNew=    0 IAdd=   22 IPass= 2 DotMx2= 1.39D-16
 OrtVCM:  IS=    1 I=   22 IndO=   28 Dot= 7.87D-01 DotN= 7.87D-01 ElMax1= 7.87D-01 ElMax1N= 7.87D-01
 OrtVCM:  Ph=2 NNew=    0 IAdd=   23 IPass= 1 DotMx2= 5.39D-01
 OrtVCM:  Ph=2 NNew=    0 IAdd=   23 IPass= 2 DotMx2= 1.06D-16
 OrtVCM:  IS=    1 I=   23 IndO=   29 Dot= 3.88D-01 DotN= 3.88D-01 ElMax1= 3.88D-01 ElMax1N= 3.88D-01
 OrtVCM:  Ph=2 NNew=    0 IAdd=   24 IPass= 1 DotMx2= 5.00D-01
 OrtVCM:  Ph=2 NNew=    0 IAdd=   24 IPass= 2 DotMx2= 1.01D-16
 OrtVCM:  IS=    1 I=   24 IndO=   30 Dot= 5.03D-01 DotN= 5.03D-01 ElMax1= 5.03D-01 ElMax1N= 5.03D-01
 OrtVCM:  Ph=2 NNew=    0 IAdd=   25 IPass= 1 DotMx2= 3.75D-01
 OrtVCM:  Ph=2 NNew=    0 IAdd=   25 IPass= 2 DotMx2= 9.71D-17
 OrtVCM:  IS=    1 I=   25 IndO=   31 Dot= 3.38D-01 DotN= 3.38D-01 ElMax1= 3.38D-01 ElMax1N= 3.38D-01
 OrtVCM:  Ph=2 NNew=    0 IAdd=   26 IPass= 1 DotMx2= 5.47D-01
 OrtVCM:  Ph=2 NNew=    0 IAdd=   26 IPass= 2 DotMx2= 1.32D-16
 OrtVCM:  IS=    1 I=   26 IndO=   32 Dot= 1.85D-01 DotN= 1.85D-01 ElMax1= 1.95D-01 ElMax1N= 1.95D-01
 OrtVCM:  Ph=2 NNew=    0 IAdd=   27 IPass= 1 DotMx2= 4.39D-01
 OrtVCM:  Ph=2 NNew=    0 IAdd=   27 IPass= 2 DotMx2= 8.33D-17
 OrtVCM:  IS=    1 I=   27 IndO=   33 Dot= 3.83D-01 DotN= 3.83D-01 ElMax1= 3.83D-01 ElMax1N= 3.83D-01
 OrtVCM:  Ph=2 NNew=    0 IAdd=   28 IPass= 1 DotMx2= 4.28D-01
 OrtVCM:  Ph=2 NNew=    0 IAdd=   28 IPass= 2 DotMx2= 1.67D-16
 OrtVCM:  IS=    1 I=   28 IndO=   34 Dot= 1.41D-01 DotN= 1.41D-01 ElMax1= 1.91D-01 ElMax1N= 1.91D-01
 OrtVCM:  Ph=2 NNew=    0 IAdd=   29 IPass= 1 DotMx2= 4.63D-01
 OrtVCM:  Ph=2 NNew=    0 IAdd=   29 IPass= 2 DotMx2= 6.94D-17
 OrtVCM:  IS=    1 I=   29 IndO=   35 Dot= 6.03D-01 DotN= 6.03D-01 ElMax1= 6.03D-01 ElMax1N= 6.03D-01
 OrtVCM:  Ph=2 NNew=    0 IAdd=   30 IPass= 1 DotMx2= 4.79D-01
 OrtVCM:  Ph=2 NNew=    0 IAdd=   30 IPass= 2 DotMx2= 2.47D-16
 OrtVCM:  IS=    1 I=   30 IndO=    0 Dot= 1.91D-30 DotN= 1.91D-30 ElMax1= 8.12D-16 ElMax1N= 8.12D-16
 SchOr2:  IPass= 1 Test2A= 1.00D-01 IOff=     0 NDo=    30 NNew=    29
 OrtVCM:  Ph=1 IPass= 1 DotMx1= 4.36D-01
 OrtVCM:  Ph=1 IPass= 2 DotMx1= 3.40D-16
 OrtVCM:  IS=    1 I=    1 IndO=   36 Dot= 1.69D-01 DotN= 1.69D-01 ElMax1= 2.17D-01 ElMax1N= 2.17D-01
 SchOr2:  IPass= 1 Test2A= 1.00D-01 IOff=    30 NDo=     1 NNew=     1
 VibFq2-Diag2:  N=     30 IV=          13 MDV=   419278281 NE2=    13975942
 ******    1 imaginary frequencies (negative Signs) ****** 
 Dipole derivatives wrt mode   1:  1.44400D-02 -3.17809D-01 -5.37610D-02
 Vibrational polarizability contributions from mode   1       0.0009324       0.4516428       0.0129240
 Vibrational hyperpolarizability contributions from mode   1       0.0000000      -0.0000000      -0.0000000
 Dipole derivatives wrt mode   2: -9.06168D-02 -1.23881D-01 -1.70886D+00
 Vibrational polarizability contributions from mode   2       1.2753426       2.3835098     453.5465029
 Vibrational hyperpolarizability contributions from mode   2      -0.0000000      -0.0000000      -0.0000000
 Dipole derivatives wrt mode   3:  3.48851D-01  6.66960D-01 -7.69154D-01
 Vibrational polarizability contributions from mode   3       3.3927026      12.4012881      16.4927742
 Vibrational hyperpolarizability contributions from mode   3       0.0000000       0.0000000      -0.0000000
 Dipole derivatives wrt mode   4:  3.26378D-02  3.53116D-01  1.62470D-02
 Vibrational polarizability contributions from mode   4       0.0220560       2.5817778       0.0054655
 Vibrational hyperpolarizability contributions from mode   4       0.0000000       0.0000000       0.0000000
 Dipole derivatives wrt mode   5:  5.32494D-01  1.59541D+00  3.64193D-01
 Vibrational polarizability contributions from mode   5       1.9045797      17.0967443       0.8909078
 Vibrational hyperpolarizability contributions from mode   5       0.0000000       0.0000000       0.0000000
 Dipole derivatives wrt mode   6:  1.37582D+00  5.46532D+00  6.34165D-01
 Vibrational polarizability contributions from mode   6       7.0409235     111.1053314       1.4959169
 Vibrational hyperpolarizability contributions from mode   6       0.0000000       0.0000000       0.0000000
 Dipole derivatives wrt mode   7:  2.51737D-01  6.67271D-01  9.61793D-02
 Vibrational polarizability contributions from mode   7       0.0996514       0.7001524       0.0145463
 Vibrational hyperpolarizability contributions from mode   7       0.0000000       0.0000000       0.0000000
 Dipole derivatives wrt mode   8:  1.08667D+00 -5.79983D+00 -3.22074D-01
 Vibrational polarizability contributions from mode   8       0.1858258       5.2934871       0.0163239
 Vibrational hyperpolarizability contributions from mode   8       0.0000000      -0.0000000      -0.0000000
 Dipole derivatives wrt mode   9: -1.06453D+00 -7.11497D+00 -2.05679D+00
 Vibrational polarizability contributions from mode   9       0.1335152       5.9642978       0.4984148
 Vibrational hyperpolarizability contributions from mode   9      -0.0000000      -0.0000000      -0.0000000
 Dipole derivatives wrt mode  10:  1.39780D+00  1.04470D+01  1.44645D+00
 Vibrational polarizability contributions from mode  10       0.1881092      10.5076398       0.2014297
 Vibrational hyperpolarizability contributions from mode  10       0.0000000       0.0000000       0.0000000
 Dipole derivatives wrt mode  11:  7.20749D-01 -3.43065D-01  1.04675D+00
 Vibrational polarizability contributions from mode  11       0.0208784       0.0047302       0.0440371
 Vibrational hyperpolarizability contributions from mode  11       0.0000000      -0.0000000       0.0000000
 Dipole derivatives wrt mode  12:  5.32659D-01 -6.31347D-01 -9.59017D-01
 Vibrational polarizability contributions from mode  12       0.0078922       0.0110875       0.0255830
 Vibrational hyperpolarizability contributions from mode  12       0.0000000      -0.0000000      -0.0000000
 Dipole derivatives wrt mode  13:  3.15039D-01 -5.58534D-01 -6.99577D+00
 Vibrational polarizability contributions from mode  13       0.0023481       0.0073806       1.1578791
 Vibrational hyperpolarizability contributions from mode  13       0.0000000      -0.0000000      -0.0000000
 Dipole derivatives wrt mode  14:  5.61244D-02 -1.31876D-01 -2.08768D-01
 Vibrational polarizability contributions from mode  14       0.0000732       0.0004040       0.0010125
 Vibrational hyperpolarizability contributions from mode  14       0.0000000      -0.0000000      -0.0000000
 Dipole derivatives wrt mode  15:  8.42615D-01 -3.50762D-01  1.04183D+00
 Vibrational polarizability contributions from mode  15       0.0132803       0.0023013       0.0203023
 Vibrational hyperpolarizability contributions from mode  15       0.0000000      -0.0000000       0.0000000
 Dipole derivatives wrt mode  16:  3.83943D-02  1.18598D+00  1.11364D+01
 Vibrational polarizability contributions from mode  16       0.0000262       0.0249528       2.2001700
 Vibrational hyperpolarizability contributions from mode  16       0.0000000       0.0000000       0.0000000
 Dipole derivatives wrt mode  17: -2.04520D+00  6.76269D-01 -4.70162D+00
 Vibrational polarizability contributions from mode  17       0.0601663       0.0065784       0.3179624
 Vibrational hyperpolarizability contributions from mode  17      -0.0000000       0.0000000      -0.0000000
 Dipole derivatives wrt mode  18: -1.15045D+00  4.23723D-01  1.12127D+00
 Vibrational polarizability contributions from mode  18       0.0180426       0.0024476       0.0171392
 Vibrational hyperpolarizability contributions from mode  18      -0.0000000       0.0000000       0.0000000
 Dipole derivatives wrt mode  19:  2.03325D-01 -1.73848D+00 -9.01129D-01
 Vibrational polarizability contributions from mode  19       0.0005139       0.0375682       0.0100938
 Vibrational hyperpolarizability contributions from mode  19       0.0000000      -0.0000000      -0.0000000
 Dipole derivatives wrt mode  20:  1.47564D+00 -1.38835D+00  1.44561D+00
 Vibrational polarizability contributions from mode  20       0.0265291       0.0234832       0.0254603
 Vibrational hyperpolarizability contributions from mode  20       0.0000000      -0.0000000       0.0000000
 Dipole derivatives wrt mode  21:  7.75728D-01  1.54815D+00  6.96586D-01
 Vibrational polarizability contributions from mode  21       0.0072917       0.0290426       0.0058798
 Vibrational hyperpolarizability contributions from mode  21       0.0000000       0.0000000       0.0000000
 Dipole derivatives wrt mode  22: -5.25017D-03  8.86713D-01  3.53031D+00
 Vibrational polarizability contributions from mode  22       0.0000003       0.0094855       0.1503562
 Vibrational hyperpolarizability contributions from mode  22      -0.0000000       0.0000000       0.0000000
 Dipole derivatives wrt mode  23:  2.59853D+00 -3.17027D+00 -3.57246D+00
 Vibrational polarizability contributions from mode  23       0.0204330       0.0304135       0.0386199
 Vibrational hyperpolarizability contributions from mode  23       0.0000000      -0.0000000      -0.0000000
 Dipole derivatives wrt mode  24:  2.47629D+00  3.54528D+00 -1.26154D+00
 Vibrational polarizability contributions from mode  24       0.0175185       0.0359082       0.0045467
 Vibrational hyperpolarizability contributions from mode  24       0.0000000       0.0000000      -0.0000000
 Dipole derivatives wrt mode  25:  2.69880D+00 -9.72185D-01  3.07295D+00
 Vibrational polarizability contributions from mode  25       0.0201756       0.0026181       0.0261575
 Vibrational hyperpolarizability contributions from mode  25       0.0000000      -0.0000000       0.0000000
 Dipole derivatives wrt mode  26:  5.96511D-01 -6.16507D-01  4.26700D+00
 Vibrational polarizability contributions from mode  26       0.0009636       0.0010293       0.0493062
 Vibrational hyperpolarizability contributions from mode  26       0.0000000      -0.0000000       0.0000000
 Dipole derivatives wrt mode  27: -3.17571D+00 -5.44532D-02  2.05980D+00
 Vibrational polarizability contributions from mode  27       0.0271129       0.0000080       0.0114063
 Vibrational hyperpolarizability contributions from mode  27      -0.0000000      -0.0000000       0.0000000
 Dipole derivatives wrt mode  28:  2.06752D+00 -8.98468D-01  2.71090D+00
 Vibrational polarizability contributions from mode  28       0.0107789       0.0020355       0.0185312
 Vibrational hyperpolarizability contributions from mode  28       0.0000000      -0.0000000       0.0000000
 Dipole derivatives wrt mode  29: -2.78372D+00  8.21467D-01  1.76322D-01
 Vibrational polarizability contributions from mode  29       0.0192208       0.0016738       0.0000771
 Vibrational hyperpolarizability contributions from mode  29      -0.0000000       0.0000000       0.0000000
 Dipole derivatives wrt mode  30:  5.91886D+00 -1.04851D+00 -5.61013D+00
 Vibrational polarizability contributions from mode  30       0.0615174       0.0019305       0.0552674
 Vibrational hyperpolarizability contributions from mode  30       0.0000000      -0.0000000      -0.0000000
 Diagonal vibrational polarizability:
       14.5784016     168.7209503     477.3549940
 NorSel:  MapVib=      1      2      3      4      5      6      7      8      9     10
 NorSel:  MapVib=     11     12     13     14     15     16     17     18     19     20
 NorSel:  MapVib=     21     22     23     24     25     26     27     28     29     30
 Harmonic frequencies (cm**-1), IR intensities (KM/Mole), Raman scattering
 activities (A**4/AMU), depolarization ratios for plane and unpolarized
 incident light, reduced masses (AMU), force constants (mDyne/A),
 and normal coordinates:
                      1                      2                      3
                      A                      A                      A
 Frequencies --    -77.5774                13.1632                31.0694
 Red. masses --      3.2211                 2.5180                 2.2466
 Frc consts  --      0.0114                 0.0003                 0.0013
 IR Inten    --  0.1041                  2.944                  1.158    
  Atom  AN      X      Y      Z        X      Y      Z        X      Y      Z
     1   6     0.08   0.25   0.08     0.16  -0.04   0.06     0.12  -0.10  -0.07
     2   8     0.01   0.06   0.08    -0.15   0.11   0.06    -0.05  -0.05  -0.07
     3   1     0.10   0.39   0.13     0.27  -0.09   0.28     0.18  -0.21   0.06
     4   1     0.06   0.22   0.09     0.28  -0.11  -0.19     0.22  -0.05  -0.19
     5   1    -0.01  -0.06   0.04    -0.22   0.14  -0.16    -0.09   0.04  -0.18
     6   6    -0.10  -0.28  -0.15     0.10  -0.04   0.07    -0.05  -0.08   0.05
     7   6    -0.00  -0.05  -0.03    -0.09  -0.05  -0.17    -0.02   0.22   0.09
     8   1    -0.12  -0.58  -0.26     0.03   0.04   0.29    -0.11  -0.43  -0.00
     9   1    -0.10  -0.10  -0.09     0.29  -0.11   0.03     0.02   0.03   0.08
    10   1     0.24  -0.02  -0.02    -0.24  -0.02  -0.25     0.26   0.25   0.11
    11   1    -0.08  -0.07  -0.05    -0.21   0.01  -0.10    -0.19   0.18   0.08
    12   1    -0.10   0.15   0.06     0.03  -0.13  -0.35    -0.09   0.49   0.12
                      4                      5                      6
                      A                      A                      A
 Frequencies --     36.0516                63.2968                85.0580
 Red. masses --      2.3390                 1.2381                 1.1497
 Frc consts  --      0.0018                 0.0029                 0.0049
 IR Inten    --  0.1260                  2.962                  32.16    
  Atom  AN      X      Y      Z        X      Y      Z        X      Y      Z
     1   6    -0.06  -0.17   0.04    -0.04  -0.07   0.04    -0.04   0.06  -0.01
     2   8     0.07   0.19   0.04     0.02   0.05   0.04    -0.00  -0.06  -0.01
     3   1    -0.10  -0.35  -0.05    -0.06  -0.32  -0.00    -0.05  -0.49  -0.04
     4   1    -0.09  -0.27   0.01     0.03   0.06   0.04     0.19   0.63   0.05
     5   1     0.10   0.33   0.11     0.05   0.29   0.07     0.04   0.46   0.02
     6   6    -0.05  -0.11  -0.09     0.00   0.04  -0.04     0.03  -0.04   0.02
     7   6     0.03   0.05   0.01     0.00  -0.04  -0.04     0.00   0.00  -0.01
     8   1     0.00   0.09  -0.12    -0.03  -0.22  -0.10     0.01  -0.05   0.05
     9   1    -0.17  -0.42  -0.18     0.05   0.33   0.05     0.06  -0.03   0.02
    10   1    -0.00   0.18  -0.25     0.22  -0.21   0.33    -0.09   0.07  -0.16
    11   1     0.16   0.28   0.21    -0.16  -0.36  -0.32     0.04   0.13   0.10
    12   1    -0.00  -0.17   0.14    -0.04   0.37  -0.11     0.03  -0.15  -0.01
                      7                      8                      9
                      A                      A                      A
 Frequencies --    130.8195               413.5334               477.9254
 Red. masses --      1.0304                 1.1502                 1.2009
 Frc consts  --      0.0104                 0.1159                 0.1616
 IR Inten    --  0.5179                  34.92                  55.99    
  Atom  AN      X      Y      Z        X      Y      Z        X      Y      Z
     1   6     0.01   0.03  -0.00    -0.03  -0.07  -0.01     0.00   0.01   0.00
     2   8    -0.00  -0.02  -0.00     0.01   0.07  -0.00    -0.00  -0.00   0.00
     3   1     0.01  -0.03   0.00     0.01  -0.12   0.06    -0.00  -0.03  -0.01
     4   1     0.04   0.12   0.00     0.22   0.57   0.04    -0.01  -0.04  -0.01
     5   1    -0.00   0.03  -0.01    -0.05  -0.77   0.01     0.00   0.03  -0.00
     6   6    -0.00  -0.03   0.01     0.00   0.00  -0.00     0.02   0.13   0.03
     7   6    -0.00   0.01   0.00    -0.00  -0.00  -0.00    -0.00  -0.01   0.00
     8   1     0.07   0.54   0.14    -0.01  -0.05  -0.01    -0.06  -0.65  -0.18
     9   1    -0.10  -0.60  -0.17    -0.00  -0.02  -0.01    -0.08  -0.65  -0.20
    10   1     0.21  -0.08   0.23    -0.01  -0.00   0.00    -0.15  -0.07   0.08
    11   1    -0.15  -0.17  -0.15     0.00  -0.00  -0.00     0.04  -0.06  -0.06
    12   1    -0.04   0.30  -0.03     0.00  -0.00  -0.00     0.04  -0.07  -0.05
                     10                     11                     12
                      A                      A                      A
 Frequencies --    528.6973               818.2799               983.5968
 Red. masses --      1.1973                 1.0501                 1.3317
 Frc consts  --      0.1972                 0.4143                 0.7591
 IR Inten    --   113.2                  1.733                  1.602    
  Atom  AN      X      Y      Z        X      Y      Z        X      Y      Z
     1   6    -0.02  -0.13  -0.02    -0.00   0.00   0.00     0.00  -0.00  -0.00
     2   8     0.00  -0.00  -0.00    -0.00  -0.00  -0.00    -0.00  -0.00   0.00
     3   1     0.06   0.78   0.12    -0.00  -0.00   0.00    -0.00   0.00  -0.00
     4   1     0.12   0.42   0.13     0.00   0.00  -0.00    -0.00   0.00   0.00
     5   1     0.03   0.38   0.01     0.00   0.00   0.00    -0.00   0.00  -0.00
     6   6     0.00   0.00   0.00    -0.03   0.01  -0.04     0.00  -0.09  -0.04
     7   6    -0.00  -0.00   0.00    -0.02   0.01  -0.03     0.01   0.14   0.05
     8   1    -0.00  -0.03  -0.01    -0.23  -0.08   0.46     0.04   0.06  -0.03
     9   1    -0.00  -0.03  -0.01     0.50  -0.06  -0.11     0.06   0.05  -0.00
    10   1    -0.01  -0.00   0.00     0.13  -0.06   0.15    -0.62  -0.16   0.43
    11   1     0.00  -0.00   0.00     0.44  -0.01  -0.10     0.18  -0.24  -0.32
    12   1    -0.00  -0.00   0.00    -0.23  -0.10   0.38     0.22  -0.28  -0.20
                     13                     14                     15
                      A                      A                      A
 Frequencies --   1066.5238              1076.2818              1199.4752
 Red. masses --      1.0830                 3.1854                 1.4709
 Frc consts  --      0.7258                 2.1740                 1.2469
 IR Inten    --   49.35                 0.6413E-01              1.918    
  Atom  AN      X      Y      Z        X      Y      Z        X      Y      Z
     1   6     0.06  -0.02   0.00    -0.00  -0.00  -0.00    -0.00   0.00  -0.00
     2   8    -0.01   0.01   0.04    -0.00   0.00   0.00     0.00  -0.00   0.00
     3   1    -0.18  -0.00  -0.54    -0.00  -0.00  -0.00     0.00   0.00   0.00
     4   1    -0.19   0.09   0.48    -0.00  -0.00  -0.00     0.00   0.00  -0.00
     5   1    -0.24   0.01  -0.58    -0.00   0.00   0.00    -0.00  -0.00   0.00
     6   6    -0.00   0.00   0.00     0.26   0.01  -0.20     0.08  -0.04   0.10
     7   6    -0.00  -0.00  -0.00    -0.24  -0.02   0.18    -0.09   0.05  -0.12
     8   1    -0.00   0.00  -0.00     0.32   0.04  -0.28     0.27   0.03  -0.38
     9   1     0.00   0.00   0.00     0.38   0.02  -0.23    -0.43   0.05   0.17
    10   1     0.01   0.00  -0.00    -0.13   0.02   0.10     0.18  -0.10   0.22
    11   1    -0.00   0.00   0.00    -0.36   0.04   0.26     0.43   0.07  -0.15
    12   1    -0.00  -0.00   0.00    -0.33   0.02   0.31    -0.31  -0.13   0.34
                     16                     17                     18
                      A                      A                      A
 Frequencies --   1231.6393              1367.8114              1405.0201
 Red. masses --      4.8323                 1.2814                 1.1948
 Frc consts  --      4.3189                 1.4125                 1.3896
 IR Inten    --   125.4                  26.75                  2.760    
  Atom  AN      X      Y      Z        X      Y      Z        X      Y      Z
     1   6     0.04  -0.01   0.40    -0.11   0.02   0.05     0.00   0.00  -0.00
     2   8    -0.03   0.01  -0.37     0.09  -0.01   0.00    -0.00   0.00   0.00
     3   1    -0.01  -0.07   0.32     0.04   0.01   0.41    -0.00  -0.00  -0.01
     4   1    -0.15  -0.02   0.74     0.09  -0.05  -0.33    -0.00   0.00   0.00
     5   1     0.12  -0.01  -0.01    -0.22   0.03  -0.80     0.00   0.00   0.01
     6   6     0.00  -0.00   0.00     0.00  -0.00  -0.00     0.01  -0.00  -0.01
     7   6    -0.00   0.00  -0.00     0.00  -0.00  -0.00     0.10  -0.01  -0.08
     8   1     0.01  -0.00  -0.01    -0.00   0.00   0.00    -0.06  -0.02   0.14
     9   1    -0.00   0.01   0.00    -0.00   0.00   0.00    -0.15   0.02   0.02
    10   1    -0.01  -0.01   0.01    -0.01  -0.00   0.00    -0.50  -0.24   0.29
    11   1     0.01   0.00  -0.00    -0.00   0.00   0.00    -0.37   0.26   0.26
    12   1    -0.00   0.00   0.00    -0.00   0.01   0.00    -0.25   0.19   0.42
                     19                     20                     21
                      A                      A                      A
 Frequencies --   1471.3874              1486.2301              1490.2546
 Red. masses --      1.1132                 1.0383                 1.1217
 Frc consts  --      1.4199                 1.3513                 1.4678
 IR Inten    --   3.876                  6.195                  3.484    
  Atom  AN      X      Y      Z        X      Y      Z        X      Y      Z
     1   6    -0.00  -0.00   0.00    -0.00   0.00  -0.01     0.00   0.00  -0.01
     2   8     0.00  -0.00  -0.00     0.00   0.00   0.00    -0.00   0.00   0.00
     3   1     0.00   0.00   0.00     0.03  -0.01   0.06     0.01  -0.01   0.03
     4   1     0.00  -0.00  -0.00    -0.04  -0.00   0.05    -0.02  -0.00   0.03
     5   1    -0.00  -0.00  -0.00    -0.00   0.00  -0.01    -0.00  -0.00  -0.00
     6   6     0.07   0.01  -0.05    -0.02   0.01  -0.01     0.05  -0.01  -0.05
     7   6    -0.00   0.04   0.02    -0.02   0.02  -0.04    -0.06  -0.04   0.02
     8   1    -0.18  -0.13   0.51    -0.02  -0.00  -0.04    -0.12  -0.08   0.35
     9   1    -0.55   0.06   0.03     0.12   0.01  -0.02    -0.36   0.05   0.01
    10   1     0.18   0.10  -0.10     0.41  -0.20   0.49    -0.06  -0.10   0.18
    11   1    -0.27  -0.22  -0.19    -0.24   0.31   0.30     0.46   0.28   0.25
    12   1    -0.00  -0.38   0.15     0.19  -0.46  -0.20     0.12   0.37  -0.40
                     22                     23                     24
                      A                      A                      A
 Frequencies --   1493.5476              2982.1448              3069.1600
 Red. masses --      1.1711                 1.0566                 1.0742
 Frc consts  --      1.5392                 5.5361                 5.9617
 IR Inten    --   13.25                  29.57                  20.29    
  Atom  AN      X      Y      Z        X      Y      Z        X      Y      Z
     1   6    -0.00  -0.00   0.12    -0.00   0.00  -0.00    -0.00   0.00  -0.00
     2   8    -0.00  -0.01  -0.02    -0.00  -0.00  -0.00    -0.00   0.00   0.00
     3   1    -0.32   0.17  -0.60    -0.00   0.00   0.00     0.00  -0.00  -0.00
     4   1     0.41   0.00  -0.56     0.00  -0.00   0.00     0.00  -0.00   0.00
     5   1     0.02  -0.00   0.04     0.00   0.00   0.00    -0.00   0.00   0.00
     6   6     0.00   0.00  -0.00     0.00  -0.00  -0.00    -0.00   0.00   0.00
     7   6    -0.00   0.00  -0.00     0.02  -0.05  -0.04     0.03   0.07  -0.01
     8   1    -0.01  -0.00   0.01     0.00  -0.00  -0.00    -0.01   0.00  -0.00
     9   1    -0.01   0.00  -0.00     0.00  -0.00  -0.00     0.00   0.00   0.00
    10   1     0.04  -0.03   0.06    -0.09   0.84   0.43     0.03  -0.23  -0.13
    11   1    -0.00   0.04   0.04     0.02  -0.17   0.14     0.08  -0.52   0.55
    12   1     0.02  -0.03  -0.04    -0.17  -0.05  -0.11    -0.50  -0.08  -0.30
                     25                     26                     27
                      A                      A                      A
 Frequencies --   3116.9083              3152.3747              3163.8741
 Red. masses --      1.1020                 1.0464                 1.0511
 Frc consts  --      6.3080                 6.1268                 6.1989
 IR Inten    --   17.67                  18.94                  14.33    
  Atom  AN      X      Y      Z        X      Y      Z        X      Y      Z
     1   6    -0.00   0.00  -0.00     0.01  -0.02   0.05     0.00   0.00  -0.00
     2   8    -0.00   0.00   0.00    -0.00  -0.00  -0.00     0.00   0.00   0.00
     3   1    -0.00  -0.00   0.00     0.54  -0.02  -0.23    -0.01   0.00   0.00
     4   1     0.00  -0.00   0.00    -0.65   0.28  -0.39     0.01  -0.00   0.00
     5   1    -0.00  -0.00   0.00     0.00   0.00  -0.00    -0.00  -0.00  -0.00
     6   6    -0.00   0.00  -0.00    -0.00   0.00   0.00    -0.05  -0.00   0.03
     7   6     0.06  -0.02   0.07     0.00  -0.00   0.00     0.00   0.00  -0.00
     8   1     0.05  -0.01   0.02     0.01  -0.00   0.00     0.66  -0.15   0.26
     9   1     0.00  -0.02   0.04    -0.00   0.00  -0.01    -0.07   0.21  -0.65
    10   1     0.02  -0.03   0.01    -0.00   0.00   0.00     0.00  -0.00  -0.00
    11   1    -0.05   0.43  -0.43    -0.00   0.00  -0.00    -0.00  -0.00   0.01
    12   1    -0.67  -0.14  -0.39    -0.00  -0.00  -0.00     0.00   0.00   0.00
                     28                     29                     30
                      A                      A                      A
 Frequencies --   3266.8506              3293.8664              3914.7600
 Red. masses --      1.1190                 1.1250                 1.0665
 Frc consts  --      7.0360                 7.1915                 9.6298
 IR Inten    --   12.43                  8.455                  67.61    
  Atom  AN      X      Y      Z        X      Y      Z        X      Y      Z
     1   6    -0.00   0.00   0.00    -0.10   0.02   0.00    -0.00   0.00  -0.00
     2   8     0.00  -0.00  -0.00     0.00  -0.00  -0.00    -0.06   0.00   0.02
     3   1     0.00  -0.00  -0.00     0.74  -0.00  -0.33     0.01   0.00  -0.01
     4   1     0.00  -0.00   0.00     0.46  -0.21   0.28     0.01  -0.00  -0.00
     5   1    -0.00  -0.00   0.00    -0.02  -0.00  -0.00     0.93  -0.06  -0.35
     6   6     0.06  -0.03   0.08    -0.00   0.00  -0.00    -0.00  -0.00   0.00
     7   6     0.00  -0.00   0.00    -0.00  -0.00  -0.00     0.00   0.00  -0.00
     8   1    -0.63   0.13  -0.23     0.00  -0.00   0.00    -0.00   0.00  -0.00
     9   1    -0.06   0.22  -0.69     0.00  -0.00   0.00     0.00   0.00  -0.00
    10   1     0.00  -0.00   0.00     0.00   0.00   0.00     0.00  -0.00  -0.00
    11   1    -0.00   0.03  -0.03    -0.00  -0.00  -0.00     0.00   0.00   0.00
    12   1    -0.04  -0.01  -0.02     0.00  -0.00   0.00    -0.00   0.00  -0.00

 -------------------
 - Thermochemistry -
 -------------------
 Temperature   298.150 Kelvin.  Pressure   1.00000 Atm.
 Atom     1 has atomic number  6 and mass  12.00000
 Atom     2 has atomic number  8 and mass  15.99491
 Atom     3 has atomic number  1 and mass   1.00783
 Atom     4 has atomic number  1 and mass   1.00783
 Atom     5 has atomic number  1 and mass   1.00783
 Atom     6 has atomic number  6 and mass  12.00000
 Atom     7 has atomic number  6 and mass  12.00000
 Atom     8 has atomic number  1 and mass   1.00783
 Atom     9 has atomic number  1 and mass   1.00783
 Atom    10 has atomic number  1 and mass   1.00783
 Atom    11 has atomic number  1 and mass   1.00783
 Atom    12 has atomic number  1 and mass   1.00783
 Molecular mass:    60.05751 amu.
 Principal axes and moments of inertia in atomic units:
                           1         2         3
     Eigenvalues --   121.592291091.131421142.90842
           X            0.03130   0.70616   0.70736
           Y            0.75284   0.44886  -0.48141
           Z            0.65746  -0.54760   0.51757
 This molecule is an asymmetric top.
 Rotational symmetry number  1.
 Rotational temperatures (Kelvin)      0.71233     0.07938     0.07578
 Rotational constants (GHZ):          14.84256     1.65401     1.57908
    1 imaginary frequencies ignored.
 Zero-point vibrational energy     256177.9 (Joules/Mol)
                                   61.22799 (Kcal/Mol)
 Warning -- explicit consideration of   9 degrees of freedom as
           vibrations may cause significant error
 Vibrational temperatures:     18.94    44.70    51.87    91.07   122.38
          (Kelvin)            188.22   594.98   687.63   760.68  1177.32
                             1415.17  1534.49  1548.53  1725.78  1772.05
                             1967.97  2021.51  2117.00  2138.35  2144.14
                             2148.88  4290.64  4415.83  4484.53  4535.56
                             4552.10  4700.26  4739.13  5632.46
 
 Zero-point correction=                           0.097573 (Hartree/Particle)
 Thermal correction to Energy=                    0.106286
 Thermal correction to Enthalpy=                  0.107230
 Thermal correction to Gibbs Free Energy=         0.061008
 Sum of electronic and zero-point Energies=           -194.133803
 Sum of electronic and thermal Energies=              -194.125090
 Sum of electronic and thermal Enthalpies=            -194.124146
 Sum of electronic and thermal Free Energies=         -194.170368
 
                     E (Thermal)             CV                S
                      KCal/Mol        Cal/Mol-Kelvin    Cal/Mol-Kelvin
 Total                   66.695             24.250             97.283
 Electronic               0.000              0.000              0.000
 Translational            0.889              2.981             38.198
 Rotational               0.889              2.981             26.519
 Vibrational             64.918             18.289             32.565
 Vibration     1          0.593              1.987              7.465
 Vibration     2          0.594              1.983              5.760
 Vibration     3          0.594              1.982              5.465
 Vibration     4          0.597              1.972              4.352
 Vibration     5          0.601              1.960              3.771
 Vibration     6          0.612              1.923              2.934
 Vibration     7          0.777              1.441              0.914
 Vibration     8          0.834              1.299              0.716
 Vibration     9          0.884              1.186              0.590
                       Q            Log10(Q)             Ln(Q)
 Total Bot       0.868051D-28        -28.061455        -64.613887
 Total V=0       0.659051D+17         16.818919         38.726992
 Vib (Bot)       0.340404D-40        -40.468005        -93.181024
 Vib (Bot)    1  0.157401D+02          1.197007          2.756211
 Vib (Bot)    2  0.666350D+01          0.823702          1.896644
 Vib (Bot)    3  0.574076D+01          0.758970          1.747592
 Vib (Bot)    4  0.326117D+01          0.513373          1.182085
 Vib (Bot)    5  0.241926D+01          0.383682          0.883462
 Vib (Bot)    6  0.155805D+01          0.192582          0.443436
 Vib (Bot)    7  0.426697D+00         -0.369881         -0.851682
 Vib (Bot)    8  0.350565D+00         -0.455232         -1.048209
 Vib (Bot)    9  0.302863D+00         -0.518753         -1.194474
 Vib (V=0)       0.258446D+05          4.412369         10.159856
 Vib (V=0)    1  0.162480D+02          1.210801          2.787972
 Vib (V=0)    2  0.718223D+01          0.856259          1.971610
 Vib (V=0)    3  0.626250D+01          0.796748          1.834579
 Vib (V=0)    4  0.379927D+01          0.579700          1.334810
 Vib (V=0)    5  0.297039D+01          0.472813          1.088693
 Vib (V=0)    6  0.213631D+01          0.329665          0.759082
 Vib (V=0)    7  0.115732D+01          0.063454          0.146107
 Vib (V=0)    8  0.111065D+01          0.045578          0.104947
 Vib (V=0)    9  0.108457D+01          0.035259          0.081187
 Electronic      0.100000D+01          0.000000          0.000000
 Translational   0.182939D+08          7.262306         16.722078
 Rotational      0.139394D+06          5.144244         11.845059
 -------------------------------------------------------------------
 Center     Atomic                   Forces (Hartrees/Bohr)
 Number     Number              X              Y              Z
 -------------------------------------------------------------------
      1        6          -0.000436764   -0.001531615   -0.000710618
      2        8          -0.000012083    0.000000191    0.000004677
      3        1           0.000005916   -0.000048930    0.000005408
      4        1          -0.000017295    0.000000781   -0.000012796
      5        1           0.000038108   -0.000013445   -0.000015465
      6        6           0.000379831    0.001502928    0.000727340
      7        6          -0.000021256    0.000047358   -0.000049616
      8        1           0.000013012    0.000035133    0.000006173
      9        1           0.000008130    0.000018936   -0.000005862
     10        1           0.000010963   -0.000000224    0.000018110
     11        1           0.000006429   -0.000007020    0.000016011
     12        1           0.000025009   -0.000004092    0.000016637
 -------------------------------------------------------------------
 Cartesian Forces:  Max     0.001531615 RMS     0.000407820
 From PutF, contents of force:
   1   -0.1078727319D-04
   2    0.3196412819D-05
   3    0.2020624118D-04
   4   -0.4186999311D-04
   5   -0.1497041388D-04
   6    0.6900152014D-05
   7   -0.2465558984D-05
   8   -0.1179898312D-04
   9    0.1571919084D-04
  10   -0.7340335083D-05
  11   -0.1064949847D-04
  12   -0.7017698393D-05
  13   -0.1693449136D-04
  14    0.2885119716D-04
  15   -0.5852227576D-05
  16   -0.1054424079D-04
  17    0.1399081864D-06
  18    0.3341378511D-05
  19   -0.2610097906D-05
  20    0.3128894435D-04
  21    0.1453301018D-04
  22    0.1765588117D-04
  23   -0.5472982045D-04
  24    0.2391488314D-04
  25   -0.2751997267D-04
  26    0.1842369375D-04
  27   -0.6343920208D-05
  28   -0.9429300963D-04
  29    0.1631687377D-04
  30   -0.1801901894D-02
 -----------------------------------------------------------------------------------------------
                       Internal Coordinate Forces (Hartree/Bohr or radian)
  Cent   Atom   N1       Length/X         N2         Alpha/Y        N3         Beta/Z          J
 -----------------------------------------------------------------------------------------------
      1  C 
      2  O        1  -0.000011(     1)
      3  H        1   0.000003(     2)      2  -0.000015(    12)
      4  H        1   0.000020(     3)      2   0.000007(    13)      3  -0.000012(    22)     0
      5  H        2  -0.000042(     4)      1  -0.000002(    14)      3   0.000018(    23)     0
      6  C        1  -0.001802(     5)      2   0.000016(    15)      3  -0.000094(    24)     0
      7  C        6   0.000016(     6)      1  -0.000055(    16)      2   0.000024(    25)     0
      8  H        6  -0.000007(     7)      7  -0.000006(    17)      1  -0.000028(    26)     0
      9  H        6  -0.000011(     8)      7  -0.000011(    18)      8   0.000031(    27)     0
     10  H        7  -0.000007(     9)      6   0.000000(    19)      8  -0.000006(    28)     0
     11  H        7  -0.000017(    10)      6   0.000003(    20)     10   0.000015(    29)     0
     12  H        7   0.000029(    11)      6  -0.000003(    21)     10   0.000018(    30)     0
 -----------------------------------------------------------------------------------------------
 Internal  Forces:  Max     0.001801902 RMS     0.000329983
 Force constants in Cartesian coordinates: 
                1             2             3             4             5 
      1  0.665137D+00
      2 -0.125685D+00  0.701511D-01
      3 -0.207029D-01 -0.572067D-01  0.604133D+00
      4 -0.992198D-01  0.167485D-01  0.233706D-01  0.572924D+00
      5  0.152866D-01 -0.773190D-02 -0.100433D-01 -0.464334D-01  0.146239D-01
      6 -0.249141D-01  0.714695D-02 -0.374214D+00 -0.154321D+00  0.390617D-02
      7 -0.317407D+00  0.133309D-01  0.111226D+00  0.663983D-02 -0.138107D-02
      8 -0.237683D-02 -0.933738D-02  0.762653D-02  0.660109D-04 -0.236359D-02
      9  0.944694D-01  0.458703D-02 -0.928734D-01  0.357362D-01 -0.456555D-03
     10 -0.246890D+00  0.950395D-01 -0.106852D+00  0.820022D-02 -0.837287D-03
     11  0.111363D+00 -0.525588D-01  0.583678D-01 -0.485027D-02  0.313995D-02
     12 -0.968003D-01  0.490338D-01 -0.113662D+00 -0.249888D-01  0.142868D-01
     13 -0.127852D-02 -0.102084D-03 -0.722861D-02 -0.488650D+00  0.334057D-01
     14  0.563487D-03 -0.173562D-02  0.705485D-03  0.345470D-01 -0.777677D-02
     15  0.474964D-01 -0.455137D-02 -0.230736D-01  0.120315D+00 -0.739627D-02
     16 -0.151035D-03  0.646659D-03  0.335395D-03 -0.203041D-05 -0.101454D-03
     17  0.947250D-03  0.153714D-02  0.534529D-03 -0.111852D-03  0.602609D-04
     18  0.393270D-03  0.152179D-02 -0.251813D-03 -0.913145D-04 -0.229232D-03
     19  0.859687D-04  0.286022D-03 -0.888583D-04 -0.941939D-04 -0.795271D-05
     20  0.139286D-03 -0.273573D-03  0.143218D-03 -0.149988D-04 -0.158335D-03
     21  0.644066D-04 -0.200013D-03 -0.523562D-04 -0.380129D-04 -0.121397D-03
     22 -0.609340D-04  0.677146D-04 -0.561819D-04  0.737421D-04 -0.330981D-05
     23 -0.215242D-03  0.179096D-03 -0.116738D-03  0.564109D-04 -0.682162D-04
     24 -0.534992D-05  0.971747D-04 -0.139166D-03  0.305133D-04 -0.675054D-04
     25 -0.830933D-04 -0.638607D-04  0.113766D-04 -0.120097D-04  0.293604D-04
     26 -0.108163D-03 -0.342972D-03  0.289616D-03  0.704016D-04  0.270158D-03
     27 -0.107274D-03 -0.389634D-03  0.131460D-03  0.336967D-04  0.965218D-04
     28 -0.895645D-04 -0.942279D-04 -0.178706D-04  0.688545D-04  0.529875D-04
     29 -0.454599D-04 -0.452906D-04  0.126262D-03  0.332802D-04 -0.636263D-04
     30  0.694829D-04 -0.107626D-03  0.153732D-03 -0.845901D-05 -0.296432D-04
     31  0.630211D-04  0.317810D-04 -0.789770D-04 -0.405621D-04  0.175923D-04
     32 -0.119291D-04  0.600529D-04 -0.140389D-03 -0.723113D-05  0.116654D-04
     33  0.569535D-04  0.347171D-04 -0.208072D-03 -0.487592D-04  0.371273D-04
     34 -0.106829D-03 -0.206125D-03  0.819190D-04  0.112420D-03 -0.276678D-04
     35  0.142686D-03  0.981039D-04 -0.286186D-03 -0.103768D-03  0.565054D-04
     36 -0.200333D-04  0.338592D-04  0.568673D-04  0.100899D-04  0.172739D-04
                6             7             8             9            10 
      6  0.509090D+00
      7 -0.585909D-03  0.318611D+00
      8  0.128676D-02 -0.785462D-02  0.785475D-02
      9 -0.200137D-01 -0.117698D+00 -0.461446D-02  0.110332D+00
     10  0.480174D-02 -0.102729D-01  0.981769D-02 -0.124235D-01  0.246532D+00
     11 -0.257659D-03 -0.405538D-02  0.753789D-03 -0.473895D-03 -0.102208D+00
     12 -0.257125D-01  0.901562D-02 -0.450967D-02  0.895213D-02  0.115293D+00
     13  0.174918D+00  0.232032D-02  0.417048D-03 -0.858147D-04  0.243197D-02
     14 -0.122613D-01 -0.105719D-03  0.308250D-02  0.917007D-03 -0.150949D-02
     15 -0.893328D-01 -0.195562D-02  0.160881D-03 -0.641680D-02 -0.757741D-03
     16 -0.220206D-03 -0.452991D-04 -0.193542D-03 -0.627918D-04 -0.172364D-04
     17  0.643197D-03  0.181908D-03  0.832616D-04 -0.726105D-05 -0.421595D-03
     18  0.356909D-03  0.929886D-04  0.654415D-04  0.433128D-05 -0.992821D-04
     19  0.270077D-03  0.772999D-05 -0.200115D-03 -0.159300D-04 -0.125539D-03
     20 -0.564790D-03  0.424327D-05  0.124808D-03  0.296328D-04  0.233323D-04
     21 -0.352763D-03  0.212977D-05  0.160489D-05  0.660733D-04 -0.174699D-04
     22  0.109602D-03  0.432222D-04  0.508000D-04  0.286897D-04  0.321358D-04
     23  0.382417D-04 -0.405783D-05 -0.644042D-04  0.136248D-04  0.702903D-04
     24  0.124660D-03  0.311609D-04  0.619305D-05  0.718449D-05  0.114498D-04
     25  0.164690D-05 -0.136708D-04 -0.357969D-04  0.256407D-04 -0.193062D-05
     26 -0.250997D-03 -0.318092D-04 -0.581450D-04  0.693922D-05  0.235860D-04
     27 -0.111439D-03 -0.128727D-04  0.219795D-05 -0.172025D-04  0.242754D-04
     28  0.307483D-04  0.441547D-04  0.109003D-03  0.275212D-04  0.523678D-04
     29 -0.251299D-03  0.447052D-04  0.819327D-04  0.394476D-04  0.114997D-04
     30 -0.178912D-03 -0.651548D-05  0.487887D-04 -0.134830D-04 -0.255786D-05
     31  0.971710D-04 -0.200325D-04 -0.597115D-05 -0.443728D-04 -0.861198D-05
     32  0.169616D-03 -0.333283D-04 -0.457412D-05  0.351384D-05  0.333056D-04
     33  0.454213D-03 -0.821451D-04 -0.705944D-04 -0.796266D-04  0.199267D-04
     34 -0.187963D-03  0.926419D-04  0.206315D-03  0.430623D-04  0.675274D-04
     35  0.395128D-03 -0.957781D-04 -0.152943D-03 -0.450265D-04 -0.424510D-04
     36 -0.109170D-03 -0.270261D-04 -0.366838D-05  0.522021D-04  0.207424D-05
               11            12            13            14            15 
     11  0.494666D-01
     12 -0.584071D-01  0.128703D+00
     13 -0.210758D-03 -0.252465D-02  0.485210D+00
     14 -0.681825D-03 -0.342207D-03 -0.335103D-01  0.712575D-02
     15  0.834812D-03  0.173790D-02 -0.165070D+00  0.108942D-01  0.117025D+00
     16  0.919749D-04  0.433677D-04 -0.325590D-04  0.812019D-05  0.589026D-04
     17  0.548840D-04 -0.133488D-03 -0.152890D-04  0.198831D-03  0.200767D-03
     18  0.886459D-04 -0.329495D-04  0.462281D-04 -0.350097D-04  0.661468D-04
     19  0.830974D-04  0.234884D-04  0.137783D-04  0.789716D-04  0.162205D-04
     20 -0.443257D-04 -0.101900D-04 -0.333406D-04  0.115174D-04  0.394696D-04
     21  0.267915D-05  0.750403D-04 -0.329616D-04  0.170633D-04  0.261908D-05
     22 -0.133250D-03 -0.259869D-04 -0.129431D-04 -0.191747D-04 -0.464317D-04
     23 -0.915841D-04  0.161588D-04 -0.463667D-05 -0.245924D-04 -0.666277D-04
     24 -0.842328D-04  0.211764D-04 -0.439204D-04  0.649637D-05 -0.367061D-04
     25  0.000000D+00 -0.663463D-05  0.290763D-04  0.435097D-04 -0.161990D-04
     26 -0.663408D-04  0.155868D-04  0.192306D-04 -0.179839D-03 -0.920695D-04
     27  0.825155D-05 -0.107281D-04 -0.513610D-05  0.285844D-04  0.159930D-04
     28 -0.440244D-04 -0.174165D-04  0.000000D+00 -0.498567D-04 -0.335743D-04
     29  0.292566D-04  0.765674D-05 -0.214486D-04  0.175850D-04  0.261917D-04
     30 -0.197563D-04 -0.309990D-04 -0.121074D-04  0.388287D-04  0.388054D-04
     31  0.342199D-04  0.186740D-04  0.111875D-04 -0.285973D-04  0.212872D-05
     32 -0.184354D-04  0.788407D-05  0.166544D-04 -0.254364D-04 -0.240483D-04
     33 -0.614035D-04 -0.336567D-04  0.323904D-04  0.541205D-04 -0.153813D-04
     34 -0.709157D-04 -0.306931D-04 -0.418791D-04 -0.179198D-04 -0.919333D-05
     35  0.168393D-04  0.346825D-04  0.392544D-04 -0.120939D-04 -0.259220D-04
     36  0.191087D-05 -0.588041D-05  0.651077D-05 -0.232220D-04 -0.107078D-04
               16            17            18            19            20 
     16  0.569911D+00
     17 -0.861600D-01  0.103190D+00
     18  0.160404D-01 -0.139452D+00  0.569685D+00
     19 -0.185100D+00  0.790396D-02  0.789090D-01  0.525294D+00
     20  0.337641D-02 -0.457781D-01  0.139815D-01  0.267812D-02  0.499344D+00
     21  0.762823D-01  0.101811D-01 -0.143680D+00  0.381803D-01 -0.286649D-01
     22 -0.299105D+00  0.595402D-01 -0.929664D-01 -0.138206D-01  0.242842D-02
     23  0.563115D-01 -0.243306D-01  0.300991D-01  0.651110D-03  0.203983D-02
     24 -0.951619D-01  0.325441D-01 -0.910753D-01  0.183529D-01 -0.323804D-02
     25 -0.580439D-01  0.158986D-01 -0.271090D-01  0.534799D-02 -0.849686D-02
     26  0.166505D-01 -0.418556D-01  0.998624D-01 -0.105436D-02  0.403252D-02
     27 -0.256723D-01  0.958476D-01 -0.315843D+00 -0.488864D-02  0.667952D-02
     28 -0.712619D-02  0.197630D-01  0.144529D-01 -0.427661D-01  0.239169D-01
     29  0.590864D-02  0.447786D-02 -0.279229D-02  0.137115D-01 -0.235190D+00
     30  0.842547D-02 -0.136481D-01 -0.124887D-01  0.561913D-02 -0.101886D+00
     31  0.377055D-02 -0.167745D-01  0.217795D-01 -0.525154D-01  0.161224D-01
     32  0.121703D-03  0.246533D-02 -0.285961D-02  0.170256D-01 -0.170709D+00
     33 -0.352421D-03  0.114640D-01 -0.185980D-01 -0.221016D-01  0.132314D+00
     34 -0.240579D-01 -0.751761D-03 -0.114482D-01 -0.236328D+00 -0.401439D-01
     35  0.333943D-02 -0.103032D-03 -0.250448D-03 -0.411560D-01 -0.533993D-01
     36  0.202837D-01  0.182597D-02  0.118569D-01 -0.114276D+00 -0.188230D-01
               21            22            23            24            25 
     21  0.527946D+00
     22 -0.105027D-01  0.313538D+00
     23  0.262880D-02 -0.619319D-01  0.195231D-01
     24  0.105057D-01  0.982051D-01 -0.329420D-01  0.863698D-01
     25  0.214117D-01  0.135729D-02  0.800205D-02 -0.238526D-01  0.535330D-01
     26 -0.337637D-02 -0.667238D-03  0.169724D-02  0.430911D-02 -0.155339D-01
     27 -0.101087D-01  0.200173D-02  0.240841D-02 -0.442475D-02  0.256279D-01
     28  0.100756D-01 -0.657948D-03 -0.109322D-02 -0.246217D-04 -0.350674D-03
     29 -0.940648D-01  0.248379D-03 -0.988190D-04 -0.528302D-03  0.274431D-03
     30 -0.906593D-01  0.157561D-03 -0.449318D-03 -0.396651D-03  0.845110D-03
     31 -0.209519D-01  0.105044D-02 -0.209588D-03 -0.873721D-03 -0.329336D-02
     32  0.132792D+00 -0.372574D-03  0.398434D-03  0.187879D-03  0.272614D-03
     33 -0.178378D+00 -0.730321D-04 -0.122889D-02  0.106898D-02  0.377441D-02
     34 -0.114473D+00 -0.243670D-02 -0.163267D-02  0.333094D-02  0.153134D-02
     35 -0.191960D-01  0.791986D-03  0.840466D-03 -0.290830D-03 -0.390743D-03
     36 -0.115364D+00  0.316801D-02 -0.400780D-03 -0.202499D-02 -0.713248D-03
               26            27            28            29            30 
     26  0.375807D-01
     27 -0.103011D+00  0.330182D+00
     28  0.100388D-03  0.288000D-03  0.486021D-01
     29 -0.101469D-02 -0.208789D-03 -0.216288D-01  0.258867D+00
     30  0.828233D-03 -0.269898D-03 -0.137934D-01  0.109974D+00  0.101130D+00
     31  0.885106D-04  0.236552D-02 -0.322080D-03  0.133424D-02 -0.226420D-02
     32  0.990524D-04 -0.120179D-02  0.387819D-02 -0.215098D-01  0.209244D-01
     33  0.107283D-02 -0.651899D-03  0.138133D-02 -0.102472D-01  0.105555D-01
     34  0.442868D-03  0.345115D-03  0.254542D-02  0.128990D-03  0.970462D-03
     35 -0.162017D-03 -0.260009D-03 -0.249103D-01 -0.555122D-02 -0.156739D-01
     36  0.345622D-03  0.110754D-02 -0.123692D-01 -0.208103D-02 -0.784006D-02
               31            32            33            34            35 
     31  0.529687D-01
     32 -0.209340D-01  0.184520D+00
     33  0.177721D-01 -0.143919D+00  0.196801D+00
     34 -0.166386D-02  0.110089D-04 -0.379152D-03  0.260286D+00
     35  0.203240D-01  0.471297D-02  0.105511D-01  0.420617D-01  0.536558D-01
     36 -0.178219D-01 -0.594040D-02 -0.109147D-01  0.121757D+00  0.250474D-01
               36 
     36  0.123196D+00
 FCInt: Cartesian first derivatives: 
                 1             2             3             4             5 
      1  -0.436764D-03 -0.120829D-04  0.591643D-05 -0.172947D-04  0.381078D-04
      2  -0.153162D-02  0.000000D+00 -0.489299D-04  0.000000D+00 -0.134445D-04
      3  -0.710618D-03  0.467741D-05  0.540812D-05 -0.127955D-04 -0.154647D-04
                 6             7             8             9            10 
      1   0.379831D-03 -0.212559D-04  0.130121D-04  0.813034D-05  0.109627D-04
      2   0.150293D-02  0.473584D-04  0.351328D-04  0.189355D-04  0.000000D+00
      3   0.727340D-03 -0.496162D-04  0.617332D-05 -0.586238D-05  0.181096D-04
                11            12 
      1   0.642921D-05  0.250086D-04
      2  -0.702037D-05 -0.409173D-05
      3   0.160107D-04  0.166372D-04
 FCInt: Cartesian force constants: 
                1             2             3             4             5 
      1  0.665137D+00
      2 -0.125685D+00  0.701511D-01
      3 -0.207029D-01 -0.572067D-01  0.604133D+00
      4 -0.992198D-01  0.167485D-01  0.233706D-01  0.572924D+00
      5  0.152866D-01 -0.773190D-02 -0.100433D-01 -0.464334D-01  0.146239D-01
      6 -0.249141D-01  0.714695D-02 -0.374214D+00 -0.154321D+00  0.390617D-02
      7 -0.317407D+00  0.133309D-01  0.111226D+00  0.663983D-02 -0.138107D-02
      8 -0.237683D-02 -0.933738D-02  0.762653D-02  0.660109D-04 -0.236359D-02
      9  0.944694D-01  0.458703D-02 -0.928734D-01  0.357362D-01 -0.456555D-03
     10 -0.246890D+00  0.950395D-01 -0.106852D+00  0.820022D-02 -0.837287D-03
     11  0.111363D+00 -0.525588D-01  0.583678D-01 -0.485027D-02  0.313995D-02
     12 -0.968003D-01  0.490338D-01 -0.113662D+00 -0.249888D-01  0.142868D-01
     13 -0.127852D-02 -0.102084D-03 -0.722861D-02 -0.488650D+00  0.334057D-01
     14  0.563487D-03 -0.173562D-02  0.705485D-03  0.345470D-01 -0.777677D-02
     15  0.474964D-01 -0.455137D-02 -0.230736D-01  0.120315D+00 -0.739627D-02
     16 -0.151035D-03  0.646659D-03  0.335395D-03 -0.203041D-05 -0.101454D-03
     17  0.947250D-03  0.153714D-02  0.534529D-03 -0.111852D-03  0.602609D-04
     18  0.393270D-03  0.152179D-02 -0.251813D-03 -0.913145D-04 -0.229232D-03
     19  0.859687D-04  0.286022D-03 -0.888583D-04 -0.941939D-04 -0.795271D-05
     20  0.139286D-03 -0.273573D-03  0.143218D-03 -0.149988D-04 -0.158335D-03
     21  0.644066D-04 -0.200013D-03 -0.523562D-04 -0.380129D-04 -0.121397D-03
     22 -0.609340D-04  0.677146D-04 -0.561819D-04  0.737421D-04 -0.330981D-05
     23 -0.215242D-03  0.179096D-03 -0.116738D-03  0.564109D-04 -0.682162D-04
     24 -0.534992D-05  0.971747D-04 -0.139166D-03  0.305133D-04 -0.675054D-04
     25 -0.830933D-04 -0.638607D-04  0.113766D-04 -0.120097D-04  0.293604D-04
     26 -0.108163D-03 -0.342972D-03  0.289616D-03  0.704016D-04  0.270158D-03
     27 -0.107274D-03 -0.389634D-03  0.131460D-03  0.336967D-04  0.965218D-04
     28 -0.895645D-04 -0.942279D-04 -0.178706D-04  0.688545D-04  0.529875D-04
     29 -0.454599D-04 -0.452906D-04  0.126262D-03  0.332802D-04 -0.636263D-04
     30  0.694829D-04 -0.107626D-03  0.153732D-03 -0.845901D-05 -0.296432D-04
     31  0.630211D-04  0.317810D-04 -0.789770D-04 -0.405621D-04  0.175923D-04
     32 -0.119291D-04  0.600529D-04 -0.140389D-03 -0.723113D-05  0.116654D-04
     33  0.569535D-04  0.347171D-04 -0.208072D-03 -0.487592D-04  0.371273D-04
     34 -0.106829D-03 -0.206125D-03  0.819190D-04  0.112420D-03 -0.276678D-04
     35  0.142686D-03  0.981039D-04 -0.286186D-03 -0.103768D-03  0.565054D-04
     36 -0.200333D-04  0.338592D-04  0.568673D-04  0.100899D-04  0.172739D-04
                6             7             8             9            10 
      6  0.509090D+00
      7 -0.585909D-03  0.318611D+00
      8  0.128676D-02 -0.785462D-02  0.785475D-02
      9 -0.200137D-01 -0.117698D+00 -0.461446D-02  0.110332D+00
     10  0.480174D-02 -0.102729D-01  0.981769D-02 -0.124235D-01  0.246532D+00
     11 -0.257659D-03 -0.405538D-02  0.753789D-03 -0.473895D-03 -0.102208D+00
     12 -0.257125D-01  0.901562D-02 -0.450967D-02  0.895213D-02  0.115293D+00
     13  0.174918D+00  0.232032D-02  0.417048D-03 -0.858147D-04  0.243197D-02
     14 -0.122613D-01 -0.105719D-03  0.308250D-02  0.917007D-03 -0.150949D-02
     15 -0.893328D-01 -0.195562D-02  0.160881D-03 -0.641680D-02 -0.757741D-03
     16 -0.220206D-03 -0.452991D-04 -0.193542D-03 -0.627918D-04 -0.172364D-04
     17  0.643197D-03  0.181908D-03  0.832616D-04 -0.726105D-05 -0.421595D-03
     18  0.356909D-03  0.929886D-04  0.654415D-04  0.433128D-05 -0.992821D-04
     19  0.270077D-03  0.772999D-05 -0.200115D-03 -0.159300D-04 -0.125539D-03
     20 -0.564790D-03  0.424327D-05  0.124808D-03  0.296328D-04  0.233323D-04
     21 -0.352763D-03  0.212977D-05  0.160489D-05  0.660733D-04 -0.174699D-04
     22  0.109602D-03  0.432222D-04  0.508000D-04  0.286897D-04  0.321358D-04
     23  0.382417D-04 -0.405783D-05 -0.644042D-04  0.136248D-04  0.702903D-04
     24  0.124660D-03  0.311609D-04  0.619305D-05  0.718449D-05  0.114498D-04
     25  0.164690D-05 -0.136708D-04 -0.357969D-04  0.256407D-04 -0.193062D-05
     26 -0.250997D-03 -0.318092D-04 -0.581450D-04  0.693922D-05  0.235860D-04
     27 -0.111439D-03 -0.128727D-04  0.219795D-05 -0.172025D-04  0.242754D-04
     28  0.307483D-04  0.441547D-04  0.109003D-03  0.275212D-04  0.523678D-04
     29 -0.251299D-03  0.447052D-04  0.819327D-04  0.394476D-04  0.114997D-04
     30 -0.178912D-03 -0.651548D-05  0.487887D-04 -0.134830D-04 -0.255786D-05
     31  0.971710D-04 -0.200325D-04 -0.597115D-05 -0.443728D-04 -0.861198D-05
     32  0.169616D-03 -0.333283D-04 -0.457412D-05  0.351384D-05  0.333056D-04
     33  0.454213D-03 -0.821451D-04 -0.705944D-04 -0.796266D-04  0.199267D-04
     34 -0.187963D-03  0.926419D-04  0.206315D-03  0.430623D-04  0.675274D-04
     35  0.395128D-03 -0.957781D-04 -0.152943D-03 -0.450265D-04 -0.424510D-04
     36 -0.109170D-03 -0.270261D-04 -0.366838D-05  0.522021D-04  0.207424D-05
               11            12            13            14            15 
     11  0.494666D-01
     12 -0.584071D-01  0.128703D+00
     13 -0.210758D-03 -0.252465D-02  0.485210D+00
     14 -0.681825D-03 -0.342207D-03 -0.335103D-01  0.712575D-02
     15  0.834812D-03  0.173790D-02 -0.165070D+00  0.108942D-01  0.117025D+00
     16  0.919749D-04  0.433677D-04 -0.325590D-04  0.812019D-05  0.589026D-04
     17  0.548840D-04 -0.133488D-03 -0.152890D-04  0.198831D-03  0.200767D-03
     18  0.886459D-04 -0.329495D-04  0.462281D-04 -0.350097D-04  0.661468D-04
     19  0.830974D-04  0.234884D-04  0.137783D-04  0.789716D-04  0.162205D-04
     20 -0.443257D-04 -0.101900D-04 -0.333406D-04  0.115174D-04  0.394696D-04
     21  0.267915D-05  0.750403D-04 -0.329616D-04  0.170633D-04  0.261908D-05
     22 -0.133250D-03 -0.259869D-04 -0.129431D-04 -0.191747D-04 -0.464317D-04
     23 -0.915841D-04  0.161588D-04 -0.463667D-05 -0.245924D-04 -0.666277D-04
     24 -0.842328D-04  0.211764D-04 -0.439204D-04  0.649637D-05 -0.367061D-04
     25  0.000000D+00 -0.663463D-05  0.290763D-04  0.435097D-04 -0.161990D-04
     26 -0.663408D-04  0.155868D-04  0.192306D-04 -0.179839D-03 -0.920695D-04
     27  0.825155D-05 -0.107281D-04 -0.513610D-05  0.285844D-04  0.159930D-04
     28 -0.440244D-04 -0.174165D-04  0.000000D+00 -0.498567D-04 -0.335743D-04
     29  0.292566D-04  0.765674D-05 -0.214486D-04  0.175850D-04  0.261917D-04
     30 -0.197563D-04 -0.309990D-04 -0.121074D-04  0.388287D-04  0.388054D-04
     31  0.342199D-04  0.186740D-04  0.111875D-04 -0.285973D-04  0.212872D-05
     32 -0.184354D-04  0.788407D-05  0.166544D-04 -0.254364D-04 -0.240483D-04
     33 -0.614035D-04 -0.336567D-04  0.323904D-04  0.541205D-04 -0.153813D-04
     34 -0.709157D-04 -0.306931D-04 -0.418791D-04 -0.179198D-04 -0.919333D-05
     35  0.168393D-04  0.346825D-04  0.392544D-04 -0.120939D-04 -0.259220D-04
     36  0.191087D-05 -0.588041D-05  0.651077D-05 -0.232220D-04 -0.107078D-04
               16            17            18            19            20 
     16  0.569911D+00
     17 -0.861600D-01  0.103190D+00
     18  0.160404D-01 -0.139452D+00  0.569685D+00
     19 -0.185100D+00  0.790396D-02  0.789090D-01  0.525294D+00
     20  0.337641D-02 -0.457781D-01  0.139815D-01  0.267812D-02  0.499344D+00
     21  0.762823D-01  0.101811D-01 -0.143680D+00  0.381803D-01 -0.286649D-01
     22 -0.299105D+00  0.595402D-01 -0.929664D-01 -0.138206D-01  0.242842D-02
     23  0.563115D-01 -0.243306D-01  0.300991D-01  0.651110D-03  0.203983D-02
     24 -0.951619D-01  0.325441D-01 -0.910753D-01  0.183529D-01 -0.323804D-02
     25 -0.580439D-01  0.158986D-01 -0.271090D-01  0.534799D-02 -0.849686D-02
     26  0.166505D-01 -0.418556D-01  0.998624D-01 -0.105436D-02  0.403252D-02
     27 -0.256723D-01  0.958476D-01 -0.315843D+00 -0.488864D-02  0.667952D-02
     28 -0.712619D-02  0.197630D-01  0.144529D-01 -0.427661D-01  0.239169D-01
     29  0.590864D-02  0.447786D-02 -0.279229D-02  0.137115D-01 -0.235190D+00
     30  0.842547D-02 -0.136481D-01 -0.124887D-01  0.561913D-02 -0.101886D+00
     31  0.377055D-02 -0.167745D-01  0.217795D-01 -0.525154D-01  0.161224D-01
     32  0.121703D-03  0.246533D-02 -0.285961D-02  0.170256D-01 -0.170709D+00
     33 -0.352421D-03  0.114640D-01 -0.185980D-01 -0.221016D-01  0.132314D+00
     34 -0.240579D-01 -0.751761D-03 -0.114482D-01 -0.236328D+00 -0.401439D-01
     35  0.333943D-02 -0.103032D-03 -0.250448D-03 -0.411560D-01 -0.533993D-01
     36  0.202837D-01  0.182597D-02  0.118569D-01 -0.114276D+00 -0.188230D-01
               21            22            23            24            25 
     21  0.527946D+00
     22 -0.105027D-01  0.313538D+00
     23  0.262880D-02 -0.619319D-01  0.195231D-01
     24  0.105057D-01  0.982051D-01 -0.329420D-01  0.863698D-01
     25  0.214117D-01  0.135729D-02  0.800205D-02 -0.238526D-01  0.535330D-01
     26 -0.337637D-02 -0.667238D-03  0.169724D-02  0.430911D-02 -0.155339D-01
     27 -0.101087D-01  0.200173D-02  0.240841D-02 -0.442475D-02  0.256279D-01
     28  0.100756D-01 -0.657948D-03 -0.109322D-02 -0.246217D-04 -0.350674D-03
     29 -0.940648D-01  0.248379D-03 -0.988190D-04 -0.528302D-03  0.274431D-03
     30 -0.906593D-01  0.157561D-03 -0.449318D-03 -0.396651D-03  0.845110D-03
     31 -0.209519D-01  0.105044D-02 -0.209588D-03 -0.873721D-03 -0.329336D-02
     32  0.132792D+00 -0.372574D-03  0.398434D-03  0.187879D-03  0.272614D-03
     33 -0.178378D+00 -0.730321D-04 -0.122889D-02  0.106898D-02  0.377441D-02
     34 -0.114473D+00 -0.243670D-02 -0.163267D-02  0.333094D-02  0.153134D-02
     35 -0.191960D-01  0.791986D-03  0.840466D-03 -0.290830D-03 -0.390743D-03
     36 -0.115364D+00  0.316801D-02 -0.400780D-03 -0.202499D-02 -0.713248D-03
               26            27            28            29            30 
     26  0.375807D-01
     27 -0.103011D+00  0.330182D+00
     28  0.100388D-03  0.288000D-03  0.486021D-01
     29 -0.101469D-02 -0.208789D-03 -0.216288D-01  0.258867D+00
     30  0.828233D-03 -0.269898D-03 -0.137934D-01  0.109974D+00  0.101130D+00
     31  0.885106D-04  0.236552D-02 -0.322080D-03  0.133424D-02 -0.226420D-02
     32  0.990524D-04 -0.120179D-02  0.387819D-02 -0.215098D-01  0.209244D-01
     33  0.107283D-02 -0.651899D-03  0.138133D-02 -0.102472D-01  0.105555D-01
     34  0.442868D-03  0.345115D-03  0.254542D-02  0.128990D-03  0.970462D-03
     35 -0.162017D-03 -0.260009D-03 -0.249103D-01 -0.555122D-02 -0.156739D-01
     36  0.345622D-03  0.110754D-02 -0.123692D-01 -0.208103D-02 -0.784006D-02
               31            32            33            34            35 
     31  0.529687D-01
     32 -0.209340D-01  0.184520D+00
     33  0.177721D-01 -0.143919D+00  0.196801D+00
     34 -0.166386D-02  0.110089D-04 -0.379152D-03  0.260286D+00
     35  0.203240D-01  0.471297D-02  0.105511D-01  0.420617D-01  0.536558D-01
     36 -0.178219D-01 -0.594040D-02 -0.109147D-01  0.121757D+00  0.250474D-01
               36 
     36  0.123196D+00
 Internal force constants: 
                1             2             3             4             5 
      1  0.447449D+00
      2  0.845871D-02  0.371624D+00
      3  0.869637D-02 -0.117159D-03  0.361343D+00
      4  0.479343D-04 -0.177006D-02  0.816068D-03  0.550479D+00
      5 -0.324830D-03 -0.570073D-04 -0.209435D-03 -0.353378D-04 -0.173425D-02
      6  0.253218D-03  0.156971D-03  0.319054D-04 -0.489098D-05  0.391434D-03
      7 -0.938342D-04 -0.360916D-04  0.557206D-04 -0.946435D-05  0.000000D+00
      8  0.135469D-04  0.326878D-05  0.566569D-05  0.274274D-04 -0.119814D-03
      9  0.262716D-03 -0.186325D-04 -0.777080D-05 -0.404534D-04  0.270738D-04
     10 -0.224922D-03  0.875278D-05 -0.104666D-04  0.672935D-05 -0.119813D-04
     11 -0.164975D-03  0.230029D-04 -0.504429D-04  0.165928D-04 -0.908129D-04
     12  0.512582D-01  0.201731D-02 -0.116959D-01  0.614773D-02  0.151091D-03
     13  0.461754D-01 -0.105833D-01 -0.130820D-02 -0.780086D-02  0.963570D-04
     14  0.532115D-01  0.275131D-02 -0.413765D-03  0.169754D-01 -0.110085D-03
     15 -0.154712D-03  0.116541D-03  0.218762D-03 -0.114931D-03  0.685611D-04
     16 -0.327581D-03  0.326142D-03  0.417468D-04  0.350358D-04  0.435050D-03
     17  0.124398D-03  0.292111D-04 -0.271970D-04  0.630107D-04 -0.395429D-04
     18 -0.134267D-03  0.315350D-04 -0.329909D-04  0.394930D-04 -0.140734D-03
     19 -0.258075D-04  0.668444D-04 -0.936782D-04 -0.293331D-04  0.490249D-04
     20 -0.244147D-03  0.511088D-04  0.574190D-04  0.185361D-04  0.331787D-04
     21 -0.505742D-04  0.161954D-03 -0.746211D-04  0.635985D-04 -0.142658D-03
     22  0.398680D-02 -0.892956D-02 -0.119913D-01 -0.128436D-02  0.448421D-03
     23  0.118268D-02  0.549942D-03 -0.179392D-02 -0.107747D-02  0.426936D-04
     24 -0.162200D-04 -0.278202D-03  0.402496D-03 -0.415863D-04 -0.358950D-03
     25 -0.284634D-03 -0.679280D-05  0.516095D-04 -0.354384D-05 -0.556344D-04
     26 -0.664907D-03 -0.879014D-04  0.189570D-03 -0.875158D-04 -0.627440D-03
     27 -0.613233D-03 -0.635387D-04 -0.863528D-04 -0.105235D-03 -0.707696D-03
     28  0.585914D-04  0.258028D-04 -0.791054D-04  0.865141D-05  0.157828D-03
     29  0.763856D-03 -0.884700D-04 -0.629122D-04 -0.787026D-04  0.112955D-03
     30 -0.770304D-03  0.130916D-03 -0.560508D-04  0.914563D-04 -0.612510D-04
                6             7             8             9            10 
      6  0.320886D+00
      7  0.326529D-02  0.364131D+00
      8  0.310411D-02  0.106151D-02  0.365514D+00
      9  0.152055D-01  0.141712D-03  0.100483D-03  0.317729D+00
     10  0.707503D-02  0.693171D-03 -0.515320D-03  0.359649D-02  0.337318D+00
     11  0.651316D-02 -0.540518D-03  0.672370D-03  0.341389D-02  0.195788D-02
     12 -0.125857D-03  0.913191D-04  0.330945D-04  0.744388D-04 -0.150101D-03
     13 -0.183355D-04 -0.109543D-03  0.298853D-04 -0.455954D-05 -0.536253D-04
     14 -0.521457D-04  0.879422D-04  0.628556D-04 -0.589945D-04 -0.152292D-04
     15 -0.408378D-04 -0.969682D-04  0.203172D-03  0.111844D-03 -0.219551D-03
     16  0.269701D-03  0.142324D-03  0.264495D-03  0.222609D-03 -0.108433D-03
     17  0.267901D-01 -0.233436D-02 -0.165755D-01  0.144813D-02 -0.109684D-02
     18  0.273084D-01 -0.170290D-01 -0.228569D-02  0.162834D-02  0.398242D-02
     19  0.364440D-01  0.722771D-03  0.886429D-03 -0.537572D-02 -0.949331D-02
     20  0.357202D-01 -0.106899D-02  0.464276D-02 -0.929600D-02 -0.452900D-02
     21  0.355791D-01  0.493039D-02 -0.118041D-02 -0.916016D-02 -0.809006D-02
     22  0.699728D-04  0.201342D-03  0.574055D-04 -0.370051D-04  0.531588D-04
     23  0.115164D-03 -0.211175D-04 -0.145286D-03  0.624971D-04  0.931213D-04
     24  0.202113D-03 -0.409107D-03 -0.150061D-03 -0.140958D-03  0.192196D-03
     25  0.137620D-03  0.616560D-04 -0.729846D-04  0.227650D-04  0.545050D-04
     26  0.130285D-03 -0.234117D-03  0.200255D-03  0.155178D-03 -0.321261D-03
     27 -0.235398D-02  0.257099D-02  0.348248D-02  0.756664D-03 -0.233540D-02
     28 -0.463219D-05 -0.738678D-03  0.775881D-03  0.186007D-03 -0.378973D-02
     29 -0.679551D-02 -0.767506D-03 -0.453912D-03  0.171572D-01 -0.362680D-03
     30  0.617883D-02  0.386177D-03  0.754157D-03 -0.168788D-01  0.132175D-01
               11            12            13            14            15 
     11  0.339825D+00
     12 -0.143238D-03  0.237741D+00
     13  0.111907D-03  0.697972D-01  0.237845D+00
     14 -0.444464D-04  0.220608D-01 -0.287123D-02  0.176945D+00
     15 -0.142817D-03 -0.267244D-03 -0.249000D-03 -0.307761D-03  0.364938D-02
     16 -0.414853D-03 -0.493909D-04  0.138748D-03 -0.180767D-03  0.258547D-04
     17  0.400804D-02 -0.190831D-05 -0.999363D-04 -0.787789D-04 -0.271126D-03
     18 -0.131593D-02  0.903931D-04  0.000000D+00 -0.234035D-04 -0.230810D-03
     19 -0.925320D-02 -0.256481D-03  0.899121D-04 -0.127463D-03 -0.145791D-03
     20 -0.802567D-02  0.000000D+00 -0.195436D-03  0.451081D-04 -0.472893D-03
     21 -0.423501D-02 -0.572767D-04  0.148261D-03 -0.159507D-04 -0.344418D-03
     22 -0.528910D-04  0.307578D-01  0.308343D-01  0.233054D-02 -0.229294D-03
     23  0.518493D-04  0.295097D-02  0.243978D-05  0.183746D-02  0.565971D-03
     24  0.377141D-03  0.281938D-03  0.367976D-04  0.450368D-03 -0.349125D-03
     25  0.923821D-04  0.114198D-04  0.799170D-04 -0.317885D-05  0.215441D-03
     26  0.430042D-04  0.119174D-03 -0.228574D-03  0.407164D-04  0.922406D-03
     27  0.159729D-02  0.286164D-04  0.573978D-04 -0.217944D-03  0.587275D-03
     28  0.359663D-02 -0.193619D-04  0.126035D-03 -0.137066D-04  0.297349D-03
     29 -0.130253D-01  0.355951D-03  0.972881D-04 -0.374129D-04  0.571861D-03
     30  0.493575D-03 -0.361365D-03  0.235532D-03  0.247134D-04 -0.241726D-03
               16            17            18            19            20 
     16  0.371400D-02
     17 -0.229266D-03  0.213620D+00
     18 -0.504135D-03  0.944781D-01  0.214755D+00
     19 -0.424677D-03  0.108969D-02  0.209184D-02  0.206668D+00
     20 -0.270846D-03 -0.648885D-02  0.194038D-01  0.341442D-01  0.220498D+00
     21 -0.842788D-03  0.198891D-01 -0.631827D-02  0.335502D-01  0.294730D-01
     22 -0.734350D-04 -0.755569D-04 -0.239342D-04  0.208167D-04  0.156901D-03
     23  0.197311D-03 -0.461378D-04  0.255976D-03  0.186676D-03  0.136407D-03
     24 -0.608103D-03 -0.339550D-03  0.409408D-03  0.276391D-03  0.278638D-03
     25  0.410944D-03 -0.802163D-04  0.422149D-03  0.106578D-03  0.440026D-03
     26  0.134413D-02  0.455957D-03  0.850980D-03  0.918604D-04 -0.455006D-03
     27  0.841142D-03 -0.106282D-01 -0.137852D-01 -0.245428D-02 -0.209793D-02
     28  0.296319D-04  0.333084D-02 -0.347622D-02  0.214196D-03 -0.201423D-02
     29  0.368633D-03  0.119719D-02 -0.277537D-02 -0.531096D-01 -0.259607D-03
     30 -0.868854D-03  0.252228D-02 -0.121984D-02  0.531884D-01 -0.555255D-01
               21            22            23            24            25 
     21  0.221063D+00
     22 -0.741160D-04  0.203420D-01
     23 -0.338927D-04  0.363422D-02  0.138099D-01
     24  0.457930D-03 -0.408582D-03  0.141038D-03  0.000000D+00
     25  0.141453D-03 -0.945609D-04  0.180138D-03  0.946599D-03  0.133933D-02
     26  0.816812D-03  0.571334D-04  0.404856D-03  0.153651D-02  0.917506D-04
     27  0.197469D-03 -0.130707D-03  0.440950D-03  0.652008D-03  0.327211D-03
     28  0.123595D-02  0.595035D-04 -0.428984D-04  0.283824D-03  0.282644D-03
     29  0.554334D-01 -0.567471D-04 -0.119920D-04  0.485028D-04  0.967890D-04
     30 -0.431448D-03 -0.281261D-05 -0.117398D-04  0.592630D-03  0.256741D-03
               26            27            28            29            30 
     26  0.180079D-02
     27  0.998904D-03  0.129393D-01
     28 -0.990940D-03  0.984386D-03  0.368630D-02
     29 -0.171256D-04  0.285920D-02  0.437702D-02  0.165482D+00
     30 -0.390134D-03  0.158053D-02  0.552799D-02 -0.778592D-01  0.166106D+00
 Frcnst in PutFF: 
                1             2             3             4             5 
      1  0.447449D+00
      2  0.845871D-02  0.371624D+00
      3  0.869637D-02 -0.117159D-03  0.361343D+00
      4  0.479343D-04 -0.177006D-02  0.816068D-03  0.550479D+00
      5  0.512582D-01  0.201731D-02 -0.116959D-01  0.614773D-02  0.237741D+00
      6  0.461754D-01 -0.105833D-01 -0.130820D-02 -0.780086D-02  0.697972D-01
      7  0.532115D-01  0.275131D-02 -0.413765D-03  0.169754D-01  0.220608D-01
      8  0.398680D-02 -0.892956D-02 -0.119913D-01 -0.128436D-02  0.307578D-01
      9  0.253218D-03  0.156971D-03  0.319054D-04 -0.489098D-05 -0.125857D-03
     10 -0.938342D-04 -0.360916D-04  0.557206D-04 -0.946435D-05  0.913191D-04
     11  0.135469D-04  0.326878D-05  0.566569D-05  0.274274D-04  0.330945D-04
     12  0.262716D-03 -0.186325D-04 -0.777080D-05 -0.404534D-04  0.744388D-04
     13 -0.224922D-03  0.875278D-05 -0.104666D-04  0.672935D-05 -0.150101D-03
     14 -0.164975D-03  0.230029D-04 -0.504429D-04  0.165928D-04 -0.143238D-03
     15  0.124398D-03  0.292111D-04 -0.271970D-04  0.630107D-04 -0.190831D-05
     16 -0.134267D-03  0.315350D-04 -0.329909D-04  0.394930D-04  0.903931D-04
     17 -0.258075D-04  0.668444D-04 -0.936782D-04 -0.293331D-04 -0.256481D-03
     18 -0.244147D-03  0.511088D-04  0.574190D-04  0.185361D-04  0.000000D+00
     19 -0.505742D-04  0.161954D-03 -0.746211D-04  0.635985D-04 -0.572767D-04
     20 -0.613233D-03 -0.635387D-04 -0.863528D-04 -0.105235D-03  0.286164D-04
     21  0.763856D-03 -0.884700D-04 -0.629122D-04 -0.787026D-04  0.355951D-03
     22 -0.770304D-03  0.130916D-03 -0.560508D-04  0.914563D-04 -0.361365D-03
     23 -0.327581D-03  0.326142D-03  0.417468D-04  0.350358D-04 -0.493909D-04
     24 -0.284634D-03 -0.679280D-05  0.516095D-04 -0.354384D-05  0.114198D-04
     25 -0.664907D-03 -0.879014D-04  0.189570D-03 -0.875158D-04  0.119174D-03
     26  0.118268D-02  0.549942D-03 -0.179392D-02 -0.107747D-02  0.295097D-02
     27  0.585914D-04  0.258028D-04 -0.791054D-04  0.865141D-05 -0.193619D-04
     28 -0.162200D-04 -0.278202D-03  0.402496D-03 -0.415863D-04  0.281938D-03
     29 -0.154712D-03  0.116541D-03  0.218762D-03 -0.114931D-03 -0.267244D-03
     30 -0.324830D-03 -0.570073D-04 -0.209435D-03 -0.353378D-04  0.151091D-03
                6             7             8             9            10 
      6  0.237845D+00
      7 -0.287123D-02  0.176945D+00
      8  0.308343D-01  0.233054D-02  0.203420D-01
      9 -0.183355D-04 -0.521457D-04  0.699728D-04  0.320886D+00
     10 -0.109543D-03  0.879422D-04  0.201342D-03  0.326529D-02  0.364131D+00
     11  0.298853D-04  0.628556D-04  0.574055D-04  0.310411D-02  0.106151D-02
     12 -0.455954D-05 -0.589945D-04 -0.370051D-04  0.152055D-01  0.141712D-03
     13 -0.536253D-04 -0.152292D-04  0.531588D-04  0.707503D-02  0.693171D-03
     14  0.111907D-03 -0.444464D-04 -0.528910D-04  0.651316D-02 -0.540518D-03
     15 -0.999363D-04 -0.787789D-04 -0.755569D-04  0.267901D-01 -0.233436D-02
     16  0.000000D+00 -0.234035D-04 -0.239342D-04  0.273084D-01 -0.170290D-01
     17  0.899121D-04 -0.127463D-03  0.208167D-04  0.364440D-01  0.722771D-03
     18 -0.195436D-03  0.451081D-04  0.156901D-03  0.357202D-01 -0.106899D-02
     19  0.148261D-03 -0.159507D-04 -0.741160D-04  0.355791D-01  0.493039D-02
     20  0.573978D-04 -0.217944D-03 -0.130707D-03 -0.235398D-02  0.257099D-02
     21  0.972881D-04 -0.374129D-04 -0.567471D-04 -0.679551D-02 -0.767506D-03
     22  0.235532D-03  0.247134D-04 -0.281261D-05  0.617883D-02  0.386177D-03
     23  0.138748D-03 -0.180767D-03 -0.734350D-04  0.269701D-03  0.142324D-03
     24  0.799170D-04 -0.317885D-05 -0.945609D-04  0.137620D-03  0.616560D-04
     25 -0.228574D-03  0.407164D-04  0.571334D-04  0.130285D-03 -0.234117D-03
     26  0.243978D-05  0.183746D-02  0.363422D-02  0.115164D-03 -0.211175D-04
     27  0.126035D-03 -0.137066D-04  0.595035D-04 -0.463219D-05 -0.738678D-03
     28  0.367976D-04  0.450368D-03 -0.408582D-03  0.202113D-03 -0.409107D-03
     29 -0.249000D-03 -0.307761D-03 -0.229294D-03 -0.408378D-04 -0.969682D-04
     30  0.963570D-04 -0.110085D-03  0.448421D-03  0.391434D-03  0.000000D+00
               11            12            13            14            15 
     11  0.365514D+00
     12  0.100483D-03  0.317729D+00
     13 -0.515320D-03  0.359649D-02  0.337318D+00
     14  0.672370D-03  0.341389D-02  0.195788D-02  0.339825D+00
     15 -0.165755D-01  0.144813D-02 -0.109684D-02  0.400804D-02  0.213620D+00
     16 -0.228569D-02  0.162834D-02  0.398242D-02 -0.131593D-02  0.944781D-01
     17  0.886429D-03 -0.537572D-02 -0.949331D-02 -0.925320D-02  0.108969D-02
     18  0.464276D-02 -0.929600D-02 -0.452900D-02 -0.802567D-02 -0.648885D-02
     19 -0.118041D-02 -0.916016D-02 -0.809006D-02 -0.423501D-02  0.198891D-01
     20  0.348248D-02  0.756664D-03 -0.233540D-02  0.159729D-02 -0.106282D-01
     21 -0.453912D-03  0.171572D-01 -0.362680D-03 -0.130253D-01  0.119719D-02
     22  0.754157D-03 -0.168788D-01  0.132175D-01  0.493575D-03  0.252228D-02
     23  0.264495D-03  0.222609D-03 -0.108433D-03 -0.414853D-03 -0.229266D-03
     24 -0.729846D-04  0.227650D-04  0.545050D-04  0.923821D-04 -0.802163D-04
     25  0.200255D-03  0.155178D-03 -0.321261D-03  0.430042D-04  0.455957D-03
     26 -0.145286D-03  0.624971D-04  0.931213D-04  0.518493D-04 -0.461378D-04
     27  0.775881D-03  0.186007D-03 -0.378973D-02  0.359663D-02  0.333084D-02
     28 -0.150061D-03 -0.140958D-03  0.192196D-03  0.377141D-03 -0.339550D-03
     29  0.203172D-03  0.111844D-03 -0.219551D-03 -0.142817D-03 -0.271126D-03
     30 -0.119814D-03  0.270738D-04 -0.119813D-04 -0.908129D-04 -0.395429D-04
               16            17            18            19            20 
     16  0.214755D+00
     17  0.209184D-02  0.206668D+00
     18  0.194038D-01  0.341442D-01  0.220498D+00
     19 -0.631827D-02  0.335502D-01  0.294730D-01  0.221063D+00
     20 -0.137852D-01 -0.245428D-02 -0.209793D-02  0.197469D-03  0.129393D-01
     21 -0.277537D-02 -0.531096D-01 -0.259607D-03  0.554334D-01  0.285920D-02
     22 -0.121984D-02  0.531884D-01 -0.555255D-01 -0.431448D-03  0.158053D-02
     23 -0.504135D-03 -0.424677D-03 -0.270846D-03 -0.842788D-03  0.841142D-03
     24  0.422149D-03  0.106578D-03  0.440026D-03  0.141453D-03  0.327211D-03
     25  0.850980D-03  0.918604D-04 -0.455006D-03  0.816812D-03  0.998904D-03
     26  0.255976D-03  0.186676D-03  0.136407D-03 -0.338927D-04  0.440950D-03
     27 -0.347622D-02  0.214196D-03 -0.201423D-02  0.123595D-02  0.984386D-03
     28  0.409408D-03  0.276391D-03  0.278638D-03  0.457930D-03  0.652008D-03
     29 -0.230810D-03 -0.145791D-03 -0.472893D-03 -0.344418D-03  0.587275D-03
     30 -0.140734D-03  0.490249D-04  0.331787D-04 -0.142658D-03 -0.707696D-03
               21            22            23            24            25 
     21  0.165482D+00
     22 -0.778592D-01  0.166106D+00
     23  0.368633D-03 -0.868854D-03  0.371400D-02
     24  0.967890D-04  0.256741D-03  0.410944D-03  0.133933D-02
     25 -0.171256D-04 -0.390134D-03  0.134413D-02  0.917506D-04  0.180079D-02
     26 -0.119920D-04 -0.117398D-04  0.197311D-03  0.180138D-03  0.404856D-03
     27  0.437702D-02  0.552799D-02  0.296319D-04  0.282644D-03 -0.990940D-03
     28  0.485028D-04  0.592630D-03 -0.608103D-03  0.946599D-03  0.153651D-02
     29  0.571861D-03 -0.241726D-03  0.258547D-04  0.215441D-03  0.922406D-03
     30  0.112955D-03 -0.612510D-04  0.435050D-03 -0.556344D-04 -0.627440D-03
               26            27            28            29            30 
     26  0.138099D-01
     27 -0.428984D-04  0.368630D-02
     28  0.141038D-03  0.283824D-03  0.000000D+00
     29  0.565971D-03  0.297349D-03 -0.349125D-03  0.364938D-02
     30  0.426936D-04  0.157828D-03 -0.358950D-03  0.685611D-04 -0.173425D-02
 Force constants in internal coordinates: 
                1             2             3             4             5 
      1  0.447449D+00
      2  0.845871D-02  0.371624D+00
      3  0.869637D-02 -0.117159D-03  0.361343D+00
      4  0.479343D-04 -0.177006D-02  0.816068D-03  0.550479D+00
      5 -0.324830D-03 -0.570073D-04 -0.209435D-03 -0.353378D-04 -0.173425D-02
      6  0.253218D-03  0.156971D-03  0.319054D-04 -0.489098D-05  0.391434D-03
      7 -0.938342D-04 -0.360916D-04  0.557206D-04 -0.946435D-05  0.000000D+00
      8  0.135469D-04  0.326878D-05  0.566569D-05  0.274274D-04 -0.119814D-03
      9  0.262716D-03 -0.186325D-04 -0.777080D-05 -0.404534D-04  0.270738D-04
     10 -0.224922D-03  0.875278D-05 -0.104666D-04  0.672935D-05 -0.119813D-04
     11 -0.164975D-03  0.230029D-04 -0.504429D-04  0.165928D-04 -0.908129D-04
     12  0.512582D-01  0.201731D-02 -0.116959D-01  0.614773D-02  0.151091D-03
     13  0.461754D-01 -0.105833D-01 -0.130820D-02 -0.780086D-02  0.963570D-04
     14  0.532115D-01  0.275131D-02 -0.413765D-03  0.169754D-01 -0.110085D-03
     15 -0.154712D-03  0.116541D-03  0.218762D-03 -0.114931D-03  0.685611D-04
     16 -0.327581D-03  0.326142D-03  0.417468D-04  0.350358D-04  0.435050D-03
     17  0.124398D-03  0.292111D-04 -0.271970D-04  0.630107D-04 -0.395429D-04
     18 -0.134267D-03  0.315350D-04 -0.329909D-04  0.394930D-04 -0.140734D-03
     19 -0.258075D-04  0.668444D-04 -0.936782D-04 -0.293331D-04  0.490249D-04
     20 -0.244147D-03  0.511088D-04  0.574190D-04  0.185361D-04  0.331787D-04
     21 -0.505742D-04  0.161954D-03 -0.746211D-04  0.635985D-04 -0.142658D-03
     22  0.398680D-02 -0.892956D-02 -0.119913D-01 -0.128436D-02  0.448421D-03
     23  0.118268D-02  0.549942D-03 -0.179392D-02 -0.107747D-02  0.426936D-04
     24 -0.162200D-04 -0.278202D-03  0.402496D-03 -0.415863D-04 -0.358950D-03
     25 -0.284634D-03 -0.679280D-05  0.516095D-04 -0.354384D-05 -0.556344D-04
     26 -0.664907D-03 -0.879014D-04  0.189570D-03 -0.875158D-04 -0.627440D-03
     27 -0.613233D-03 -0.635387D-04 -0.863528D-04 -0.105235D-03 -0.707696D-03
     28  0.585914D-04  0.258028D-04 -0.791054D-04  0.865141D-05  0.157828D-03
     29  0.763856D-03 -0.884700D-04 -0.629122D-04 -0.787026D-04  0.112955D-03
     30 -0.770304D-03  0.130916D-03 -0.560508D-04  0.914563D-04 -0.612510D-04
                6             7             8             9            10 
      6  0.320886D+00
      7  0.326529D-02  0.364131D+00
      8  0.310411D-02  0.106151D-02  0.365514D+00
      9  0.152055D-01  0.141712D-03  0.100483D-03  0.317729D+00
     10  0.707503D-02  0.693171D-03 -0.515320D-03  0.359649D-02  0.337318D+00
     11  0.651316D-02 -0.540518D-03  0.672370D-03  0.341389D-02  0.195788D-02
     12 -0.125857D-03  0.913191D-04  0.330945D-04  0.744388D-04 -0.150101D-03
     13 -0.183355D-04 -0.109543D-03  0.298853D-04 -0.455954D-05 -0.536253D-04
     14 -0.521457D-04  0.879422D-04  0.628556D-04 -0.589945D-04 -0.152292D-04
     15 -0.408378D-04 -0.969682D-04  0.203172D-03  0.111844D-03 -0.219551D-03
     16  0.269701D-03  0.142324D-03  0.264495D-03  0.222609D-03 -0.108433D-03
     17  0.267901D-01 -0.233436D-02 -0.165755D-01  0.144813D-02 -0.109684D-02
     18  0.273084D-01 -0.170290D-01 -0.228569D-02  0.162834D-02  0.398242D-02
     19  0.364440D-01  0.722771D-03  0.886429D-03 -0.537572D-02 -0.949331D-02
     20  0.357202D-01 -0.106899D-02  0.464276D-02 -0.929600D-02 -0.452900D-02
     21  0.355791D-01  0.493039D-02 -0.118041D-02 -0.916016D-02 -0.809006D-02
     22  0.699728D-04  0.201342D-03  0.574055D-04 -0.370051D-04  0.531588D-04
     23  0.115164D-03 -0.211175D-04 -0.145286D-03  0.624971D-04  0.931213D-04
     24  0.202113D-03 -0.409107D-03 -0.150061D-03 -0.140958D-03  0.192196D-03
     25  0.137620D-03  0.616560D-04 -0.729846D-04  0.227650D-04  0.545050D-04
     26  0.130285D-03 -0.234117D-03  0.200255D-03  0.155178D-03 -0.321261D-03
     27 -0.235398D-02  0.257099D-02  0.348248D-02  0.756664D-03 -0.233540D-02
     28 -0.463219D-05 -0.738678D-03  0.775881D-03  0.186007D-03 -0.378973D-02
     29 -0.679551D-02 -0.767506D-03 -0.453912D-03  0.171572D-01 -0.362680D-03
     30  0.617883D-02  0.386177D-03  0.754157D-03 -0.168788D-01  0.132175D-01
               11            12            13            14            15 
     11  0.339825D+00
     12 -0.143238D-03  0.237741D+00
     13  0.111907D-03  0.697972D-01  0.237845D+00
     14 -0.444464D-04  0.220608D-01 -0.287123D-02  0.176945D+00
     15 -0.142817D-03 -0.267244D-03 -0.249000D-03 -0.307761D-03  0.364938D-02
     16 -0.414853D-03 -0.493909D-04  0.138748D-03 -0.180767D-03  0.258547D-04
     17  0.400804D-02 -0.190831D-05 -0.999363D-04 -0.787789D-04 -0.271126D-03
     18 -0.131593D-02  0.903931D-04  0.000000D+00 -0.234035D-04 -0.230810D-03
     19 -0.925320D-02 -0.256481D-03  0.899121D-04 -0.127463D-03 -0.145791D-03
     20 -0.802567D-02  0.000000D+00 -0.195436D-03  0.451081D-04 -0.472893D-03
     21 -0.423501D-02 -0.572767D-04  0.148261D-03 -0.159507D-04 -0.344418D-03
     22 -0.528910D-04  0.307578D-01  0.308343D-01  0.233054D-02 -0.229294D-03
     23  0.518493D-04  0.295097D-02  0.243978D-05  0.183746D-02  0.565971D-03
     24  0.377141D-03  0.281938D-03  0.367976D-04  0.450368D-03 -0.349125D-03
     25  0.923821D-04  0.114198D-04  0.799170D-04 -0.317885D-05  0.215441D-03
     26  0.430042D-04  0.119174D-03 -0.228574D-03  0.407164D-04  0.922406D-03
     27  0.159729D-02  0.286164D-04  0.573978D-04 -0.217944D-03  0.587275D-03
     28  0.359663D-02 -0.193619D-04  0.126035D-03 -0.137066D-04  0.297349D-03
     29 -0.130253D-01  0.355951D-03  0.972881D-04 -0.374129D-04  0.571861D-03
     30  0.493575D-03 -0.361365D-03  0.235532D-03  0.247134D-04 -0.241726D-03
               16            17            18            19            20 
     16  0.371400D-02
     17 -0.229266D-03  0.213620D+00
     18 -0.504135D-03  0.944781D-01  0.214755D+00
     19 -0.424677D-03  0.108969D-02  0.209184D-02  0.206668D+00
     20 -0.270846D-03 -0.648885D-02  0.194038D-01  0.341442D-01  0.220498D+00
     21 -0.842788D-03  0.198891D-01 -0.631827D-02  0.335502D-01  0.294730D-01
     22 -0.734350D-04 -0.755569D-04 -0.239342D-04  0.208167D-04  0.156901D-03
     23  0.197311D-03 -0.461378D-04  0.255976D-03  0.186676D-03  0.136407D-03
     24 -0.608103D-03 -0.339550D-03  0.409408D-03  0.276391D-03  0.278638D-03
     25  0.410944D-03 -0.802163D-04  0.422149D-03  0.106578D-03  0.440026D-03
     26  0.134413D-02  0.455957D-03  0.850980D-03  0.918604D-04 -0.455006D-03
     27  0.841142D-03 -0.106282D-01 -0.137852D-01 -0.245428D-02 -0.209793D-02
     28  0.296319D-04  0.333084D-02 -0.347622D-02  0.214196D-03 -0.201423D-02
     29  0.368633D-03  0.119719D-02 -0.277537D-02 -0.531096D-01 -0.259607D-03
     30 -0.868854D-03  0.252228D-02 -0.121984D-02  0.531884D-01 -0.555255D-01
               21            22            23            24            25 
     21  0.221063D+00
     22 -0.741160D-04  0.203420D-01
     23 -0.338927D-04  0.363422D-02  0.138099D-01
     24  0.457930D-03 -0.408582D-03  0.141038D-03  0.000000D+00
     25  0.141453D-03 -0.945609D-04  0.180138D-03  0.946599D-03  0.133933D-02
     26  0.816812D-03  0.571334D-04  0.404856D-03  0.153651D-02  0.917506D-04
     27  0.197469D-03 -0.130707D-03  0.440950D-03  0.652008D-03  0.327211D-03
     28  0.123595D-02  0.595035D-04 -0.428984D-04  0.283824D-03  0.282644D-03
     29  0.554334D-01 -0.567471D-04 -0.119920D-04  0.485028D-04  0.967890D-04
     30 -0.431448D-03 -0.281261D-05 -0.117398D-04  0.592630D-03  0.256741D-03
               26            27            28            29            30 
     26  0.180079D-02
     27  0.998904D-03  0.129393D-01
     28 -0.990940D-03  0.984386D-03  0.368630D-02
     29 -0.171256D-04  0.285920D-02  0.437702D-02  0.165482D+00
     30 -0.390134D-03  0.158053D-02  0.552799D-02 -0.778592D-01  0.166106D+00
 Final forces over variables, Energy=-1.94231376D+02:
 -1.07872732D-05 3.19641282D-06 2.02062412D-05-4.18699931D-05
 -1.49704139D-05 6.90015201D-06-2.46555898D-06-1.17989831D-05
  1.57191908D-05-7.34033508D-06-1.06494985D-05-7.01769839D-06
 -1.69344914D-05 2.88511972D-05-5.85222758D-06-1.05442408D-05
  1.39908186D-07 3.34137851D-06-2.61009791D-06 3.12889444D-05
  1.45330102D-05 1.76558812D-05-5.47298205D-05 2.39148831D-05
 -2.75199727D-05 1.84236937D-05-6.34392021D-06-9.42930096D-05
  1.63168738D-05-1.80190189D-03

 GradGradGradGradGradGradGradGradGradGradGradGradGradGradGradGradGradGrad
 Berny optimization.
 Search for a local minimum.
 Step number   1 out of a maximum of    2
 All quantities printed in internal units (Hartrees-Bohrs-Radians)
 Second derivative matrix not updated -- analytic derivatives used.
 ITU=  0
     Eigenvalues ---    0.00066   0.00122   0.00305   0.00435   0.01016
     Eigenvalues ---    0.01203   0.01679   0.06319   0.10835   0.11346
     Eigenvalues ---    0.15042   0.18256   0.22143   0.22469   0.28218
     Eigenvalues ---    0.28637   0.29631   0.33395   0.33739   0.34848
     Eigenvalues ---    0.36392   0.36493   0.37024   0.37323   0.38707
     Eigenvalues ---    0.48660   0.551641000.000001000.000001000.00000
 Angle between quadratic step and forces=  55.28 degrees.
 Linear search not attempted -- first point.
 Variable       Old X    -DE/DX   Delta X   Delta X   Delta X     New X
                                 (Linear)    (Quad)   (Total)
    R1        2.56493  -0.00001   0.00000  -0.00005  -0.00005   2.56488
    R2        2.03656   0.00000   0.00000  -0.00000  -0.00000   2.03656
    R3        2.04298   0.00002   0.00000   0.00004   0.00004   2.04303
    R4        1.80903  -0.00004   0.00000  -0.00007  -0.00007   1.80896
    A2        1.99088  -0.00001   0.00000   0.00001   0.00001   1.99089
    A3        2.07977   0.00001   0.00000   0.00014   0.00014   2.07991
    A4        1.91636  -0.00000   0.00000  -0.00000  -0.00000   1.91636
    D3        3.57868  -0.00001   0.00000  -0.00090  -0.00090   3.57777
   R21        2.80133   0.00002   0.00000   0.00008   0.00008   2.80141
   R22        2.04185  -0.00001   0.00000  -0.00009  -0.00009   2.04176
   R23        2.04090  -0.00001   0.00000  -0.00001  -0.00001   2.04090
   R24        2.07624  -0.00001   0.00000  -0.00003  -0.00003   2.07622
   R25        2.06207  -0.00002   0.00000  -0.00020  -0.00020   2.06187
   R26        2.06056   0.00003   0.00000   0.00019   0.00019   2.06075
   A22        2.10815  -0.00001   0.00000   0.00050   0.00050   2.10865
   A23        2.10931  -0.00001   0.00000  -0.00019  -0.00019   2.10912
   A24        1.94940   0.00000   0.00000   0.00007   0.00007   1.94947
   A25        1.95005   0.00000   0.00000   0.00006   0.00006   1.95011
   A26        1.94839  -0.00000   0.00000  -0.00023  -0.00023   1.94817
   D23        2.99357   0.00003   0.00000   0.00472   0.00472   2.99829
   D25        2.07990   0.00001   0.00000   0.00077   0.00077   2.08067
   D26        4.19899   0.00002   0.00000   0.00068   0.00068   4.19967
   ANG2       1.64458  -0.00005   0.00000  -0.01234  -0.01234   1.63224
   DH2        4.01451   0.00002   0.00000   0.02375   0.02375   4.03825
   DH3        1.82509  -0.00003   0.00000  -0.01672  -0.01672   1.80837
    D4        3.07359   0.00002   0.00000   0.00175   0.00175   3.07534
   D24        4.81893  -0.00001   0.00000  -0.01203  -0.01203   4.80690
   DH1        1.82238  -0.00009   0.00000   0.00000   0.00000   1.82238
   ANG1       1.98419   0.00002   0.00000   0.00000   0.00000   1.98419
    BB        7.18096  -0.00180   0.00000   0.00000   0.00000   7.18096
         Item               Value     Threshold  Converged?
 Maximum Force            0.000055     0.000450     YES
 RMS     Force            0.000020     0.000300     YES
 Maximum Displacement     0.023745     0.001800     NO 
 RMS     Displacement     0.006240     0.001200     NO 
 Predicted change in Energy=-1.004781D-06
 GradGradGradGradGradGradGradGradGradGradGradGradGradGradGradGradGradGrad


 Test job not archived.
 1\1\GINC-NODE-5-15\Freq\UwB97XD\Jun-CC-pVTZ\C3H8O1\MDITEODORO\12-Jun-2
 024\1\\# uwb97xd/jun-cc-pvtz # int=ultrafine nosym freq iop(7/33=1) gu
 ess=( ) #guess=read geom=allcheck\\geom 0\\0,1\C\O,1,R1\H,1,R2,2,A2\H,
 1,R3,2,A3,3,D3,0\H,2,R4,1,A4,3,D4,0\C,1,BB,2,ANG1,3,DH1,0\C,6,R21,1,AN
 G2,2,DH2,0\H,6,R22,7,A22,1,DH3,0\H,6,R23,7,A23,8,D23,0\H,7,R24,6,A24,8
 ,D24,0\H,7,R25,6,A25,10,D25,0\H,7,R26,6,A26,10,D26,0\\R1=1.3573\R2=1.0
 777\R3=1.0811\R4=0.9573\A2=114.0689\A3=119.1622\A4=109.7991\D3=205.043
 2\R21=1.4824\R22=1.0805\R23=1.08\R24=1.0987\R25=1.0912\R26=1.0904\A22=
 120.7882\A23=120.8544\A24=111.6923\A25=111.7295\A26=111.6346\D23=171.5
 189\D25=119.1693\D26=240.5844\ANG2=94.2274\DH2=230.0142\DH3=104.5698\D
 4=176.1039\D24=276.1043\DH1=104.4145\ANG1=113.6859\BB=3.8\\Version=EM6
 4L-G09RevD.01\HF=-194.231376\S2=0.984558\S2-1=0.\S2A=0.06552\RMSD=1.98
 7e-09\RMSF=4.078e-04\ZeroPoint=0.097573\Thermal=0.1062857\Dipole=-0.45
 98752,0.1591766,-0.0923096\DipoleDeriv=0.1590423,-0.130834,-0.0508043,
 -0.1227167,-0.320607,-0.0573033,-0.0509894,0.0689359,0.9074914,-0.2578
 23,0.0311364,0.0843407,0.0271744,-0.3307431,-0.0679241,0.0645055,-0.15
 41337,-1.2076177,-0.0480678,0.0156161,0.0583804,-0.0012645,0.1649387,0
 .0342744,0.0040881,0.0284267,0.0118795,-0.0327107,0.0805165,-0.053465,
 0.0925566,0.132063,0.0513313,0.0034757,0.0353358,-0.0249946,0.1852885,
 -0.0024894,-0.0438972,0.0018061,0.343352,0.0282185,-0.0242794,0.012020
 5,0.3100346,0.1008078,-0.0824772,-0.0245703,-0.0790157,-0.3169485,-0.0
 945597,-0.0183111,-0.0832451,0.0969288,0.0168457,0.020986,0.021613,0.0
 467393,0.1011209,-0.0204143,0.0303276,0.0067202,0.0132174,-0.1021261,0
 .0290816,-0.0019422,0.0360665,0.129979,0.0352188,-0.0308549,0.0364424,
 0.0116826,0.0060952,0.0210253,0.0018488,0.0120948,0.1215526,0.0696948,
 0.0293433,0.0607897,-0.0823914,0.0391162,0.0150417,0.0478251,0.041396,
 -0.0913337,-0.112735,0.0572252,-0.092339,0.0017858,0.0351388,0.0308281
 ,0.0064375,-0.0061507,-0.016039,0.129889,0.0162011,0.0968015,-0.042444
 8,-0.1016069,-0.0284311,-0.0457666,-0.0486859,0.0826651,0.0043096,-0.0
 807316,-0.015755,0.0044284\Polar=47.799185,0.8634916,52.2056837,-2.586
 1245,5.1143657,53.4733804\PG=C01 [X(C3H8O1)]\NImag=1\\0.66513704,-0.12
 568478,0.07015113,-0.02070288,-0.05720674,0.60413271,-0.09921975,0.016
 74850,0.02337061,0.57292355,0.01528659,-0.00773190,-0.01004334,-0.0464
 3345,0.01462389,-0.02491409,0.00714695,-0.37421417,-0.15432057,0.00390
 617,0.50908961,-0.31740658,0.01333090,0.11122630,0.00663983,-0.0013810
 7,-0.00058591,0.31861063,-0.00237683,-0.00933738,0.00762653,0.00006601
 ,-0.00236359,0.00128676,-0.00785462,0.00785475,0.09446944,0.00458703,-
 0.09287336,0.03573617,-0.00045656,-0.02001367,-0.11769811,-0.00461446,
 0.11033222,-0.24688971,0.09503950,-0.10685223,0.00820022,-0.00083729,0
 .00480174,-0.01027295,0.00981769,-0.01242351,0.24653176,0.11136310,-0.
 05255878,0.05836776,-0.00485027,0.00313995,-0.00025766,-0.00405538,0.0
 0075379,-0.00047389,-0.10220838,0.04946657,-0.09680033,0.04903385,-0.1
 1366221,-0.02498876,0.01428685,-0.02571250,0.00901562,-0.00450967,0.00
 895213,0.11529333,-0.05840711,0.12870267,-0.00127852,-0.00010208,-0.00
 722861,-0.48865006,0.03340566,0.17491776,0.00232032,0.00041705,-0.0000
 8581,0.00243197,-0.00021076,-0.00252465,0.48520992,0.00056349,-0.00173
 562,0.00070548,0.03454696,-0.00777677,-0.01226133,-0.00010572,0.003082
 50,0.00091701,-0.00150949,-0.00068183,-0.00034221,-0.03351029,0.007125
 75,0.04749641,-0.00455137,-0.02307362,0.12031479,-0.00739627,-0.089332
 78,-0.00195562,0.00016088,-0.00641680,-0.00075774,0.00083481,0.0017379
 0,-0.16506969,0.01089418,0.11702454,-0.00015104,0.00064666,0.00033539,
 -0.00000203,-0.00010145,-0.00022021,-0.00004530,-0.00019354,-0.0000627
 9,-0.00001724,0.00009197,0.00004337,-0.00003256,0.00000812,0.00005890,
 0.56991080,0.00094725,0.00153714,0.00053453,-0.00011185,0.00006026,0.0
 0064320,0.00018191,0.00008326,-0.00000726,-0.00042159,0.00005488,-0.00
 013349,-0.00001529,0.00019883,0.00020077,-0.08615996,0.10318975,0.0003
 9327,0.00152179,-0.00025181,-0.00009131,-0.00022923,0.00035691,0.00009
 299,0.00006544,0.00000433,-0.00009928,0.00008865,-0.00003295,0.0000462
 3,-0.00003501,0.00006615,0.01604045,-0.13945230,0.56968476,0.00008597,
 0.00028602,-0.00008886,-0.00009419,-0.00000795,0.00027008,0.00000773,-
 0.00020011,-0.00001593,-0.00012554,0.00008310,0.00002349,0.00001378,0.
 00007897,0.00001622,-0.18509973,0.00790396,0.07890896,0.52529432,0.000
 13929,-0.00027357,0.00014322,-0.00001500,-0.00015834,-0.00056479,0.000
 00424,0.00012481,0.00002963,0.00002333,-0.00004433,-0.00001019,-0.0000
 3334,0.00001152,0.00003947,0.00337641,-0.04577809,0.01398150,0.0026781
 2,0.49934424,0.00006441,-0.00020001,-0.00005236,-0.00003801,-0.0001214
 0,-0.00035276,0.00000213,0.00000160,0.00006607,-0.00001747,0.00000268,
 0.00007504,-0.00003296,0.00001706,0.00000262,0.07628234,0.01018107,-0.
 14367957,0.03818027,-0.02866495,0.52794569,-0.00006093,0.00006771,-0.0
 0005618,0.00007374,-0.00000331,0.00010960,0.00004322,0.00005080,0.0000
 2869,0.00003214,-0.00013325,-0.00002599,-0.00001294,-0.00001917,-0.000
 04643,-0.29910545,0.05954018,-0.09296636,-0.01382059,0.00242842,-0.010
 50270,0.31353774,-0.00021524,0.00017910,-0.00011674,0.00005641,-0.0000
 6822,0.00003824,-0.00000406,-0.00006440,0.00001362,0.00007029,-0.00009
 158,0.00001616,-0.00000464,-0.00002459,-0.00006663,0.05631150,-0.02433
 056,0.03009915,0.00065111,0.00203983,0.00262880,-0.06193194,0.01952311
 ,-0.00000535,0.00009717,-0.00013917,0.00003051,-0.00006751,0.00012466,
 0.00003116,0.00000619,0.00000718,0.00001145,-0.00008423,0.00002118,-0.
 00004392,0.00000650,-0.00003671,-0.09516187,0.03254408,-0.09107530,0.0
 1835293,-0.00323804,0.01050573,0.09820510,-0.03294202,0.08636983,-0.00
 008309,-0.00006386,0.00001138,-0.00001201,0.00002936,0.00000165,-0.000
 01367,-0.00003580,0.00002564,-0.00000193,0.00000058,-0.00000663,0.0000
 2908,0.00004351,-0.00001620,-0.05804394,0.01589864,-0.02710904,0.00534
 799,-0.00849686,0.02141165,0.00135729,0.00800205,-0.02385261,0.0535329
 8,-0.00010816,-0.00034297,0.00028962,0.00007040,0.00027016,-0.00025100
 ,-0.00003181,-0.00005814,0.00000694,0.00002359,-0.00006634,0.00001559,
 0.00001923,-0.00017984,-0.00009207,0.01665051,-0.04185564,0.09986235,-
 0.00105436,0.00403252,-0.00337637,-0.00066724,0.00169724,0.00430911,-0
 .01553392,0.03758068,-0.00010727,-0.00038963,0.00013146,0.00003370,0.0
 0009652,-0.00011144,-0.00001287,0.00000220,-0.00001720,0.00002428,0.00
 000825,-0.00001073,-0.00000514,0.00002858,0.00001599,-0.02567232,0.095
 84759,-0.31584273,-0.00488864,0.00667952,-0.01010867,0.00200173,0.0024
 0841,-0.00442475,0.02562790,-0.10301085,0.33018232,-0.00008956,-0.0000
 9423,-0.00001787,0.00006885,0.00005299,0.00003075,0.00004415,0.0001090
 0,0.00002752,0.00005237,-0.00004402,-0.00001742,-0.00000029,-0.0000498
 6,-0.00003357,-0.00712619,0.01976304,0.01445286,-0.04276613,0.02391686
 ,0.01007561,-0.00065795,-0.00109322,-0.00002462,-0.00035067,0.00010039
 ,0.00028800,0.04860208,-0.00004546,-0.00004529,0.00012626,0.00003328,-
 0.00006363,-0.00025130,0.00004471,0.00008193,0.00003945,0.00001150,0.0
 0002926,0.00000766,-0.00002145,0.00001758,0.00002619,0.00590864,0.0044
 7786,-0.00279229,0.01371154,-0.23519011,-0.09406477,0.00024838,-0.0000
 9882,-0.00052830,0.00027443,-0.00101469,-0.00020879,-0.02162880,0.2588
 6695,0.00006948,-0.00010763,0.00015373,-0.00000846,-0.00002964,-0.0001
 7891,-0.00000652,0.00004879,-0.00001348,-0.00000256,-0.00001976,-0.000
 03100,-0.00001211,0.00003883,0.00003881,0.00842547,-0.01364814,-0.0124
 8869,0.00561913,-0.10188607,-0.09065928,0.00015756,-0.00044932,-0.0003
 9665,0.00084511,0.00082823,-0.00026990,-0.01379337,0.10997414,0.101129
 94,0.00006302,0.00003178,-0.00007898,-0.00004056,0.00001759,0.00009717
 ,-0.00002003,-0.00000597,-0.00004437,-0.00000861,0.00003422,0.00001867
 ,0.00001119,-0.00002860,0.00000213,0.00377055,-0.01677453,0.02177945,-
 0.05251543,0.01612238,-0.02095188,0.00105044,-0.00020959,-0.00087372,-
 0.00329336,0.00008851,0.00236552,-0.00032208,0.00133424,-0.00226420,0.
 05296874,-0.00001193,0.00006005,-0.00014039,-0.00000723,0.00001167,0.0
 0016962,-0.00003333,-0.00000457,0.00000351,0.00003331,-0.00001844,0.00
 000788,0.00001665,-0.00002544,-0.00002405,0.00012170,0.00246533,-0.002
 85961,0.01702559,-0.17070915,0.13279230,-0.00037257,0.00039843,0.00018
 788,0.00027261,0.00009905,-0.00120179,0.00387819,-0.02150984,0.0209244
 5,-0.02093400,0.18451993,0.00005695,0.00003472,-0.00020807,-0.00004876
 ,0.00003713,0.00045421,-0.00008215,-0.00007059,-0.00007963,0.00001993,
 -0.00006140,-0.00003366,0.00003239,0.00005412,-0.00001538,-0.00035242,
 0.01146399,-0.01859800,-0.02210160,0.13231366,-0.17837826,-0.00007303,
 -0.00122889,0.00106898,0.00377441,0.00107283,-0.00065190,0.00138133,-0
 .01024723,0.01055550,0.01777211,-0.14391942,0.19680090,-0.00010683,-0.
 00020613,0.00008192,0.00011242,-0.00002767,-0.00018796,0.00009264,0.00
 020631,0.00004306,0.00006753,-0.00007092,-0.00003069,-0.00004188,-0.00
 001792,-0.00000919,-0.02405788,-0.00075176,-0.01144821,-0.23632817,-0.
 04014385,-0.11447339,-0.00243670,-0.00163267,0.00333094,0.00153134,0.0
 0044287,0.00034512,0.00254542,0.00012899,0.00097046,-0.00166386,0.0000
 1101,-0.00037915,0.26028597,0.00014269,0.00009810,-0.00028619,-0.00010
 377,0.00005651,0.00039513,-0.00009578,-0.00015294,-0.00004503,-0.00004
 245,0.00001684,0.00003468,0.00003925,-0.00001209,-0.00002592,0.0033394
 3,-0.00010303,-0.00025045,-0.04115598,-0.05339933,-0.01919602,0.000791
 99,0.00084047,-0.00029083,-0.00039074,-0.00016202,-0.00026001,-0.02491
 034,-0.00555122,-0.01567388,0.02032398,0.00471297,0.01055109,0.0420617
 3,0.05365575,-0.00002003,0.00003386,0.00005687,0.00001009,0.00001727,-
 0.00010917,-0.00002703,-0.00000367,0.00005220,0.00000207,0.00000191,-0
 .00000588,0.00000651,-0.00002322,-0.00001071,0.02028368,0.00182597,0.0
 1185690,-0.11427605,-0.01882296,-0.11536426,0.00316801,-0.00040078,-0.
 00202499,-0.00071325,0.00034562,0.00110754,-0.01236921,-0.00208103,-0.
 00784006,-0.01782190,-0.00594040,-0.01091469,0.12175710,0.02504743,0.1
 2319626\\0.00043676,0.00153162,0.00071062,0.00001208,-0.00000019,-0.00
 000468,-0.00000592,0.00004893,-0.00000541,0.00001729,-0.00000078,0.000
 01280,-0.00003811,0.00001344,0.00001546,-0.00037983,-0.00150293,-0.000
 72734,0.00002126,-0.00004736,0.00004962,-0.00001301,-0.00003513,-0.000
 00617,-0.00000813,-0.00001894,0.00000586,-0.00001096,0.00000022,-0.000
 01811,-0.00000643,0.00000702,-0.00001601,-0.00002501,0.00000409,-0.000
 01664\\\@


 THEORY:  SUPPOSITION WHICH HAS SCIENTIFIC BASIS,
          BUT NOT EXPERIMENTALLY PROVEN.
 FACT:    A THEORY WHICH HAS BEEN PROVEN BY ENOUGH 
          MONEY TO PAY FOR THE EXPERIMENTS.

                          --  THE WIZARD OF ID
 Job cpu time:       0 days  1 hours 24 minutes 25.4 seconds.
 File lengths (MBytes):  RWF=    183 Int=      0 D2E=      0 Chk=     10 Scr=      1
 Normal termination of Gaussian 09 at Wed Jun 12 18:37:57 2024.
