 Entering Gaussian System, Link 0=g09
 Input=geom.com
 Output=geom.log
 Initial command:
 /software/cinetica/g09d1/g09d01/d01/build-node-6-2-59348/src/main/l1.exe "/scratch/mdt/206288/Gau-11667.inp" -scrdir="/scratch/mdt/206288/"
 Entering Link 1 = /software/cinetica/g09d1/g09d01/d01/build-node-6-2-59348/src/main/l1.exe PID=     11668.
  
 Copyright (c) 1988,1990,1992,1993,1995,1998,2003,2009,2013,
            Gaussian, Inc.  All Rights Reserved.
  
 This is part of the Gaussian(R) 09 program.  It is based on
 the Gaussian(R) 03 system (copyright 2003, Gaussian, Inc.),
 the Gaussian(R) 98 system (copyright 1998, Gaussian, Inc.),
 the Gaussian(R) 94 system (copyright 1995, Gaussian, Inc.),
 the Gaussian 92(TM) system (copyright 1992, Gaussian, Inc.),
 the Gaussian 90(TM) system (copyright 1990, Gaussian, Inc.),
 the Gaussian 88(TM) system (copyright 1988, Gaussian, Inc.),
 the Gaussian 86(TM) system (copyright 1986, Carnegie Mellon
 University), and the Gaussian 82(TM) system (copyright 1983,
 Carnegie Mellon University). Gaussian is a federally registered
 trademark of Gaussian, Inc.
  
 This software contains proprietary and confidential information,
 including trade secrets, belonging to Gaussian, Inc.
  
 This software is provided under written license and may be
 used, copied, transmitted, or stored only in accord with that
 written license.
  
 The following legend is applicable only to US Government
 contracts under FAR:
  
                    RESTRICTED RIGHTS LEGEND
  
 Use, reproduction and disclosure by the US Government is
 subject to restrictions as set forth in subparagraphs (a)
 and (c) of the Commercial Computer Software - Restricted
 Rights clause in FAR 52.227-19.
  
 Gaussian, Inc.
 340 Quinnipiac St., Bldg. 40, Wallingford CT 06492
  
  
 ---------------------------------------------------------------
 Warning -- This program may not be used in any manner that
 competes with the business of Gaussian, Inc. or will provide
 assistance to any competitor of Gaussian, Inc.  The licensee
 of this program is prohibited from giving any competitor of
 Gaussian, Inc. access to this program.  By using this program,
 the user acknowledges that Gaussian, Inc. is engaged in the
 business of creating and licensing software in the field of
 computational chemistry and represents and warrants to the
 licensee that it is not a competitor of Gaussian, Inc. and that
 it will not use this program in any manner prohibited above.
 ---------------------------------------------------------------
  

 Cite this work as:
 Gaussian 09, Revision D.01,
 M. J. Frisch, G. W. Trucks, H. B. Schlegel, G. E. Scuseria, 
 M. A. Robb, J. R. Cheeseman, G. Scalmani, V. Barone, B. Mennucci, 
 G. A. Petersson, H. Nakatsuji, M. Caricato, X. Li, H. P. Hratchian, 
 A. F. Izmaylov, J. Bloino, G. Zheng, J. L. Sonnenberg, M. Hada, 
 M. Ehara, K. Toyota, R. Fukuda, J. Hasegawa, M. Ishida, T. Nakajima, 
 Y. Honda, O. Kitao, H. Nakai, T. Vreven, J. A. Montgomery, Jr., 
 J. E. Peralta, F. Ogliaro, M. Bearpark, J. J. Heyd, E. Brothers, 
 K. N. Kudin, V. N. Staroverov, T. Keith, R. Kobayashi, J. Normand, 
 K. Raghavachari, A. Rendell, J. C. Burant, S. S. Iyengar, J. Tomasi, 
 M. Cossi, N. Rega, J. M. Millam, M. Klene, J. E. Knox, J. B. Cross, 
 V. Bakken, C. Adamo, J. Jaramillo, R. Gomperts, R. E. Stratmann, 
 O. Yazyev, A. J. Austin, R. Cammi, C. Pomelli, J. W. Ochterski, 
 R. L. Martin, K. Morokuma, V. G. Zakrzewski, G. A. Voth, 
 P. Salvador, J. J. Dannenberg, S. Dapprich, A. D. Daniels, 
 O. Farkas, J. B. Foresman, J. V. Ortiz, J. Cioslowski, 
 and D. J. Fox, Gaussian, Inc., Wallingford CT, 2013.
 
 ******************************************
 Gaussian 09:  EM64L-G09RevD.01 24-Apr-2013
                18-Jun-2024 
 ******************************************
 %mem=400MW
 %chk=tmp
 %NProcShared= 32
 Will use up to   32 processors via shared memory.
 ----------------------------------------------------------------------
 # uwb97xd/jun-cc-pvtz opt=(noeig,intern,maxcyc=50) # int=ultrafine nos
 ym iop(7/33=1) guess=(mix,always)
 ----------------------------------------------------------------------
 1/6=50,10=7,11=1,14=-1,18=40,26=4,38=1/1,3;
 2/12=2,15=1,17=6,18=5,29=3,40=1/2;
 3/5=16,6=1,7=60,11=2,16=1,25=1,30=1,71=1,74=-58,75=-5,116=2/1,2,3;
 4/13=-1/1;
 5/5=2,38=5/2;
 6/7=2,8=2,9=2,10=2,28=1/1;
 7/29=1,30=1,33=1/1,2,3,16;
 1/6=50,10=7,11=1,14=-1,18=40,26=4/3(2);
 2/15=1,29=3/2;
 99//99;
 2/15=1,29=3/2;
 3/5=16,6=1,7=60,11=2,16=1,25=1,30=1,71=1,74=-58,75=-5,116=2/1,2,3;
 4/13=-1/1;
 5/5=2,38=5/2;
 7/30=1,33=1/1,2,3,16;
 1/6=50,11=1,14=-1,18=40,26=4/3(-5);
 2/15=1,29=3/2;
 6/7=2,8=2,9=2,10=2,19=2,28=1/1;
 99/9=1/99;
 ------
 geom 0
 ------
 Symbolic Z-matrix:
 Charge =  0 Multiplicity = 1
 C1
 O2                   C1   R1
 H3                   C1   R2       O2   A2
 H4                   C1   R3       O2   A3       H3   D3       0
 H5                   O2   R4       C1   A4       H3   D4       0
 C21                  1    rts      2    aabs1    3    babs1    0
 C22                  C21  R21      1    aabs2    2    babs2    0
 H23                  C21  R22      C22  A22      1    babs3    0
 H24                  C21  R23      C22  A23      H23  D23      0
 H25                  C22  R24      C21  A24      H23  D24      0
 H26                  C22  R25      C21  A25      H25  D25      0
 H27                  C22  R26      C21  A26      H25  D26      0
       Variables:
  BABS3               100.7176                   
  BABS2               201.2456                   
  AABS2                99.4014                   
       Constants:
  BABS1               104.4145                   
  AABS1               113.6859                   
  A3                  119.0449                   
  A4                  109.8782                   
  D3                  205.7529                   
  D4                  175.1781                   
  R21                   1.4819                   
  R22                   1.0804                   
  R23                   1.0803                   
  R24                   1.0909                   
  R25                   1.0987                   
  R26                   1.091                    
  A22                 120.8932                   
  A23                 120.8944                   
  A24                 111.7803                   
  A25                 111.6488                   
  A26                 111.7809                   
  D23                 172.0059                   
  D25                 119.209                    
  D26                 238.3959                   
  D24                 155.1449                   
  A2                  113.968                    
  R4                    0.9573                   
  R3                    1.0817                   
  R2                    1.0779                   
  R1                    1.3576                   
  RTS                   3.2                      
 

 GradGradGradGradGradGradGradGradGradGradGradGradGradGradGradGradGradGrad
 Berny optimization.
 Initialization pass.
                       ----------------------------
                       !    Initial Parameters    !
                       ! (Angstroms and Degrees)  !
 ----------------------                            ----------------------
 !      Name          Value   Derivative information (Atomic Units)     !
 ------------------------------------------------------------------------
 !      BABS3      100.7176   estimate D2E/DX2                          !
 !      BABS2      201.2456   estimate D2E/DX2                          !
 !      AABS2       99.4014   estimate D2E/DX2                          !
 !      BABS1      104.4145   Frozen                                    !
 !      AABS1      113.6859   Frozen                                    !
 !       A3        119.0449   Frozen                                    !
 !       A4        109.8782   Frozen                                    !
 !       D3        205.7529   Frozen                                    !
 !       D4        175.1781   Frozen                                    !
 !       R21         1.4819   Frozen                                    !
 !       R22         1.0804   Frozen                                    !
 !       R23         1.0803   Frozen                                    !
 !       R24         1.0909   Frozen                                    !
 !       R25         1.0987   Frozen                                    !
 !       R26         1.091    Frozen                                    !
 !       A22       120.8932   Frozen                                    !
 !       A23       120.8944   Frozen                                    !
 !       A24       111.7803   Frozen                                    !
 !       A25       111.6488   Frozen                                    !
 !       A26       111.7809   Frozen                                    !
 !       D23       172.0059   Frozen                                    !
 !       D25       119.209    Frozen                                    !
 !       D26       238.3959   Frozen                                    !
 !       D24       155.1449   Frozen                                    !
 !       A2        113.968    Frozen                                    !
 !       R4          0.9573   Frozen                                    !
 !       R3          1.0817   Frozen                                    !
 !       R2          1.0779   Frozen                                    !
 !       R1          1.3576   Frozen                                    !
 !       RTS         3.2      Frozen                                    !
 ------------------------------------------------------------------------
 Trust Radius=3.00D-01 FncErr=1.00D-07 GrdErr=1.00D-06
 Number of steps in this run=     50 maximum allowed number of steps=    100.
 GradGradGradGradGradGradGradGradGradGradGradGradGradGradGradGradGradGrad

 ---------------------------------------------------------------------------------------------------
                            Z-MATRIX (ANGSTROMS AND DEGREES)
   CD    Cent   Atom    N1       Length/X        N2       Alpha/Y        N3        Beta/Z          J
 ---------------------------------------------------------------------------------------------------
      1      1  C 
      2      2  O        1   1.357600(     1)
      3      3  H        1   1.077900(     2)      2  113.968(    12)
      4      4  H        1   1.081700(     3)      2  119.045(    13)      3  205.753(    22)      0
      5      5  H        2   0.957300(     4)      1  109.878(    14)      3  175.178(    23)      0
      6      6  C        1   3.200000(     5)      2  113.686(    15)      3  104.415(    24)      0
      7      7  C        6   1.481900(     6)      1   99.401(    16)      2  201.246(    25)      0
      8      8  H        6   1.080400(     7)      7  120.893(    17)      1  100.718(    26)      0
      9      9  H        6   1.080300(     8)      7  120.894(    18)      8  172.006(    27)      0
     10     10  H        7   1.090900(     9)      6  111.780(    19)      8  155.145(    28)      0
     11     11  H        7   1.098700(    10)      6  111.649(    20)     10  119.209(    29)      0
     12     12  H        7   1.091000(    11)      6  111.781(    21)     10  238.396(    30)      0
 ---------------------------------------------------------------------------------------------------
                         Z-Matrix orientation:                         
 ---------------------------------------------------------------------
 Center     Atomic      Atomic             Coordinates (Angstroms)
 Number     Number       Type             X           Y           Z
 ---------------------------------------------------------------------
      1          6           0        0.000000    0.000000    0.000000
      2          8           0        0.000000    0.000000    1.357600
      3          1           0        0.984955    0.000000   -0.437871
      4          1           0       -0.851738    0.410883   -0.525160
      5          1           0       -0.897076    0.075675    1.683103
      6          6           0       -0.729488   -2.838187   -1.285512
      7          6           0       -0.135304   -2.654598   -2.630602
      8          1           0       -1.792492   -2.725662   -1.128587
      9          1           0       -0.136476   -3.211795   -0.463440
     10          1           0        0.916228   -2.369912   -2.573185
     11          1           0       -0.176601   -3.579833   -3.221683
     12          1           0       -0.665183   -1.894788   -3.206967
 ---------------------------------------------------------------------
                    Distance matrix (angstroms):
                    1          2          3          4          5
     1  C    0.000000
     2  O    1.357600   0.000000
     3  H    1.077900   2.047890   0.000000
     4  H    1.081700   2.106909   1.884114   0.000000
     5  H    1.908745   0.957300   2.836600   2.234020   0.000000
     6  C    3.200000   3.946327   3.422443   3.339092   4.163094
     7  C    3.739688   4.792802   3.620765   3.787260   5.161660
     8  H    3.451952   4.101633   3.952282   3.329723   4.068767
     9  H    3.247927   3.694650   3.402042   3.693129   3.999202
    10  H    3.616246   4.680494   3.190732   3.879811   5.233063
    11  H    4.819298   5.815172   4.681242   4.863421   6.159444
    12  H    3.783824   4.986779   3.739127   3.541611   5.277242
                    6          7          8          9         10
     6  C    0.000000
     7  C    1.481900   0.000000
     8  H    1.080400   2.237716   0.000000
     9  H    1.080300   2.237646   1.849631   0.000000
    10  H    2.141441   1.090900   3.090402   2.503593   0.000000
    11  H    2.145806   1.098700   2.778805   2.782978   1.754633
    12  H    2.141525   1.091000   2.506160   3.088848   1.768695
                   11         12
    11  H    0.000000
    12  H    1.754510   0.000000
 Symmetry turned off by external request.
 Stoichiometry    C3H8O
 Framework group  C1[X(C3H8O)]
 Deg. of freedom    30
 Full point group                 C1      NOp   1
 Rotational constants (GHZ):     17.0694993      2.0346200      1.9051495
 Standard basis: Jun-CC-pVTZ (5D, 7F)
   268 basis functions,   384 primitive gaussians,   300 cartesian basis functions
    17 alpha electrons       17 beta electrons
       nuclear repulsion energy       111.1621152513 Hartrees.
 NAtoms=   12 NActive=   12 NUniq=   12 SFac= 1.00D+00 NAtFMM=   60 NAOKFM=F Big=F
 Integral buffers will be    131072 words long.
 Raffenetti 2 integral format.
 Two-electron integral symmetry is turned off.
 Nuclear repulsion after empirical dispersion term =      111.1586746319 Hartrees.
 One-electron integrals computed using PRISM.
 NBasis=   268 RedAO= T EigKep=  1.04D-04  NBF=   268
 NBsUse=   268 1.00D-06 EigRej= -1.00D+00 NBFU=   268
 ExpMin= 3.57D-02 ExpMax= 1.53D+04 ExpMxC= 5.22D+02 IAcc=3 IRadAn=         5 AccDes= 0.00D+00
 Harris functional with IExCor= 4639 and IRadAn=       5 diagonalized for initial guess.
 HarFok:  IExCor= 4639 AccDes= 0.00D+00 IRadAn=         5 IDoV= 1 UseB2=F ITyADJ=14
 ICtDFT=  3500011 ScaDFX=  1.000000  1.000000  1.000000  1.000000
 FoFCou: FMM=F IPFlag=           0 FMFlag=      100000 FMFlg1=           0
         NFxFlg=           0 DoJE=T BraDBF=F KetDBF=T FulRan=T
         wScrn=  0.000000 ICntrl=     500 IOpCl=  0 I1Cent=   200000004 NGrid=           0
         NMat0=    1 NMatS0=      1 NMatT0=    0 NMatD0=    1 NMtDS0=    0 NMtDT0=    0
 Symmetry not used in FoFCou.
 Mixing orbitals, IMix= 1 IMixAn=  0 NRI=1 NE=   17 Coef=  7.07106781D-01  7.07106781D-01
 Mixing orbitals, IMix= 1 IMixAn=  0 NRI=1 NE=   17 Coef= -7.07106781D-01  7.07106781D-01
 Initial guess <Sx>= 0.0000 <Sy>= 0.0000 <Sz>= 0.0000 <S**2>= 1.0000 S= 0.6180
 Requested convergence on RMS density matrix=1.00D-08 within 128 cycles.
 Requested convergence on MAX density matrix=1.00D-06.
 Requested convergence on             energy=1.00D-06.
 No special actions if energy rises.
 SCF Done:  E(UwB97XD) =  -194.235078658     A.U. after   15 cycles
            NFock= 15  Conv=0.65D-08     -V/T= 2.0066
 <Sx>= 0.0000 <Sy>= 0.0000 <Sz>= 0.0000 <S**2>= 0.9000 S= 0.5724
 <L.S>=  0.00000000000    
 Annihilation of the first spin contaminant:
 S**2 before annihilation     0.9000,   after     0.0509

 **********************************************************************

            Population analysis using the SCF density.

 **********************************************************************

 Alpha  occ. eigenvalues --  -19.28606 -10.32190 -10.28462 -10.27515  -1.15548
 Alpha  occ. eigenvalues --   -0.85303  -0.74514  -0.69873  -0.61277  -0.53698
 Alpha  occ. eigenvalues --   -0.53339  -0.49598  -0.47308  -0.45397  -0.43562
 Alpha  occ. eigenvalues --   -0.43478  -0.27405
 Alpha virt. eigenvalues --    0.04418   0.05222   0.06142   0.07382   0.07670
 Alpha virt. eigenvalues --    0.08889   0.10145   0.10956   0.11128   0.12769
 Alpha virt. eigenvalues --    0.13626   0.15400   0.17225   0.17616   0.19022
 Alpha virt. eigenvalues --    0.20538   0.21787   0.23790   0.24650   0.25539
 Alpha virt. eigenvalues --    0.26357   0.27077   0.28269   0.29004   0.29100
 Alpha virt. eigenvalues --    0.29972   0.31305   0.31529   0.31809   0.33340
 Alpha virt. eigenvalues --    0.34000   0.34567   0.36836   0.37769   0.39116
 Alpha virt. eigenvalues --    0.39656   0.41308   0.44322   0.45995   0.47498
 Alpha virt. eigenvalues --    0.47775   0.51286   0.54101   0.55154   0.57094
 Alpha virt. eigenvalues --    0.59304   0.59876   0.61550   0.62813   0.63748
 Alpha virt. eigenvalues --    0.65180   0.65648   0.67174   0.67478   0.68535
 Alpha virt. eigenvalues --    0.71202   0.72393   0.73693   0.75742   0.76335
 Alpha virt. eigenvalues --    0.76749   0.80419   0.81601   0.84642   0.86481
 Alpha virt. eigenvalues --    0.88539   0.89675   0.91941   0.93146   0.94595
 Alpha virt. eigenvalues --    0.97203   0.98990   1.00081   1.00693   1.03139
 Alpha virt. eigenvalues --    1.04983   1.09721   1.14091   1.16161   1.16249
 Alpha virt. eigenvalues --    1.17187   1.18784   1.19718   1.20368   1.24353
 Alpha virt. eigenvalues --    1.26735   1.27572   1.30911   1.31813   1.35202
 Alpha virt. eigenvalues --    1.36032   1.38563   1.40796   1.41324   1.43311
 Alpha virt. eigenvalues --    1.44029   1.45161   1.48763   1.51667   1.52551
 Alpha virt. eigenvalues --    1.53042   1.58320   1.60628   1.61056   1.64432
 Alpha virt. eigenvalues --    1.68952   1.71833   1.75267   1.82486   1.88943
 Alpha virt. eigenvalues --    1.99177   2.09094   2.11710   2.26333   2.35442
 Alpha virt. eigenvalues --    2.39297   2.41705   2.46227   2.50765   2.52847
 Alpha virt. eigenvalues --    2.58093   2.59414   2.61644   2.64396   2.66985
 Alpha virt. eigenvalues --    2.68796   2.74986   2.76918   2.79915   2.83171
 Alpha virt. eigenvalues --    2.89518   2.91286   2.91884   2.94331   2.95425
 Alpha virt. eigenvalues --    2.97688   3.00724   3.02066   3.03717   3.04579
 Alpha virt. eigenvalues --    3.07421   3.10788   3.12357   3.12845   3.13881
 Alpha virt. eigenvalues --    3.14269   3.16163   3.18545   3.19457   3.22524
 Alpha virt. eigenvalues --    3.23566   3.24958   3.25060   3.27228   3.33712
 Alpha virt. eigenvalues --    3.38095   3.40469   3.43360   3.44951   3.45415
 Alpha virt. eigenvalues --    3.50245   3.52003   3.52220   3.54284   3.54993
 Alpha virt. eigenvalues --    3.56329   3.57440   3.58245   3.61372   3.70357
 Alpha virt. eigenvalues --    3.73562   3.76536   3.79986   3.85334   3.86641
 Alpha virt. eigenvalues --    3.89938   3.93518   3.95154   3.97089   3.97384
 Alpha virt. eigenvalues --    4.00175   4.01999   4.02451   4.02873   4.07188
 Alpha virt. eigenvalues --    4.08437   4.09443   4.10745   4.12811   4.15269
 Alpha virt. eigenvalues --    4.16935   4.19718   4.22297   4.26719   4.31828
 Alpha virt. eigenvalues --    4.33934   4.35101   4.35721   4.36777   4.39340
 Alpha virt. eigenvalues --    4.42704   4.46535   4.59450   4.62783   4.74613
 Alpha virt. eigenvalues --    4.75665   4.81317   4.85006   4.88542   4.88790
 Alpha virt. eigenvalues --    4.92453   4.94556   4.97028   5.01103   5.01728
 Alpha virt. eigenvalues --    5.03543   5.07252   5.15977   5.18390   5.22084
 Alpha virt. eigenvalues --    5.28009   5.29398   5.35423   5.41072   5.43720
 Alpha virt. eigenvalues --    5.47265   5.49293   5.49556   5.64696   5.70404
 Alpha virt. eigenvalues --    5.71407   5.79895   5.89464   6.02184   6.05926
 Alpha virt. eigenvalues --    6.16823   6.17394   6.25358   6.56879   6.66200
 Alpha virt. eigenvalues --    6.74648   6.83315   6.92661   6.95381   7.17439
 Alpha virt. eigenvalues --    7.35103   7.63264  12.54827  12.85368  12.97635
 Alpha virt. eigenvalues --   13.66650
  Beta  occ. eigenvalues --  -19.29032 -10.33205 -10.27587 -10.27399  -1.16757
  Beta  occ. eigenvalues --   -0.83550  -0.77278  -0.67265  -0.62446  -0.54526
  Beta  occ. eigenvalues --   -0.52795  -0.49432  -0.47957  -0.46321  -0.44561
  Beta  occ. eigenvalues --   -0.43021  -0.25614
  Beta virt. eigenvalues --    0.03044   0.05274   0.06105   0.07570   0.07646
  Beta virt. eigenvalues --    0.08649   0.10056   0.10672   0.11453   0.12000
  Beta virt. eigenvalues --    0.14776   0.15340   0.17326   0.17628   0.19014
  Beta virt. eigenvalues --    0.20549   0.21314   0.23507   0.24688   0.25098
  Beta virt. eigenvalues --    0.26516   0.26877   0.28066   0.29056   0.29184
  Beta virt. eigenvalues --    0.30130   0.31429   0.31553   0.31880   0.33294
  Beta virt. eigenvalues --    0.34059   0.34597   0.36790   0.38233   0.38733
  Beta virt. eigenvalues --    0.39985   0.41677   0.43807   0.46270   0.47451
  Beta virt. eigenvalues --    0.47874   0.51146   0.54062   0.55226   0.56634
  Beta virt. eigenvalues --    0.59144   0.59862   0.61591   0.62348   0.63880
  Beta virt. eigenvalues --    0.64853   0.65921   0.67050   0.67665   0.68988
  Beta virt. eigenvalues --    0.71189   0.72427   0.73979   0.75894   0.76448
  Beta virt. eigenvalues --    0.76805   0.80864   0.80973   0.84931   0.86959
  Beta virt. eigenvalues --    0.88326   0.89328   0.91731   0.92764   0.95934
  Beta virt. eigenvalues --    0.97462   0.99201   1.00633   1.00665   1.02908
  Beta virt. eigenvalues --    1.04594   1.09086   1.13590   1.16377   1.16594
  Beta virt. eigenvalues --    1.16938   1.19369   1.19738   1.20851   1.24362
  Beta virt. eigenvalues --    1.26652   1.27281   1.30693   1.31613   1.35147
  Beta virt. eigenvalues --    1.36490   1.38837   1.40883   1.41057   1.43540
  Beta virt. eigenvalues --    1.44043   1.45409   1.49163   1.51567   1.52272
  Beta virt. eigenvalues --    1.52960   1.58277   1.60689   1.61323   1.64930
  Beta virt. eigenvalues --    1.69454   1.71192   1.75475   1.83189   1.88486
  Beta virt. eigenvalues --    1.98405   2.07899   2.11194   2.25855   2.31817
  Beta virt. eigenvalues --    2.37774   2.44952   2.47127   2.51680   2.53685
  Beta virt. eigenvalues --    2.57428   2.59317   2.64599   2.65879   2.66946
  Beta virt. eigenvalues --    2.67523   2.74941   2.77754   2.80720   2.83766
  Beta virt. eigenvalues --    2.88701   2.89370   2.91701   2.95701   2.96271
  Beta virt. eigenvalues --    2.96628   3.01067   3.04222   3.05011   3.05844
  Beta virt. eigenvalues --    3.07777   3.10126   3.10829   3.11120   3.13408
  Beta virt. eigenvalues --    3.14274   3.15242   3.17496   3.19865   3.23707
  Beta virt. eigenvalues --    3.24119   3.25218   3.26203   3.26784   3.33163
  Beta virt. eigenvalues --    3.36944   3.40646   3.43687   3.44446   3.44768
  Beta virt. eigenvalues --    3.49539   3.52285   3.52741   3.53873   3.55710
  Beta virt. eigenvalues --    3.56717   3.57910   3.58483   3.61641   3.71017
  Beta virt. eigenvalues --    3.72456   3.77481   3.79551   3.84768   3.86714
  Beta virt. eigenvalues --    3.90157   3.94234   3.94958   3.96956   3.97361
  Beta virt. eigenvalues --    4.00631   4.01747   4.02259   4.02865   4.07158
  Beta virt. eigenvalues --    4.08600   4.09564   4.10995   4.12782   4.15877
  Beta virt. eigenvalues --    4.17463   4.19885   4.22663   4.26822   4.31979
  Beta virt. eigenvalues --    4.34054   4.35230   4.36020   4.36781   4.39514
  Beta virt. eigenvalues --    4.41494   4.46969   4.59717   4.64002   4.74103
  Beta virt. eigenvalues --    4.76250   4.80406   4.86447   4.87582   4.89341
  Beta virt. eigenvalues --    4.92870   4.95431   4.96791   5.00899   5.02030
  Beta virt. eigenvalues --    5.03552   5.06461   5.16314   5.17793   5.22573
  Beta virt. eigenvalues --    5.27800   5.29364   5.35947   5.41784   5.43040
  Beta virt. eigenvalues --    5.46521   5.49519   5.49726   5.65251   5.69596
  Beta virt. eigenvalues --    5.72021   5.80271   5.88884   6.00777   6.06521
  Beta virt. eigenvalues --    6.17072   6.17589   6.24511   6.55886   6.64953
  Beta virt. eigenvalues --    6.73523   6.82812   6.91885   6.94034   7.16792
  Beta virt. eigenvalues --    7.34623   7.62763  12.55677  12.84104  12.97446
  Beta virt. eigenvalues --   13.66822
          Condensed to atoms (all electrons):
               1          2          3          4          5          6
     1  C    5.243338   0.137149   0.419816   0.416829   0.011976   0.056632
     2  O    0.137149   7.960954  -0.048244  -0.024444   0.212534  -0.006528
     3  H    0.419816  -0.048244   0.491630  -0.024382   0.006597  -0.004931
     4  H    0.416829  -0.024444  -0.024382   0.481182  -0.014557  -0.005346
     5  H    0.011976   0.212534   0.006597  -0.014557   0.614198  -0.001281
     6  C    0.056632  -0.006528  -0.004931  -0.005346  -0.001281   5.466438
     7  C   -0.027892   0.001942   0.002319   0.001810   0.000467   0.259149
     8  H   -0.003304   0.000666   0.000214  -0.000155   0.000118   0.420365
     9  H   -0.004289  -0.000276  -0.000013   0.000207   0.000103   0.424366
    10  H   -0.002035   0.000171  -0.000106   0.000080  -0.000003  -0.031241
    11  H    0.002295  -0.000087  -0.000040  -0.000040  -0.000001  -0.040013
    12  H   -0.001523  -0.000019   0.000051   0.000037   0.000003  -0.026824
               7          8          9         10         11         12
     1  C   -0.027892  -0.003304  -0.004289  -0.002035   0.002295  -0.001523
     2  O    0.001942   0.000666  -0.000276   0.000171  -0.000087  -0.000019
     3  H    0.002319   0.000214  -0.000013  -0.000106  -0.000040   0.000051
     4  H    0.001810  -0.000155   0.000207   0.000080  -0.000040   0.000037
     5  H    0.000467   0.000118   0.000103  -0.000003  -0.000001   0.000003
     6  C    0.259149   0.420365   0.424366  -0.031241  -0.040013  -0.026824
     7  C    4.967425  -0.024716  -0.024708   0.412749   0.391899   0.409852
     8  H   -0.024716   0.457966  -0.025763   0.003507  -0.002042  -0.006035
     9  H   -0.024708  -0.025763   0.447704  -0.005816  -0.001477   0.003152
    10  H    0.412749   0.003507  -0.005816   0.495891  -0.016574  -0.018846
    11  H    0.391899  -0.002042  -0.001477  -0.016574   0.502092  -0.015254
    12  H    0.409852  -0.006035   0.003152  -0.018846  -0.015254   0.494682
          Atomic-Atomic Spin Densities.
               1          2          3          4          5          6
     1  C   -1.012179   0.156318  -0.002951  -0.002446   0.004942  -0.017919
     2  O    0.156318  -0.265977  -0.001780   0.000352  -0.004009   0.001262
     3  H   -0.002951  -0.001780   0.024508  -0.006450   0.000326  -0.001228
     4  H   -0.002446   0.000352  -0.006450   0.025265  -0.001508  -0.002959
     5  H    0.004942  -0.004009   0.000326  -0.001508   0.005322  -0.000253
     6  C   -0.017919   0.001262  -0.001228  -0.002959  -0.000253   1.018726
     7  C    0.017409  -0.002233  -0.000622  -0.000290  -0.000129  -0.047263
     8  H    0.003720  -0.000571  -0.000031  -0.000073  -0.000028   0.007925
     9  H    0.004044  -0.000803  -0.000104  -0.000054  -0.000026   0.007619
    10  H   -0.000468   0.000054   0.000121   0.000078   0.000002  -0.006596
    11  H    0.000036   0.000009  -0.000014  -0.000019  -0.000000  -0.033224
    12  H   -0.001009   0.000051   0.000083   0.000099   0.000003  -0.006698
               7          8          9         10         11         12
     1  C    0.017409   0.003720   0.004044  -0.000468   0.000036  -0.001009
     2  O   -0.002233  -0.000571  -0.000803   0.000054   0.000009   0.000051
     3  H   -0.000622  -0.000031  -0.000104   0.000121  -0.000014   0.000083
     4  H   -0.000290  -0.000073  -0.000054   0.000078  -0.000019   0.000099
     5  H   -0.000129  -0.000028  -0.000026   0.000002  -0.000000   0.000003
     6  C   -0.047263   0.007925   0.007619  -0.006596  -0.033224  -0.006698
     7  C   -0.039505   0.002371   0.002317   0.007095   0.023906   0.008407
     8  H    0.002371  -0.034426   0.005360  -0.000040  -0.000681   0.000858
     9  H    0.002317   0.005360  -0.034325   0.000582  -0.000316  -0.000083
    10  H    0.007095  -0.000040   0.000582   0.017093  -0.007264   0.001342
    11  H    0.023906  -0.000681  -0.000316  -0.007264   0.079859  -0.006556
    12  H    0.008407   0.000858  -0.000083   0.001342  -0.006556   0.015658
 Mulliken charges and spin densities:
               1          2
     1  C   -0.248991  -0.850504
     2  O   -0.233816  -0.117328
     3  H    0.157088   0.011858
     4  H    0.168778   0.011995
     5  H    0.169845   0.004643
     6  C   -0.510786   0.919391
     7  C   -0.370295  -0.028539
     8  H    0.179176  -0.015616
     9  H    0.186810  -0.015789
    10  H    0.162224   0.012000
    11  H    0.179243   0.055736
    12  H    0.160724   0.012154
 Sum of Mulliken charges =  -0.00000   0.00000
 Mulliken charges and spin densities with hydrogens summed into heavy atoms:
               1          2
     1  C    0.076875  -0.826651
     2  O   -0.063971  -0.112685
     6  C   -0.144800   0.887986
     7  C    0.131896   0.051351
 Electronic spatial extent (au):  <R**2>=            913.5991
 Charge=             -0.0000 electrons
 Dipole moment (field-independent basis, Debye):
    X=             -1.2424    Y=              0.5453    Z=             -0.2415  Tot=              1.3781
 Quadrupole moment (field-independent basis, Debye-Ang):
   XX=            -24.4573   YY=            -29.4325   ZZ=            -26.2138
   XY=             -1.2714   XZ=             -2.9878   YZ=              0.1655
 Traceless Quadrupole moment (field-independent basis, Debye-Ang):
   XX=              2.2439   YY=             -2.7313   ZZ=              0.4874
   XY=             -1.2714   XZ=             -2.9878   YZ=              0.1655
 Octapole moment (field-independent basis, Debye-Ang**2):
  XXX=             17.2691  YYY=            124.0854  ZZZ=             63.8433  XYY=              9.6568
  XXY=             39.3601  XXZ=             22.8710  XZZ=              0.3538  YZZ=             38.3271
  YYZ=             21.5235  XYZ=              0.3859
 Hexadecapole moment (field-independent basis, Debye-Ang**3):
 XXXX=            -69.0069 YYYY=           -731.3828 ZZZZ=           -496.4741 XXXY=            -49.1375
 XXXZ=            -26.9227 YYYX=            -65.8258 YYYZ=           -236.6297 ZZZX=            -30.7481
 ZZZY=           -227.7588 XXYY=           -130.9302 XXZZ=            -90.8951 YYZZ=           -195.3402
 XXYZ=            -77.5921 YYXZ=            -10.7241 ZZXY=            -17.3892
 N-N= 1.111586746319D+02 E-N=-6.751616723192D+02  KE= 1.929564175116D+02
                          Isotropic Fermi Contact Couplings
        Atom                 a.u.       MegaHertz       Gauss      10(-4) cm-1
     1  C(13)             -0.06033     -33.91337     -12.10113     -11.31228
     2  O(17)             -0.02109       6.39085       2.28041       2.13176
     3  H(1)               0.01060      23.68263       8.45055       7.89968
     4  H(1)               0.00961      21.46720       7.66003       7.16069
     5  H(1)               0.00218       4.86232       1.73500       1.62190
     6  C(13)              0.01707       9.59369       3.42327       3.20011
     7  C(13)             -0.02689     -15.11592      -5.39374      -5.04213
     8  H(1)              -0.01342     -29.98488     -10.69935     -10.00188
     9  H(1)              -0.01381     -30.86498     -11.01339     -10.29545
    10  H(1)               0.00710      15.87014       5.66286       5.29371
    11  H(1)               0.02944      65.79197      23.47621      21.94584
    12  H(1)               0.00736      16.45999       5.87333       5.49046
 --------------------------------------------------------
       Center         ----  Spin Dipole Couplings  ----
                      3XX-RR        3YY-RR        3ZZ-RR
 --------------------------------------------------------
     1   Atom        0.424085     -0.911893      0.487809
     2   Atom        0.359914     -0.774243      0.414329
     3   Atom       -0.046263      0.004289      0.041974
     4   Atom       -0.028650     -0.003798      0.032449
     5   Atom       -0.022622      0.014822      0.007800
     6   Atom       -0.480138      0.910989     -0.430851
     7   Atom       -0.009274      0.003316      0.005958
     8   Atom        0.067967     -0.005606     -0.062360
     9   Atom       -0.020899      0.002728      0.018171
    10   Atom        0.008526     -0.007246     -0.001280
    11   Atom       -0.006531     -0.004592      0.011123
    12   Atom       -0.005097     -0.003858      0.008955
 --------------------------------------------------------
                        XY            XZ            YZ
 --------------------------------------------------------
     1   Atom       -0.306169     -0.034934     -0.163298
     2   Atom       -0.201949     -0.012859     -0.149829
     3   Atom       -0.000862      0.047951     -0.006926
     4   Atom        0.016686     -0.053055      0.016507
     5   Atom        0.006411      0.028629     -0.004385
     6   Atom        0.269633      0.074378      0.389468
     7   Atom        0.003792     -0.008909      0.000304
     8   Atom       -0.008151     -0.018301      0.017711
     9   Atom       -0.015203      0.063006     -0.020928
    10   Atom        0.004036     -0.009765     -0.007341
    11   Atom       -0.001061     -0.006640      0.005367
    12   Atom        0.000391     -0.001239     -0.012112
 --------------------------------------------------------


 ---------------------------------------------------------------------------------
              Anisotropic Spin Dipole Couplings in Principal Axis System
 ---------------------------------------------------------------------------------

       Atom             a.u.   MegaHertz   Gauss  10(-4) cm-1        Axes

              Baa    -0.9975  -133.854   -47.762   -44.649  0.2118  0.9709  0.1117
     1 C(13)  Bbb     0.4909    65.871    23.504    21.972  0.9771 -0.2082 -0.0434
              Bcc     0.5066    67.983    24.258    22.677  0.0189 -0.1184  0.9928
 
              Baa    -0.8272    59.857    21.358    19.966  0.1678  0.9785  0.1198
     2 O(17)  Bbb     0.3909   -28.285   -10.093    -9.435  0.9482 -0.1269 -0.2911
              Bcc     0.4363   -31.572   -11.266   -10.531  0.2697 -0.1625  0.9492
 
              Baa    -0.0674   -35.940   -12.824   -11.988  0.9148 -0.0279 -0.4030
     3 H(1)   Bbb     0.0036     1.916     0.684     0.639  0.0705  0.9933  0.0912
              Bcc     0.0638    34.023    12.140    11.349  0.3977 -0.1118  0.9107
 
              Baa    -0.0675   -35.992   -12.843   -12.006  0.8072 -0.3372  0.4844
     4 H(1)   Bbb     0.0038     2.016     0.719     0.673  0.3388  0.9368  0.0876
              Bcc     0.0637    33.976    12.123    11.333 -0.4833  0.0934  0.8705
 
              Baa    -0.0409   -21.827    -7.788    -7.281  0.8484 -0.1378 -0.5111
     5 H(1)   Bbb     0.0159     8.472     3.023     2.826  0.1434  0.9892 -0.0286
              Bcc     0.0250    13.355     4.765     4.455  0.5095 -0.0490  0.8591
 
              Baa    -0.5362   -71.956   -25.676   -24.002 -0.2904 -0.1978  0.9362
     6 C(13)  Bbb    -0.5302   -71.147   -25.387   -23.732  0.9402 -0.2410  0.2408
              Bcc     1.0664   143.104    51.063    47.734  0.1780  0.9502  0.2560
 
              Baa    -0.0141    -1.894    -0.676    -0.632  0.8941 -0.2015  0.3999
     7 C(13)  Bbb     0.0038     0.508     0.181     0.169  0.0975  0.9592  0.2654
              Bcc     0.0103     1.386     0.495     0.462 -0.4371 -0.1983  0.8773
 
              Baa    -0.0692   -36.912   -13.171   -12.313  0.1132 -0.2531  0.9608
     8 H(1)   Bbb    -0.0028    -1.474    -0.526    -0.492  0.1704  0.9576  0.2322
              Bcc     0.0719    38.386    13.697    12.804  0.9788 -0.1375 -0.1515
 
              Baa    -0.0673   -35.924   -12.818   -11.983  0.8047 -0.0027 -0.5937
     9 H(1)   Bbb    -0.0067    -3.554    -1.268    -1.185  0.2046  0.9400  0.2731
              Bcc     0.0740    39.477    14.087    13.168  0.5573 -0.3412  0.7570
 
              Baa    -0.0125    -6.667    -2.379    -2.224  0.1441  0.7658  0.6267
    10 H(1)   Bbb    -0.0043    -2.310    -0.824    -0.770  0.6029 -0.5702  0.5581
              Bcc     0.0168     8.976     3.203     2.994  0.7847  0.2974 -0.5439
 
              Baa    -0.0089    -4.754    -1.696    -1.586  0.9051 -0.2256  0.3604
    11 H(1)   Bbb    -0.0059    -3.173    -1.132    -1.058  0.3036  0.9363 -0.1763
              Bcc     0.0149     7.927     2.829     2.644 -0.2977  0.2690  0.9160
 
              Baa    -0.0112    -5.959    -2.126    -1.988  0.0506  0.8543  0.5173
    12 H(1)   Bbb    -0.0052    -2.751    -0.982    -0.918  0.9970 -0.0737  0.0242
              Bcc     0.0163     8.710     3.108     2.905 -0.0589 -0.5145  0.8555
 

 ---------------------------------------------------------------------------------

 DipInt: DoE/N= T T RetVal/Mat= T F Init=T NMatP=  1 IDeriv=0 Min/MaxMlt=  1  1
 Entering OneElI...
 Multipole integrals L=1 to 1 MinM= 0 MaxM= 0.
 Requested accuracy = 0.1000D-12
 PrsmSu:  NPrtUS=   1 ThrOK=F IAlg=1 NPAlg=1 LenDen=           0.
 Prism:   IPart=     0 DynPar=F LinDyn=F Incr=          48.
 PRISM was handed   419025126 working-precision words and  4849 shell-pairs
 IPart=  0 NShTot=        4849 NBatch=          60 AvBLen=        80.8
 PrSmSu:  NxtVal=             49.
 Entering OneElI...
 Calculate overlap and kinetic energy integrals
    NBasis = 300  MinDer = 1  MaxDer = 1
 Requested accuracy = 0.1000D-12
 PrsmSu:  NPrtUS=  32 ThrOK=T IAlg=1 NPAlg=1 LenDen=           0.
 PRISM was handed    12996576 working-precision words and  4986 shell-pairs
 PRISM was handed    12996576 working-precision words and  4986 shell-pairs
 PRISM was handed    12996576 working-precision words and  4986 shell-pairs
 PRISM was handed    12996576 working-precision words and  4986 shell-pairs
 PRISM was handed    12996576 working-precision words and  4986 shell-pairs
 PRISM was handed    12996576 working-precision words and  4986 shell-pairs
 PRISM was handed    12996576 working-precision words and  4986 shell-pairs
 Prism:   IPart=     0 DynPar=F LinDyn=F Incr=           1.
 PRISM was handed    12996576 working-precision words and  4986 shell-pairs
 PRISM was handed    12996576 working-precision words and  4986 shell-pairs
 PRISM was handed    12996576 working-precision words and  4986 shell-pairs
 PRISM was handed    12996576 working-precision words and  4986 shell-pairs
 PRISM was handed    12996576 working-precision words and  4986 shell-pairs
 PRISM was handed    12996576 working-precision words and  4986 shell-pairs
 PRISM was handed    12996576 working-precision words and  4986 shell-pairs
 PRISM was handed    12996576 working-precision words and  4986 shell-pairs
 PRISM was handed    12996576 working-precision words and  4986 shell-pairs
 IPart= 20 NShTot=         145 NBatch=          21 AvBLen=         6.9
 IPart=  5 NShTot=         172 NBatch=          36 AvBLen=         4.8
 IPart=  9 NShTot=         160 NBatch=          28 AvBLen=         5.7
 IPart= 15 NShTot=         150 NBatch=          22 AvBLen=         6.8
 IPart=  1 NShTot=         188 NBatch=          49 AvBLen=         3.8
 PRISM was handed    12996576 working-precision words and  4986 shell-pairs
 IPart= 13 NShTot=         157 NBatch=          26 AvBLen=         6.0
 IPart=  4 NShTot=         173 NBatch=          36 AvBLen=         4.8
 IPart=  8 NShTot=         163 NBatch=          31 AvBLen=         5.3
 PRISM was handed    12996576 working-precision words and  4986 shell-pairs
 PRISM was handed    12996576 working-precision words and  4986 shell-pairs
 PRISM was handed    12996576 working-precision words and  4986 shell-pairs
 PRISM was handed    12996576 working-precision words and  4986 shell-pairs
 PRISM was handed    12996576 working-precision words and  4986 shell-pairs
 PRISM was handed    12996576 working-precision words and  4986 shell-pairs
 PRISM was handed    12996576 working-precision words and  4986 shell-pairs
 PRISM was handed    12996576 working-precision words and  4986 shell-pairs
 PRISM was handed    12996576 working-precision words and  4986 shell-pairs
 PRISM was handed    12996576 working-precision words and  4986 shell-pairs
 PRISM was handed    12996576 working-precision words and  4986 shell-pairs
 PRISM was handed    12996576 working-precision words and  4986 shell-pairs
 PRISM was handed    12996576 working-precision words and  4986 shell-pairs
 PRISM was handed    12996576 working-precision words and  4986 shell-pairs
 PRISM was handed    12996576 working-precision words and  4986 shell-pairs
 IPart=  7 NShTot=         171 NBatch=          36 AvBLen=         4.8
 IPart=  3 NShTot=         183 NBatch=          44 AvBLen=         4.2
 IPart= 12 NShTot=         157 NBatch=          26 AvBLen=         6.0
 IPart= 14 NShTot=         152 NBatch=          22 AvBLen=         6.9
 IPart= 16 NShTot=         145 NBatch=          21 AvBLen=         6.9
 IPart= 17 NShTot=         145 NBatch=          21 AvBLen=         6.9
 IPart= 28 NShTot=         142 NBatch=          20 AvBLen=         7.1
 IPart= 18 NShTot=         145 NBatch=          21 AvBLen=         6.9
 IPart=  2 NShTot=         185 NBatch=          46 AvBLen=         4.0
 IPart= 24 NShTot=         143 NBatch=          21 AvBLen=         6.8
 IPart= 23 NShTot=         143 NBatch=          21 AvBLen=         6.8
 IPart= 26 NShTot=         143 NBatch=          21 AvBLen=         6.8
 IPart=  6 NShTot=         172 NBatch=          36 AvBLen=         4.8
 IPart= 27 NShTot=         142 NBatch=          20 AvBLen=         7.1
 IPart= 30 NShTot=         140 NBatch=          20 AvBLen=         7.0
 IPart= 21 NShTot=         145 NBatch=          21 AvBLen=         6.9
 IPart= 25 NShTot=         143 NBatch=          21 AvBLen=         6.8
 IPart=  0 NShTot=         198 NBatch=          58 AvBLen=         3.4
 IPart= 19 NShTot=         145 NBatch=          21 AvBLen=         6.9
 IPart= 29 NShTot=         141 NBatch=          20 AvBLen=         7.0
 IPart= 22 NShTot=         144 NBatch=          21 AvBLen=         6.9
 IPart= 11 NShTot=         157 NBatch=          26 AvBLen=         6.0
 IPart= 10 NShTot=         157 NBatch=          26 AvBLen=         6.0
 IPart= 31 NShTot=         140 NBatch=          20 AvBLen=         7.0
 PrSmSu:  NxtVal=             33.
 Entering OneElI...
 Calculate potential energy integrals
    NBasis = 300  MinDer = 1  MaxDer = 1
 Requested accuracy = 0.1000D-12
 PrsmSu:  NPrtUS=  32 ThrOK=T IAlg=1 NPAlg=1 LenDen=           0.
 Prism:   IPart=     0 DynPar=F LinDyn=F Incr=          17.
 PRISM was handed    13013655 working-precision words and  4622 shell-pairs
 PRISM was handed    13013655 working-precision words and  4622 shell-pairs
 PRISM was handed    13013655 working-precision words and  4622 shell-pairs
 PRISM was handed    13013655 working-precision words and  4622 shell-pairs
 PRISM was handed    13013655 working-precision words and  4622 shell-pairs
 PRISM was handed    13013655 working-precision words and  4622 shell-pairs
 PRISM was handed    13013655 working-precision words and  4622 shell-pairs
 PRISM was handed    13013655 working-precision words and  4622 shell-pairs
 PRISM was handed    13013655 working-precision words and  4622 shell-pairs
 PRISM was handed    13013655 working-precision words and  4622 shell-pairs
 PRISM was handed    13013655 working-precision words and  4622 shell-pairs
 PRISM was handed    13013655 working-precision words and  4622 shell-pairs
 PRISM was handed    13013655 working-precision words and  4622 shell-pairs
 PRISM was handed    13013655 working-precision words and  4622 shell-pairs
 PRISM was handed    13013655 working-precision words and  4622 shell-pairs
 PRISM was handed    13013655 working-precision words and  4622 shell-pairs
 PRISM was handed    13013655 working-precision words and  4622 shell-pairs
 PRISM was handed    13013655 working-precision words and  4622 shell-pairs
 PRISM was handed    13013655 working-precision words and  4622 shell-pairs
 PRISM was handed    13013655 working-precision words and  4622 shell-pairs
 PRISM was handed    13013655 working-precision words and  4622 shell-pairs
 PRISM was handed    13013655 working-precision words and  4622 shell-pairs
 PRISM was handed    13013655 working-precision words and  4622 shell-pairs
 PRISM was handed    13013655 working-precision words and  4622 shell-pairs
 PRISM was handed    13013655 working-precision words and  4622 shell-pairs
 PRISM was handed    13013655 working-precision words and  4622 shell-pairs
 PRISM was handed    13013655 working-precision words and  4622 shell-pairs
 PRISM was handed    13013655 working-precision words and  4622 shell-pairs
 PRISM was handed    13013655 working-precision words and  4622 shell-pairs
 PRISM was handed    13013655 working-precision words and  4622 shell-pairs
 PRISM was handed    13013655 working-precision words and  4622 shell-pairs
 PRISM was handed    13013655 working-precision words and  4622 shell-pairs
 IPart= 20 NShTot=        1644 NBatch=         137 AvBLen=        12.0
 IPart=  0 NShTot=        2280 NBatch=         190 AvBLen=        12.0
 IPart= 30 NShTot=        1548 NBatch=         129 AvBLen=        12.0
 IPart= 19 NShTot=        1644 NBatch=         137 AvBLen=        12.0
 IPart=  5 NShTot=        1920 NBatch=         160 AvBLen=        12.0
 IPart=  6 NShTot=        1896 NBatch=         158 AvBLen=        12.0
 IPart= 13 NShTot=        1692 NBatch=         141 AvBLen=        12.0
 IPart=  8 NShTot=        1812 NBatch=         151 AvBLen=        12.0
 IPart=  2 NShTot=        2076 NBatch=         173 AvBLen=        12.0
 IPart= 22 NShTot=        1584 NBatch=         132 AvBLen=        12.0
 IPart= 15 NShTot=        1680 NBatch=         140 AvBLen=        12.0
 IPart=  4 NShTot=        1932 NBatch=         161 AvBLen=        12.0
 IPart=  1 NShTot=        2184 NBatch=         182 AvBLen=        12.0
 IPart=  9 NShTot=        1776 NBatch=         148 AvBLen=        12.0
 IPart= 14 NShTot=        1692 NBatch=         141 AvBLen=        12.0
 IPart= 10 NShTot=        1728 NBatch=         144 AvBLen=        12.0
 IPart= 21 NShTot=        1620 NBatch=         135 AvBLen=        12.0
 IPart=  3 NShTot=        2040 NBatch=         170 AvBLen=        12.0
 IPart= 29 NShTot=        1548 NBatch=         129 AvBLen=        12.0
 IPart= 17 NShTot=        1644 NBatch=         137 AvBLen=        12.0
 IPart= 12 NShTot=        1704 NBatch=         142 AvBLen=        12.0
 IPart= 26 NShTot=        1572 NBatch=         131 AvBLen=        12.0
 IPart=  7 NShTot=        1860 NBatch=         155 AvBLen=        12.0
 IPart= 31 NShTot=        1548 NBatch=         129 AvBLen=        12.0
 IPart= 25 NShTot=        1572 NBatch=         131 AvBLen=        12.0
 IPart= 23 NShTot=        1584 NBatch=         132 AvBLen=        12.0
 IPart= 18 NShTot=        1644 NBatch=         137 AvBLen=        12.0
 IPart= 24 NShTot=        1572 NBatch=         131 AvBLen=        12.0
 IPart= 27 NShTot=        1548 NBatch=         129 AvBLen=        12.0
 IPart= 28 NShTot=        1548 NBatch=         129 AvBLen=        12.0
 IPart= 11 NShTot=        1716 NBatch=         143 AvBLen=        12.0
 IPart= 16 NShTot=        1656 NBatch=         138 AvBLen=        12.0
 PrSmSu:  NxtVal=            545.
 l701 out
 I=    0 X=  -4.887964946535D-01 Y=   2.145238009791D-01 Z=  -9.502555503159D-02
 I=    1 X=   4.648678667347D-01 Y=   8.012939960567D-01 Z=  -4.243132579398D+00
 I=    2 X=   2.840133877612D+00 Y=   1.036050147101D+00 Z=   8.331904278086D+00
 I=    3 X=   3.168854835907D+00 Y=   1.594784659491D-01 Z=  -1.607040166388D+00
 I=    4 X=  -2.664119280235D+00 Y=   1.563867572627D+00 Z=  -1.819187672137D+00
 I=    5 X=  -3.094189051319D+00 Y=   4.339189932093D-01 Z=   2.493383508312D+00
 I=    6 X=  -1.419739178490D+00 Y=  -2.007250737278D+00 Z=   7.182839925380D-01
 I=    7 X=   8.364290905883D-01 Y=  -8.890182495507D-01 Z=  -3.262856450248D+00
 I=    8 X=  -3.401777654630D+00 Y=   7.860040184467D-02 Z=   7.074624059994D-01
 I=    9 X=   1.612736566178D+00 Y=  -1.468535560590D+00 Z=   2.724042480883D+00
 I=   10 X=   3.108874781124D+00 Y=   7.259415145712D-01 Z=  -1.952124243609D-01
 I=   11 X=  -3.126022014011D-02 Y=  -2.524490785438D+00 Z=  -1.851355690939D+00
 I=   12 X=  -1.420811633332D+00 Y=   2.090144241497D+00 Z=  -1.996291682348D+00
 ICntrl=      2127.
 Calling FoFJK, ICntrl=      2127 FMM=F ISym2X=0 I1Cent= 0 IOpClX= 1 NMat=1 NMatS=1 NMatT=0.
 FoFJK:  IHMeth= 1 ICntrl=    2127 DoSepK=T KAlg= 0 I1Cent=   0 FoldK=F
 IRaf=         1 NMat=   1 IRICut=       1 DoRegI=T DoRafI=F ISym2E= 0.
 FoFCou: FMM=F IPFlag=           0 FMFlag=      100000 FMFlg1=         800
         NFxFlg=           0 DoJE=F BraDBF=F KetDBF=F FulRan=T
         wScrn=  0.000000 ICntrl=    2527 IOpCl=  0 I1Cent=           0 NGrid=           0
         NMat0=    1 NMatS0=      1 NMatT0=    0 NMatD0=    1 NMtDS0=    0 NMtDT0=    0
 Symmetry not used in FoFCou.
 FoFCou:  KetSym=F NOpSet=  1 NOpAb=1 NOp=  1.
 FoFCou:  CnvScl= 1.00D+00 Thresh= 1.00D-10 IAcrcy=      10.
 PrismS was handed   418932730 working-precision words and  4798 shell-pairs
 FoFCou: LinMIO=F DoNuc=F BraDBF=F KetDBF=F HaveP=T PDBF=F HaveZ=T HaveW=F
         NIJTC =      10 NIJTAt=       0 NIJTCD=       0 NIJTT =      10
         IJTBeg=       1 IJTEnd=      10 KLTBeg=       1 KLTEnd=      10
         IPTBeg=       1 IPTEnd=      10 IPTBCv=       1 IPTECv=      10
         IZTBeg=       1 IZTEnd=      10 IZTBCv=       1 IZTECv=      10
         IWTBeg=      11 IWTEnd=      10 IWTBCv=      11 IWTECv=      10
         INTBeg=       1 INTEnd=       0 IFTBCv=       1 IFTECv=      10
 NCel replicated for PrismC:     1
 CoulSu:  IncDef=  1024 NBBP=       11512801 NTPThr=   100 NPartT=   32 Incr=        1024 LDynOK=F.
 CoulSu:  NPrtUS=  32 ThrOK=T IAlg=1 NPAlg=1 LenDen=           0 LWGrdD=           0 DoCopy=F.
 Enter PrismC: JobTyp=21 DoJE=F Cont=F.
 Enter PrismC: JobTyp=21 DoJE=F Cont=F.
 Enter PrismC: JobTyp=21 DoJE=F Cont=F.
 Enter PrismC: JobTyp=21 DoJE=F Cont=F.
 PrismC was handed    13006720 working-precision words and  4798 shell-pairs
 Enter PrismC: JobTyp=21 DoJE=F Cont=F.
 PrismC was handed    13006720 working-precision words and  4798 shell-pairs
 Enter PrismC: JobTyp=21 DoJE=F Cont=F.
 PrismC:  IPart=     0 DynPar=T LinDyn=F Incr=        1024 UseFst=F UseS4=T IGathr=2.
 PrismC was handed    13006720 working-precision words and  4798 shell-pairs
 Enter PrismC: JobTyp=21 DoJE=F Cont=F.
 PrismC was handed    13006720 working-precision words and  4798 shell-pairs
 Enter PrismC: JobTyp=21 DoJE=F Cont=F.
 Enter PrismC: JobTyp=21 DoJE=F Cont=F.
 PrismC was handed    13006720 working-precision words and  4798 shell-pairs
 Enter PrismC: JobTyp=21 DoJE=F Cont=F.
 PrismC was handed    13006720 working-precision words and  4798 shell-pairs
 Enter PrismC: JobTyp=21 DoJE=F Cont=F.
 PrismC was handed    13006720 working-precision words and  4798 shell-pairs
 Enter PrismC: JobTyp=21 DoJE=F Cont=F.
 PrismC was handed    13006720 working-precision words and  4798 shell-pairs
 Enter PrismC: JobTyp=21 DoJE=F Cont=F.
 Enter PrismC: JobTyp=21 DoJE=F Cont=F.
 Enter PrismC: JobTyp=21 DoJE=F Cont=F.
 Enter PrismC: JobTyp=21 DoJE=F Cont=F.
 Enter PrismC: JobTyp=21 DoJE=F Cont=F.
 Enter PrismC: JobTyp=21 DoJE=F Cont=F.
 Enter PrismC: JobTyp=21 DoJE=F Cont=F.
 Enter PrismC: JobTyp=21 DoJE=F Cont=F.
 Enter PrismC: JobTyp=21 DoJE=F Cont=F.
 Enter PrismC: JobTyp=21 DoJE=F Cont=F.
 Enter PrismC: JobTyp=21 DoJE=F Cont=F.
 Enter PrismC: JobTyp=21 DoJE=F Cont=F.
 Enter PrismC: JobTyp=21 DoJE=F Cont=F.
 PrismC was handed    13006720 working-precision words and  4798 shell-pairs
 PrismC was handed    13006720 working-precision words and  4798 shell-pairs
 PrismC was handed    13006720 working-precision words and  4798 shell-pairs
 PrismC was handed    13006720 working-precision words and  4798 shell-pairs
 Enter PrismC: JobTyp=21 DoJE=F Cont=F.
 Enter PrismC: JobTyp=21 DoJE=F Cont=F.
 PrismC was handed    13006720 working-precision words and  4798 shell-pairs
 Enter PrismC: JobTyp=21 DoJE=F Cont=F.
 PrismC was handed    13006720 working-precision words and  4798 shell-pairs
 PrismC was handed    13006720 working-precision words and  4798 shell-pairs
 Enter PrismC: JobTyp=21 DoJE=F Cont=F.
 PrismC was handed    13006720 working-precision words and  4798 shell-pairs
 Enter PrismC: JobTyp=21 DoJE=F Cont=F.
 Enter PrismC: JobTyp=21 DoJE=F Cont=F.
 PrismC was handed    13006720 working-precision words and  4798 shell-pairs
 PrismC was handed    13006720 working-precision words and  4798 shell-pairs
 PrismC was handed    13006720 working-precision words and  4798 shell-pairs
 PrismC was handed    13006720 working-precision words and  4798 shell-pairs
 PrismC was handed    13006720 working-precision words and  4798 shell-pairs
 PrismC was handed    13006720 working-precision words and  4798 shell-pairs
 PrismC was handed    13006720 working-precision words and  4798 shell-pairs
 PrismC was handed    13006720 working-precision words and  4798 shell-pairs
 PrismC was handed    13006720 working-precision words and  4798 shell-pairs
 PrismC was handed    13006720 working-precision words and  4798 shell-pairs
 PrismC was handed    13006720 working-precision words and  4798 shell-pairs
 PrismC was handed    13006720 working-precision words and  4798 shell-pairs
 PrismC was handed    13006720 working-precision words and  4798 shell-pairs
 Enter PrismC: JobTyp=21 DoJE=F Cont=F.
 PrismC was handed    13006720 working-precision words and  4798 shell-pairs
 PrismC was handed    13006720 working-precision words and  4798 shell-pairs
 PrismC was handed    13006720 working-precision words and  4798 shell-pairs
 IPart= 14 NShTot=      503940 NShNF=      503940 NShFF=           0 NBatch=        2433 AvBLen=       207.1
 IPart= 12 NShTot=      326423 NShNF=      326423 NShFF=           0 NBatch=        2088 AvBLen=       156.3
 IPart=  1 NShTot=      224769 NShNF=      224769 NShFF=           0 NBatch=        1668 AvBLen=       134.8
 IPart=  0 NShTot=      276356 NShNF=      276356 NShFF=           0 NBatch=        2084 AvBLen=       132.6
 IPart= 16 NShTot=      266353 NShNF=      266353 NShFF=           0 NBatch=        1983 AvBLen=       134.3
 IPart= 30 NShTot=      263288 NShNF=      263288 NShFF=           0 NBatch=        1976 AvBLen=       133.2
 IPart=  4 NShTot=      258071 NShNF=      258071 NShFF=           0 NBatch=        1691 AvBLen=       152.6
 IPart= 15 NShTot=      267800 NShNF=      267800 NShFF=           0 NBatch=        1999 AvBLen=       134.0
 IPart= 26 NShTot=      314461 NShNF=      314461 NShFF=           0 NBatch=        1888 AvBLen=       166.6
 IPart= 23 NShTot=      289710 NShNF=      289710 NShFF=           0 NBatch=        1991 AvBLen=       145.5
 IPart= 27 NShTot=      280447 NShNF=      280447 NShFF=           0 NBatch=        1957 AvBLen=       143.3
 IPart=  9 NShTot=      261534 NShNF=      261534 NShFF=           0 NBatch=        2072 AvBLen=       126.2
 IPart=  5 NShTot=      251195 NShNF=      251195 NShFF=           0 NBatch=        1878 AvBLen=       133.8
 IPart=  7 NShTot=      237105 NShNF=      237105 NShFF=           0 NBatch=        1768 AvBLen=       134.1
 IPart= 21 NShTot=      275246 NShNF=      275246 NShFF=           0 NBatch=        1800 AvBLen=       152.9
 IPart=  3 NShTot=      212611 NShNF=      212611 NShFF=           0 NBatch=        1549 AvBLen=       137.3
 IPart= 31 NShTot=      264242 NShNF=      264242 NShFF=           0 NBatch=        1893 AvBLen=       139.6
 IPart= 13 NShTot=      273579 NShNF=      273579 NShFF=           0 NBatch=        2123 AvBLen=       128.9
 IPart= 10 NShTot=      270740 NShNF=      270740 NShFF=           0 NBatch=        2011 AvBLen=       134.6
 IPart= 25 NShTot=      283715 NShNF=      283715 NShFF=           0 NBatch=        1997 AvBLen=       142.1
 IPart= 28 NShTot=      280200 NShNF=      280200 NShFF=           0 NBatch=        2068 AvBLen=       135.5
 IPart= 22 NShTot=      194296 NShNF=      194296 NShFF=           0 NBatch=        1646 AvBLen=       118.0
 IPart= 20 NShTot=      205845 NShNF=      205845 NShFF=           0 NBatch=        1485 AvBLen=       138.6
 IPart= 24 NShTot=      274740 NShNF=      274740 NShFF=           0 NBatch=        2028 AvBLen=       135.5
 IPart=  2 NShTot=      206916 NShNF=      206916 NShFF=           0 NBatch=        1863 AvBLen=       111.1
 IPart= 19 NShTot=      252444 NShNF=      252444 NShFF=           0 NBatch=        1770 AvBLen=       142.6
 IPart= 18 NShTot=      281606 NShNF=      281606 NShFF=           0 NBatch=        1957 AvBLen=       143.9
 IPart= 17 NShTot=      189126 NShNF=      189126 NShFF=           0 NBatch=        1431 AvBLen=       132.2
 IPart=  8 NShTot=      257665 NShNF=      257665 NShFF=           0 NBatch=        2101 AvBLen=       122.6
 IPart=  6 NShTot=      365652 NShNF=      365652 NShFF=           0 NBatch=        2381 AvBLen=       153.6
 IPart= 11 NShTot=      184600 NShNF=      184600 NShFF=           0 NBatch=        1742 AvBLen=       106.0
 IPart= 29 NShTot=      234710 NShNF=      234710 NShFF=           0 NBatch=        1909 AvBLen=       122.9
 CoulSu:  NxtVal=       12525569.
 FoFCou: FMM=F IPFlag=           0 FMFlag=      100000 FMFlg1=         800
         NFxFlg=           0 DoJE=F BraDBF=F KetDBF=F FulRan=T
         wScrn=  0.000000 ICntrl=    2127 IOpCl=  1 I1Cent=           0 NGrid=           0
         NMat0=    1 NMatS0=      0 NMatT0=    1 NMatD0=    1 NMtDS0=    0 NMtDT0=    0
         CW=    0.222036    0.777964
         WU=    0.000000   12.500000
 Symmetry not used in FoFCou.
 FoFCou:  KetSym=F NOpSet=  1 NOpAb=1 NOp=  1.
 FoFCou:  CnvScl= 1.00D+00 Thresh= 1.00D-10 IAcrcy=      10.
 PrismS was handed   418927764 working-precision words and  4798 shell-pairs
 FoFCou: LinMIO=F DoNuc=F BraDBF=F KetDBF=F HaveP=T PDBF=F HaveZ=T HaveW=F
         NIJTC =      10 NIJTAt=       0 NIJTCD=       0 NIJTT =      10
         IJTBeg=       1 IJTEnd=      10 KLTBeg=       1 KLTEnd=      10
         IPTBeg=       1 IPTEnd=      10 IPTBCv=       1 IPTECv=      10
         IZTBeg=       1 IZTEnd=      10 IZTBCv=       1 IZTECv=      10
         IWTBeg=      11 IWTEnd=      10 IWTBCv=      11 IWTECv=      10
         INTBeg=       1 INTEnd=       0 IFTBCv=       1 IFTECv=      10
 NCel replicated for PrismC:     1
 CoulSu:  IncDef=  1024 NBBP=       11512801 NTPThr=   100 NPartT=   32 Incr=        1024 LDynOK=F.
 CoulSu:  NPrtUS=  32 ThrOK=T IAlg=1 NPAlg=1 LenDen=           0 LWGrdD=           0 DoCopy=F.
 Enter PrismC: JobTyp=21 DoJE=F Cont=F.
 Linear combination for Coulomb/exchange, wScrn=  0.000000
 CW=    0.222036    0.777964
 WU=    0.000000   12.500000
 Enter PrismC: JobTyp=21 DoJE=F Cont=F.
 Enter PrismC: JobTyp=21 DoJE=F Cont=F.
 Enter PrismC: JobTyp=21 DoJE=F Cont=F.
 Linear combination for Coulomb/exchange, wScrn=  0.000000
 CW=    0.222036    0.777964
 Enter PrismC: JobTyp=21 DoJE=F Cont=F.
 Linear combination for Coulomb/exchange, wScrn=  0.000000
 CW=    0.222036    0.777964
 WU=    0.000000   12.500000
 Enter PrismC: JobTyp=21 DoJE=F Cont=F.
 Linear combination for Coulomb/exchange, wScrn=  0.000000
 CW=    0.222036    0.777964
 WU=    0.000000   12.500000
 Enter PrismC: JobTyp=21 DoJE=F Cont=F.
 Enter PrismC: JobTyp=21 DoJE=F Cont=F.
 Enter PrismC: JobTyp=21 DoJE=F Cont=F.
 Linear combination for Coulomb/exchange, wScrn=  0.000000
 CW=    0.222036    0.777964
 WU=    0.000000   12.500000
 Enter PrismC: JobTyp=21 DoJE=F Cont=F.
 Linear combination for Coulomb/exchange, wScrn=  0.000000
 CW=    0.222036    0.777964
 WU=    0.000000   12.500000
 PrismC:  IPart=     0 DynPar=T LinDyn=F Incr=        1024 UseFst=F UseS4=T IGathr=2.
 PrismC was handed    13006565 working-precision words and  4798 shell-pairs
 Linear combination for Coulomb/exchange, wScrn=  0.000000
 Enter PrismC: JobTyp=21 DoJE=F Cont=F.
 Linear combination for Coulomb/exchange, wScrn=  0.000000
 CW=    0.222036    0.777964
 WU=    0.000000   12.500000
 PrismC was handed    13006565 working-precision words and  4798 shell-pairs
 Enter PrismC: JobTyp=21 DoJE=F Cont=F.
 Linear combination for Coulomb/exchange, wScrn=  0.000000
 CW=    0.222036    0.777964
 WU=    0.000000   12.500000
 Enter PrismC: JobTyp=21 DoJE=F Cont=F.
 Linear combination for Coulomb/exchange, wScrn=  0.000000
 CW=    0.222036    0.777964
 WU=    0.000000   12.500000
 PrismC was handed    13006565 working-precision words and  4798 shell-pairs
 Linear combination for Coulomb/exchange, wScrn=  0.000000
 CW=    0.222036    0.777964
 WU=    0.000000   12.500000
 Enter PrismC: JobTyp=21 DoJE=F Cont=F.
 Linear combination for Coulomb/exchange, wScrn=  0.000000
 CW=    0.222036    0.777964
 WU=    0.000000   12.500000
 PrismC was handed    13006565 working-precision words and  4798 shell-pairs
 Enter PrismC: JobTyp=21 DoJE=F Cont=F.
 Linear combination for Coulomb/exchange, wScrn=  0.000000
 CW=    0.222036    0.777964
 WU=    0.000000   12.500000
 PrismC was handed    13006565 working-precision words and  4798 shell-pairs
 Enter PrismC: JobTyp=21 DoJE=F Cont=F.
 Linear combination for Coulomb/exchange, wScrn=  0.000000
 CW=    0.222036    0.777964
 CW=    0.222036    0.777964
 WU=    0.000000   12.500000
 PrismC was handed    13006565 working-precision words and  4798 shell-pairs
 Enter PrismC: JobTyp=21 DoJE=F Cont=F.
 Linear combination for Coulomb/exchange, wScrn=  0.000000
 CW=    0.222036    0.777964
 WU=    0.000000   12.500000
 PrismC was handed    13006565 working-precision words and  4798 shell-pairs
 Enter PrismC: JobTyp=21 DoJE=F Cont=F.
 Linear combination for Coulomb/exchange, wScrn=  0.000000
 CW=    0.222036    0.777964
 WU=    0.000000   12.500000
 PrismC was handed    13006565 working-precision words and  4798 shell-pairs
 Enter PrismC: JobTyp=21 DoJE=F Cont=F.
 Linear combination for Coulomb/exchange, wScrn=  0.000000
 CW=    0.222036    0.777964
 WU=    0.000000   12.500000
 PrismC was handed    13006565 working-precision words and  4798 shell-pairs
 PrismC was handed    13006565 working-precision words and  4798 shell-pairs
 Linear combination for Coulomb/exchange, wScrn=  0.000000
 CW=    0.222036    0.777964
 WU=    0.000000   12.500000
 Enter PrismC: JobTyp=21 DoJE=F Cont=F.
 Linear combination for Coulomb/exchange, wScrn=  0.000000
 CW=    0.222036    0.777964
 WU=    0.000000   12.500000
 PrismC was handed    13006565 working-precision words and  4798 shell-pairs
 WU=    0.000000   12.500000
 PrismC was handed    13006565 working-precision words and  4798 shell-pairs
 Enter PrismC: JobTyp=21 DoJE=F Cont=F.
 Linear combination for Coulomb/exchange, wScrn=  0.000000
 CW=    0.222036    0.777964
 WU=    0.000000   12.500000
 Enter PrismC: JobTyp=21 DoJE=F Cont=F.
 Linear combination for Coulomb/exchange, wScrn=  0.000000
 CW=    0.222036    0.777964
 WU=    0.000000   12.500000
 Enter PrismC: JobTyp=21 DoJE=F Cont=F.
 Linear combination for Coulomb/exchange, wScrn=  0.000000
 CW=    0.222036    0.777964
 WU=    0.000000   12.500000
 PrismC was handed    13006565 working-precision words and  4798 shell-pairs
 Enter PrismC: JobTyp=21 DoJE=F Cont=F.
 Linear combination for Coulomb/exchange, wScrn=  0.000000
 CW=    0.222036    0.777964
 WU=    0.000000   12.500000
 PrismC was handed    13006565 working-precision words and  4798 shell-pairs
 Enter PrismC: JobTyp=21 DoJE=F Cont=F.
 Linear combination for Coulomb/exchange, wScrn=  0.000000
 CW=    0.222036    0.777964
 WU=    0.000000   12.500000
 PrismC was handed    13006565 working-precision words and  4798 shell-pairs
 PrismC was handed    13006565 working-precision words and  4798 shell-pairs
 PrismC was handed    13006565 working-precision words and  4798 shell-pairs
 Enter PrismC: JobTyp=21 DoJE=F Cont=F.
 Linear combination for Coulomb/exchange, wScrn=  0.000000
 CW=    0.222036    0.777964
 WU=    0.000000   12.500000
 PrismC was handed    13006565 working-precision words and  4798 shell-pairs
 PrismC was handed    13006565 working-precision words and  4798 shell-pairs
 PrismC was handed    13006565 working-precision words and  4798 shell-pairs
 Enter PrismC: JobTyp=21 DoJE=F Cont=F.
 Linear combination for Coulomb/exchange, wScrn=  0.000000
 CW=    0.222036    0.777964
 WU=    0.000000   12.500000
 PrismC was handed    13006565 working-precision words and  4798 shell-pairs
 Enter PrismC: JobTyp=21 DoJE=F Cont=F.
 Linear combination for Coulomb/exchange, wScrn=  0.000000
 CW=    0.222036    0.777964
 WU=    0.000000   12.500000
 PrismC was handed    13006565 working-precision words and  4798 shell-pairs
 WU=    0.000000   12.500000
 PrismC was handed    13006565 working-precision words and  4798 shell-pairs
 PrismC was handed    13006565 working-precision words and  4798 shell-pairs
 Enter PrismC: JobTyp=21 DoJE=F Cont=F.
 Linear combination for Coulomb/exchange, wScrn=  0.000000
 CW=    0.222036    0.777964
 WU=    0.000000   12.500000
 PrismC was handed    13006565 working-precision words and  4798 shell-pairs
 PrismC was handed    13006565 working-precision words and  4798 shell-pairs
 Linear combination for Coulomb/exchange, wScrn=  0.000000
 CW=    0.222036    0.777964
 WU=    0.000000   12.500000
 PrismC was handed    13006565 working-precision words and  4798 shell-pairs
 PrismC was handed    13006565 working-precision words and  4798 shell-pairs
 PrismC was handed    13006565 working-precision words and  4798 shell-pairs
 Enter PrismC: JobTyp=21 DoJE=F Cont=F.
 Linear combination for Coulomb/exchange, wScrn=  0.000000
 CW=    0.222036    0.777964
 WU=    0.000000   12.500000
 PrismC was handed    13006565 working-precision words and  4798 shell-pairs
 Enter PrismC: JobTyp=21 DoJE=F Cont=F.
 Linear combination for Coulomb/exchange, wScrn=  0.000000
 CW=    0.222036    0.777964
 WU=    0.000000   12.500000
 PrismC was handed    13006565 working-precision words and  4798 shell-pairs
 Enter PrismC: JobTyp=21 DoJE=F Cont=F.
 Linear combination for Coulomb/exchange, wScrn=  0.000000
 CW=    0.222036    0.777964
 WU=    0.000000   12.500000
 PrismC was handed    13006565 working-precision words and  4798 shell-pairs
 IPart= 25 NShTot=      297590 NShNF=      297590 NShFF=           0 NBatch=        2694 AvBLen=       110.5
 IPart= 31 NShTot=      306079 NShNF=      306079 NShFF=           0 NBatch=        2711 AvBLen=       112.9
 IPart= 11 NShTot=      287018 NShNF=      287018 NShFF=           0 NBatch=        2612 AvBLen=       109.9
 IPart= 16 NShTot=      260769 NShNF=      260769 NShFF=           0 NBatch=        2672 AvBLen=        97.6
 IPart= 20 NShTot=      237921 NShNF=      237921 NShFF=           0 NBatch=        1937 AvBLen=       122.8
 IPart=  4 NShTot=      398891 NShNF=      398891 NShFF=           0 NBatch=        2446 AvBLen=       163.1
 IPart= 24 NShTot=      265380 NShNF=      265380 NShFF=           0 NBatch=        2532 AvBLen=       104.8
 IPart= 10 NShTot=      440086 NShNF=      440086 NShFF=           0 NBatch=        2699 AvBLen=       163.1
 IPart=  6 NShTot=      242849 NShNF=      242849 NShFF=           0 NBatch=        1963 AvBLen=       123.7
 IPart= 15 NShTot=      306239 NShNF=      306239 NShFF=           0 NBatch=        2853 AvBLen=       107.3
 IPart=  9 NShTot=      265316 NShNF=      265316 NShFF=           0 NBatch=        2367 AvBLen=       112.1
 IPart= 28 NShTot=      281215 NShNF=      281215 NShFF=           0 NBatch=        3174 AvBLen=        88.6
 IPart= 22 NShTot=      224884 NShNF=      224884 NShFF=           0 NBatch=        1972 AvBLen=       114.0
 IPart= 26 NShTot=      243686 NShNF=      243686 NShFF=           0 NBatch=        1992 AvBLen=       122.3
 IPart= 23 NShTot=      282191 NShNF=      282191 NShFF=           0 NBatch=        2624 AvBLen=       107.5
 IPart=  0 NShTot=      264109 NShNF=      264109 NShFF=           0 NBatch=        2629 AvBLen=       100.5
 IPart= 30 NShTot=      373958 NShNF=      373958 NShFF=           0 NBatch=        2908 AvBLen=       128.6
 IPart=  7 NShTot=      310487 NShNF=      310487 NShFF=           0 NBatch=        2626 AvBLen=       118.2
 IPart= 17 NShTot=      231357 NShNF=      231357 NShFF=           0 NBatch=        2306 AvBLen=       100.3
 IPart= 21 NShTot=      212178 NShNF=      212178 NShFF=           0 NBatch=        2174 AvBLen=        97.6
 IPart= 14 NShTot=      222636 NShNF=      222636 NShFF=           0 NBatch=        1901 AvBLen=       117.1
 IPart= 19 NShTot=      281323 NShNF=      281323 NShFF=           0 NBatch=        2539 AvBLen=       110.8
 IPart=  8 NShTot=      292202 NShNF=      292202 NShFF=           0 NBatch=        2599 AvBLen=       112.4
 IPart= 12 NShTot=      245993 NShNF=      245993 NShFF=           0 NBatch=        2286 AvBLen=       107.6
 IPart= 29 NShTot=      198011 NShNF=      198011 NShFF=           0 NBatch=        1839 AvBLen=       107.7
 IPart=  2 NShTot=      202190 NShNF=      202190 NShFF=           0 NBatch=        2085 AvBLen=        97.0
 IPart=  5 NShTot=      260301 NShNF=      260301 NShFF=           0 NBatch=        2434 AvBLen=       106.9
 IPart=  1 NShTot=      189513 NShNF=      189513 NShFF=           0 NBatch=        2114 AvBLen=        89.6
 IPart= 18 NShTot=      261368 NShNF=      261368 NShFF=           0 NBatch=        2037 AvBLen=       128.3
 IPart= 27 NShTot=      276202 NShNF=      276202 NShFF=           0 NBatch=        2348 AvBLen=       117.6
 IPart=  3 NShTot=      189754 NShNF=      189754 NShFF=           0 NBatch=        1805 AvBLen=       105.1
 IPart= 13 NShTot=      231609 NShNF=      231609 NShFF=           0 NBatch=        2415 AvBLen=        95.9
 CoulSu:  NxtVal=       12525569.
 ReadGW:  IGet=0 IStart=           1 Next=           1 LGW=           0.
 Remaining memory in FofDFT      399.83 Mw
 CkSvGd:  ISavGI=        -1 IRadAn=       5 IRASav=       5 ISavGd=        -1.
 CalDSu:  NPrtUS=  32 ThrOK=T IAlg=1 NPAlg=2 DoDPD=T LenP=       45150 LenD1P=             0.
 IPart=  0 IRanGd=          0 ScrnBf=T ScrnGd=T RCrit=4.00D+00 DoMicB=T.
 IPart=  8         9309 of        12024 points in      17 batches and       47 microbatches, Max-NSigAt=      12 Max-NSgAt2=      12
 IPart= 11         9506 of        11990 points in      18 batches and       61 microbatches, Max-NSigAt=      12 Max-NSgAt2=      12
 IPart= 10        10906 of        11418 points in      16 batches and       43 microbatches, Max-NSigAt=      12 Max-NSgAt2=      12
 IPart= 20         7749 of         8000 points in      13 batches and       36 microbatches, Max-NSigAt=      12 Max-NSgAt2=      12
 IPart=  4         6132 of         7458 points in      12 batches and       73 microbatches, Max-NSigAt=      12 Max-NSgAt2=      12
 IPart= 28         6495 of         7056 points in      10 batches and       27 microbatches, Max-NSigAt=      12 Max-NSgAt2=      12
 IPart=  2         6055 of         6898 points in      11 batches and       30 microbatches, Max-NSigAt=      12 Max-NSgAt2=      12
 IPart= 19         7439 of         8508 points in      13 batches and       41 microbatches, Max-NSigAt=      12 Max-NSgAt2=      12
 IPart= 30        10850 of        12176 points in      19 batches and       92 microbatches, Max-NSigAt=      12 Max-NSgAt2=      12
 IPart= 21         7341 of         8034 points in      12 batches and       26 microbatches, Max-NSigAt=      12 Max-NSgAt2=      12
 IPart= 12         8539 of         9244 points in      14 batches and       46 microbatches, Max-NSigAt=      12 Max-NSgAt2=      12
 IPart=  7        10170 of        11212 points in      16 batches and       68 microbatches, Max-NSigAt=      12 Max-NSgAt2=      12
 IPart= 13         6693 of         8496 points in      14 batches and       43 microbatches, Max-NSigAt=      12 Max-NSgAt2=      12
 IPart= 18         9897 of        10970 points in      17 batches and       59 microbatches, Max-NSigAt=      12 Max-NSgAt2=      12
 IPart= 14         6909 of         7550 points in      12 batches and       34 microbatches, Max-NSigAt=      12 Max-NSgAt2=      12
 IPart= 15         5109 of         5622 points in       9 batches and       28 microbatches, Max-NSigAt=      12 Max-NSgAt2=      12
 IPart=  0         7181 of         8304 points in      12 batches and       61 microbatches, Max-NSigAt=      12 Max-NSgAt2=      12
 IPart= 24        11591 of        13836 points in      20 batches and       97 microbatches, Max-NSigAt=      12 Max-NSgAt2=      12
 IPart= 17         6369 of         7020 points in      12 batches and       36 microbatches, Max-NSigAt=      12 Max-NSgAt2=      12
 IPart= 23        10960 of        12394 points in      20 batches and       71 microbatches, Max-NSigAt=      12 Max-NSgAt2=      12
 IPart=  1         7344 of         8308 points in      14 batches and       48 microbatches, Max-NSigAt=      12 Max-NSgAt2=      12
 IPart=  5         7862 of         8696 points in      14 batches and       77 microbatches, Max-NSigAt=      12 Max-NSgAt2=      12
 IPart= 26         5201 of         5524 points in       9 batches and       20 microbatches, Max-NSigAt=      12 Max-NSgAt2=      12
 IPart=  3         8551 of         8738 points in      13 batches and       34 microbatches, Max-NSigAt=      12 Max-NSgAt2=      12
 IPart= 29         5857 of         6546 points in      11 batches and       48 microbatches, Max-NSigAt=      12 Max-NSgAt2=      12
 IPart= 22         5553 of         6322 points in      10 batches and       58 microbatches, Max-NSigAt=      12 Max-NSgAt2=      12
 IPart= 16         7126 of         8776 points in      14 batches and       52 microbatches, Max-NSigAt=      12 Max-NSgAt2=      12
 IPart= 27         4839 of         5290 points in       8 batches and       36 microbatches, Max-NSigAt=      12 Max-NSgAt2=      12
 IPart=  9         6212 of         7150 points in      12 batches and       60 microbatches, Max-NSigAt=      12 Max-NSgAt2=      12
 IPart= 31         7768 of         9222 points in      14 batches and       45 microbatches, Max-NSigAt=      12 Max-NSgAt2=      12
 IPart=  6         6074 of         6600 points in      11 batches and       45 microbatches, Max-NSigAt=      12 Max-NSgAt2=      12
 IPart= 25         5461 of         6272 points in      10 batches and       36 microbatches, Max-NSigAt=      12 Max-NSgAt2=      12
 Forces at end of L703
 I=    0 X=  -4.887964946535D-01 Y=   2.145238009791D-01 Z=  -9.502555503159D-02
 I=    1 X=   2.251367728019D-03 Y=   5.191140608653D-03 Z=   1.533092184268D-03
 I=    2 X=  -2.016895887644D-04 Y=  -3.412727737626D-04 Z=   5.456586787034D-04
 I=    3 X=   2.931561354704D-04 Y=  -1.370787859362D-04 Z=   9.036183456734D-05
 I=    4 X=  -8.530797444082D-04 Y=  -3.653567088957D-04 Z=  -1.359639775986D-04
 I=    5 X=  -7.918495879666D-05 Y=   2.106679667521D-04 Z=   2.184071751370D-04
 I=    6 X=  -1.886914438109D-03 Y=  -6.561641366173D-03 Z=  -4.432726098218D-03
 I=    7 X=  -1.352955075965D-04 Y=   8.391820583038D-04 Z=   1.239167972815D-03
 I=    8 X=  -3.694782191976D-05 Y=   6.769549781025D-04 Z=   2.742698031400D-04
 I=    9 X=   5.626133705396D-04 Y=   8.273506350023D-04 Z=   6.577222656898D-04
 I=   10 X=   2.219896736189D-04 Y=  -1.265467559418D-04 Z=  -1.316044018247D-04
 I=   11 X=   3.418436340229D-05 Y=  -6.810944020286D-05 Z=   1.330544775231D-04
 I=   12 X=  -1.701992114864D-04 Y=  -1.452904158712D-04 Z=   8.560085690057D-06
 FrcOut:
 IF    =    61 IFX   =    97 IFXYZ =   133
 IFFX  =   169 IFFFX =   835 IFLen =    36
 IFFLen=   666 IFFFLn=     0 IEDerv=   835
 LEDerv=  1781 IFroze=  3022 ICStrt=147347
 FCEst1:  Generated internal coordinate force constants:
                1             2             3             4             5 
      1  0.687858D+00
      2 -0.900728D-01  0.268371D+00
      3 -0.428501D-02 -0.629648D-01  0.879927D+00
      4 -0.111421D+00  0.344052D-02 -0.615781D-03  0.594117D+00
      5  0.339536D-02 -0.772856D-01  0.950676D-03 -0.436524D-01  0.874310D-01
      6 -0.323060D-01  0.272525D-02 -0.534356D+00 -0.130735D+00  0.110284D-01
      7 -0.318075D+00  0.198322D-02  0.931270D-01  0.125536D-01  0.374412D-03
      8 -0.292170D-02 -0.669357D-01  0.641455D-02  0.274261D-03 -0.170529D-02
      9  0.999143D-01  0.446110D-02 -0.153011D+00  0.282383D-01  0.842208D-03
     10 -0.253781D+00  0.846633D-01 -0.901522D-01  0.133398D-01  0.918218D-03
     11  0.906655D-01 -0.114172D+00  0.525585D-01 -0.295645D-02  0.179037D-01
     12 -0.979260D-01  0.533768D-01 -0.170561D+00 -0.239485D-01  0.125186D-01
     13  0.116752D-01 -0.428415D-03  0.000000D+00 -0.509644D+00  0.404854D-01
     14 -0.556726D-03  0.664362D-02  0.000000D+00  0.415011D-01 -0.332169D-01
     15  0.323060D-01 -0.272525D-02  0.000000D+00  0.130735D+00 -0.110284D-01
     16 -0.176233D-01 -0.319930D-04  0.368660D-02  0.118194D-02 -0.155369D-02
     17 -0.149587D-02 -0.167864D-01  0.396657D-02  0.134320D-02  0.688588D-02
     18  0.355467D-02  0.510307D-02 -0.226605D-01 -0.363626D-02 -0.143212D-01
     19  0.222351D-02  0.106783D-02 -0.361935D-02  0.297362D-03 -0.764299D-04
     20  0.591131D-02  0.375610D-02 -0.116473D-01 -0.128013D-03  0.329026D-04
     21  0.178905D-02  0.984368D-03 -0.318854D-02  0.113886D-03 -0.292716D-04
     22 -0.195788D-02  0.341457D-03  0.357160D-03 -0.406160D-04  0.104394D-04
     23 -0.112966D-01  0.198940D-02  0.201825D-02  0.200019D-03 -0.514101D-04
     24 -0.516225D-02  0.886499D-03  0.972180D-03 -0.418559D-03  0.107581D-03
     25  0.109023D-02 -0.958388D-03  0.149729D-02 -0.383909D-03  0.986748D-04
     26  0.637495D-02 -0.558125D-02  0.870484D-02 -0.221918D-04  0.570388D-05
     27  0.211078D-02 -0.184517D-02  0.287601D-02  0.266852D-03 -0.685881D-04
     28 -0.199919D-03  0.860639D-04 -0.765662D-04  0.000000D+00  0.000000D+00
     29  0.735982D-03 -0.316836D-03  0.281871D-03  0.000000D+00  0.000000D+00
     30  0.121398D-04 -0.522613D-05  0.464939D-05  0.000000D+00  0.000000D+00
     31  0.676504D-03 -0.291231D-03  0.259092D-03  0.000000D+00  0.000000D+00
     32 -0.203375D-03  0.875518D-04 -0.778899D-04  0.000000D+00  0.000000D+00
     33  0.271083D-03 -0.116699D-03  0.103821D-03  0.000000D+00  0.000000D+00
     34 -0.465432D-03  0.200366D-03 -0.178254D-03  0.000000D+00  0.000000D+00
     35 -0.536046D-03  0.230764D-03 -0.205298D-03  0.000000D+00  0.000000D+00
     36 -0.278765D-03  0.120007D-03 -0.106763D-03  0.000000D+00  0.000000D+00
                6             7             8             9            10 
      6  0.642406D+00
      7  0.000000D+00  0.315767D+00
      8  0.000000D+00  0.341588D-03  0.512159D-01
      9  0.000000D+00 -0.105105D+00  0.768373D-03  0.126068D+00
     10  0.000000D+00 -0.808061D-02  0.121875D-01 -0.181767D-01  0.246727D+00
     11  0.000000D+00 -0.278106D-02  0.985127D-02 -0.625577D-02 -0.934969D-01
     12  0.000000D+00  0.109298D-01 -0.120590D-01  0.245856D-01  0.107151D+00
     13  0.163041D+00  0.000000D+00  0.597990D-03  0.000000D+00 -0.270616D-03
     14 -0.137537D-01  0.000000D+00  0.708877D-02  0.000000D+00 -0.320797D-02
     15 -0.108050D+00  0.000000D+00  0.000000D+00  0.000000D+00  0.000000D+00
     16  0.000000D+00 -0.222013D-02 -0.104099D-01 -0.499399D-02  0.197722D-02
     17  0.000000D+00  0.103258D-03  0.457707D-03  0.232270D-03 -0.102971D-02
     18  0.000000D+00  0.103188D-02  0.489677D-02  0.232112D-02  0.115141D-02
     19  0.000000D+00 -0.127849D-03  0.163118D-03 -0.287586D-03 -0.206089D-03
     20  0.000000D+00  0.550381D-04 -0.702212D-04  0.123804D-03  0.887199D-04
     21  0.000000D+00 -0.489644D-04  0.624719D-04 -0.110141D-03 -0.789291D-04
     22  0.000000D+00  0.174626D-04 -0.222799D-04  0.392806D-04  0.281492D-04
     23  0.000000D+00 -0.859968D-04  0.109720D-03 -0.193443D-03 -0.138624D-03
     24  0.000000D+00  0.179957D-03 -0.229600D-03  0.404797D-03  0.290085D-03
     25  0.000000D+00  0.165059D-03 -0.210593D-03  0.371287D-03  0.266071D-03
     26  0.000000D+00  0.954123D-05 -0.121733D-04  0.214622D-04  0.153802D-04
     27  0.000000D+00 -0.114731D-03  0.146382D-03 -0.258079D-03 -0.184944D-03
     28  0.000000D+00  0.000000D+00  0.000000D+00  0.000000D+00  0.000000D+00
     29  0.000000D+00  0.000000D+00  0.000000D+00  0.000000D+00  0.000000D+00
     30  0.000000D+00  0.000000D+00  0.000000D+00  0.000000D+00  0.000000D+00
     31  0.000000D+00  0.000000D+00  0.000000D+00  0.000000D+00  0.000000D+00
     32  0.000000D+00  0.000000D+00  0.000000D+00  0.000000D+00  0.000000D+00
     33  0.000000D+00  0.000000D+00  0.000000D+00  0.000000D+00  0.000000D+00
     34  0.000000D+00  0.000000D+00  0.000000D+00  0.000000D+00  0.000000D+00
     35  0.000000D+00  0.000000D+00  0.000000D+00  0.000000D+00  0.000000D+00
     36  0.000000D+00  0.000000D+00  0.000000D+00  0.000000D+00  0.000000D+00
               11            12            13            14            15 
     11  0.978965D-01
     12 -0.517841D-01  0.143597D+00
     13 -0.560973D-03  0.000000D+00  0.498045D+00
     14 -0.664996D-02  0.000000D+00 -0.400440D-01  0.267276D-01
     15  0.000000D+00  0.000000D+00 -0.163041D+00  0.137537D-01  0.108050D+00
     16  0.909876D-02  0.391205D-02  0.194664D-03  0.230762D-02  0.000000D+00
     17 -0.481712D-02 -0.209884D-02 -0.500338D-04 -0.593118D-03  0.000000D+00
     18  0.547210D-02  0.241392D-02  0.000000D+00  0.000000D+00  0.000000D+00
     19 -0.726699D-04  0.277391D-03  0.000000D+00  0.000000D+00  0.000000D+00
     20  0.312839D-04 -0.119415D-03  0.000000D+00  0.000000D+00  0.000000D+00
     21 -0.278315D-04  0.106237D-03  0.000000D+00  0.000000D+00  0.000000D+00
     22  0.992579D-05 -0.378882D-04  0.000000D+00  0.000000D+00  0.000000D+00
     23 -0.488809D-04  0.186586D-03  0.000000D+00  0.000000D+00  0.000000D+00
     24  0.102288D-03 -0.390449D-03  0.000000D+00  0.000000D+00  0.000000D+00
     25  0.938204D-04 -0.358126D-03  0.000000D+00  0.000000D+00  0.000000D+00
     26  0.542327D-05 -0.207014D-04  0.000000D+00  0.000000D+00  0.000000D+00
     27 -0.652138D-04  0.248931D-03  0.000000D+00  0.000000D+00  0.000000D+00
     28  0.000000D+00  0.000000D+00  0.000000D+00  0.000000D+00  0.000000D+00
     29  0.000000D+00  0.000000D+00  0.000000D+00  0.000000D+00  0.000000D+00
     30  0.000000D+00  0.000000D+00  0.000000D+00  0.000000D+00  0.000000D+00
     31  0.000000D+00  0.000000D+00  0.000000D+00  0.000000D+00  0.000000D+00
     32  0.000000D+00  0.000000D+00  0.000000D+00  0.000000D+00  0.000000D+00
     33  0.000000D+00  0.000000D+00  0.000000D+00  0.000000D+00  0.000000D+00
     34  0.000000D+00  0.000000D+00  0.000000D+00  0.000000D+00  0.000000D+00
     35  0.000000D+00  0.000000D+00  0.000000D+00  0.000000D+00  0.000000D+00
     36  0.000000D+00  0.000000D+00  0.000000D+00  0.000000D+00  0.000000D+00
               16            17            18            19            20 
     16  0.690025D+00
     17 -0.649761D-01  0.308117D+00
     18 -0.303785D-01 -0.104014D+00  0.694780D+00
     19 -0.161035D+00 -0.131880D-01  0.826695D-01  0.682658D+00
     20 -0.164061D-01 -0.118879D+00  0.338278D-01  0.386346D-03  0.657494D+00
     21  0.784702D-01  0.252721D-01 -0.302293D+00 -0.668749D-02 -0.728390D-02
     22 -0.348707D+00  0.289545D-01  0.353626D-01  0.334229D-02  0.805444D-03
     23  0.332770D-01 -0.835915D-01 -0.107510D-02 -0.346231D-02  0.115723D-01
     24  0.489808D-01 -0.167835D-02 -0.119144D+00  0.251233D-01 -0.284200D-02
     25 -0.180296D+00  0.512141D-01 -0.969255D-01  0.201845D-01 -0.496941D-02
     26  0.497199D-01 -0.109883D+00  0.679575D-01  0.776839D-03  0.105580D-01
     27 -0.106734D+00  0.765367D-01 -0.258778D+00 -0.142073D-01  0.838306D-02
     28 -0.823520D-03 -0.107180D-02 -0.510072D-03 -0.328935D+00 -0.671346D-01
     29 -0.187653D-02  0.264559D-02 -0.467855D-03 -0.667566D-01 -0.992208D-01
     30  0.243864D-01  0.651146D-02  0.116612D-01 -0.146348D-02  0.514972D-03
     31  0.410674D-02  0.114120D-01  0.337173D-02 -0.790355D-01 -0.254438D-02
     32  0.208493D-02  0.124566D-01  0.262119D-02 -0.699660D-02 -0.257135D+00
     33 -0.355052D-02 -0.202960D-01 -0.433859D-02 -0.715967D-02 -0.126813D+00
     34  0.132191D-01 -0.112156D-01  0.430867D-02 -0.139366D+00  0.839357D-01
     35 -0.123381D-02  0.398744D-02  0.000000D+00  0.881585D-01 -0.208139D+00
     36 -0.137795D-01  0.155676D-01 -0.396220D-02 -0.746453D-01  0.105856D+00
               21            22            23            24            25 
     21  0.692452D+00
     22  0.158637D-02  0.350263D+00
     23  0.500250D-04 -0.311902D-01  0.599024D-01
     24  0.107102D-01 -0.399353D-01  0.352050D-02  0.864146D-01
     25  0.823810D-02 -0.295138D-02  0.126541D-01 -0.290664D-01  0.161936D+00
     26  0.178421D-02  0.109248D-02  0.101312D-01  0.135667D-03 -0.579258D-01
     27 -0.513179D-02  0.262552D-02 -0.452385D-02  0.210291D-01  0.116248D+00
     28 -0.139563D-01 -0.103031D-03 -0.764352D-03 -0.149838D-03  0.201118D-03
     29 -0.281545D-02  0.379297D-03  0.281388D-02  0.551614D-03 -0.740395D-03
     30 -0.775328D-01  0.625641D-05  0.464143D-04  0.909873D-05 -0.122126D-04
     31 -0.379969D-02  0.348644D-03  0.258648D-02  0.507036D-03 -0.680561D-03
     32 -0.115602D+00 -0.104812D-03 -0.777566D-03 -0.152428D-03  0.204595D-03
     33 -0.157043D+00  0.139706D-03  0.103643D-02  0.203175D-03 -0.272708D-03
     34 -0.656263D-01 -0.239866D-03 -0.177949D-02 -0.348838D-03  0.468223D-03
     35  0.976051D-01 -0.276258D-03 -0.204947D-02 -0.401763D-03  0.539260D-03
     36 -0.157969D+00 -0.143665D-03 -0.106581D-02 -0.208933D-03  0.280437D-03
               26            27            28            29            30 
     26  0.947632D-01
     27 -0.785666D-01  0.240018D+00
     28  0.735641D-03  0.189249D-03  0.326871D+00
     29 -0.270819D-02 -0.696700D-03  0.717241D-01  0.814296D-01
     30 -0.446709D-04 -0.114919D-04  0.146388D-01  0.364667D-02  0.609109D-01
     31 -0.248933D-02 -0.640397D-03  0.921523D-02 -0.299591D-01 -0.202230D-01
     32  0.748359D-03  0.192520D-03  0.174119D-03 -0.526676D-03 -0.577419D-03
     33 -0.997502D-03 -0.256614D-03 -0.916400D-03  0.291760D-02  0.231679D-02
     34  0.171265D-02  0.440590D-03 -0.622560D-02  0.264933D-01 -0.173449D-01
     35  0.197248D-02  0.507435D-03 -0.374914D-02  0.158834D-01 -0.100922D-01
     36  0.102577D-02  0.263887D-03  0.781068D-03 -0.341775D-02  0.264158D-02
               31            32            33            34            35 
     31  0.614955D-01
     32  0.808401D-02  0.257138D+00
     33  0.668301D-02  0.126422D+00  0.139904D+00
     34  0.387352D-02 -0.324286D-02  0.480550D-02  0.128736D+00
     35  0.132016D-01 -0.119910D-01  0.178475D-01 -0.961041D-01  0.200105D+00
     36  0.138422D-01 -0.128262D-01  0.191101D-01  0.739435D-01 -0.105260D+00
               36 
     36  0.140231D+00
 Quadrupole    = 1.66830641D+00-2.03066212D+00 3.62355713D-01
                -9.45220152D-01-2.22136689D+00 1.23057804D-01
 -------------------------------------------------------------------
 Center     Atomic                   Forces (Hartrees/Bohr)
 Number     Number              X              Y              Z
 -------------------------------------------------------------------
      1        6          -0.002251368   -0.005191141   -0.001533092
      2        8           0.000201690    0.000341273   -0.000545659
      3        1          -0.000293156    0.000137079   -0.000090362
      4        1           0.000853080    0.000365357    0.000135964
      5        1           0.000079185   -0.000210668   -0.000218407
      6        6           0.001886914    0.006561641    0.004432726
      7        6           0.000135296   -0.000839182   -0.001239168
      8        1           0.000036948   -0.000676955   -0.000274270
      9        1          -0.000562613   -0.000827351   -0.000657722
     10        1          -0.000221990    0.000126547    0.000131604
     11        1          -0.000034184    0.000068109   -0.000133054
     12        1           0.000170199    0.000145290   -0.000008560
 -------------------------------------------------------------------
 Cartesian Forces:  Max     0.006561641 RMS     0.001720468
 From PutF, contents of force:
   1   -0.8752205106D-03
   2   -0.3695250613D-04
   3   -0.3419328499D-03
   4   -0.6478510302D-03
   5   -0.2488372228D-03
   6    0.3620024165D-03
   7   -0.3121369434D-03
   8    0.1250439143D-02
   9    0.3458062167D-03
  10    0.1091779956D-02
  11   -0.1466953438D-03
  12   -0.5232125123D-03
  13   -0.1740276629D-03
  14    0.1550967172D-04
  15    0.2304481696D-04
  16   -0.2488135716D-03
  17   -0.6401238251D-06
  18   -0.2846315015D-03
  19    0.2452283210D-03
  20    0.1897415811D-03
  21   -0.1886675428D-02
  22    0.1863027077D-03
  23    0.3883635991D-03
  24    0.2255196925D-03
  25    0.4107642106D-03
  26   -0.1651199320D-03
  27   -0.5989501733D-03
  28   -0.2311706498D-03
  29   -0.7640658538D-03
  30   -0.5268792914D-02
 -----------------------------------------------------------------------------------------------
                       Internal Coordinate Forces (Hartree/Bohr or radian)
  Cent   Atom   N1       Length/X         N2         Alpha/Y        N3         Beta/Z          J
 -----------------------------------------------------------------------------------------------
      1  C 
      2  O        1  -0.000764(     1)
      3  H        1  -0.000231(     2)      2   0.000411(    12)
      4  H        1  -0.000599(     3)      2   0.000362(    13)      3   0.001250(    22)     0
      5  H        2  -0.000165(     4)      1  -0.000312(    14)      3   0.000346(    23)     0
      6  C        1  -0.005269(     5)      2  -0.000249(    15)      3  -0.000648(    24)     0
      7  C        6   0.001092(     6)      1  -0.000342(    16)      2  -0.000037(    25)     0
      8  H        6  -0.000147(     7)      7  -0.000249(    17)      1  -0.000875(    26)     0
      9  H        6  -0.000523(     8)      7  -0.000001(    18)      8  -0.001887(    27)     0
     10  H        7  -0.000174(     9)      6  -0.000285(    19)      8   0.000226(    28)     0
     11  H        7   0.000016(    10)      6   0.000245(    20)     10   0.000186(    29)     0
     12  H        7   0.000023(    11)      6   0.000190(    21)     10   0.000388(    30)     0
 -----------------------------------------------------------------------------------------------
 Internal  Forces:  Max     0.005268793 RMS     0.001122245
 Force constants in Cartesian coordinates: 
                1             2             3             4             5 
      1  0.687858D+00
      2 -0.900728D-01  0.268371D+00
      3 -0.428501D-02 -0.629648D-01  0.879927D+00
      4 -0.111421D+00  0.344052D-02 -0.615781D-03  0.594117D+00
      5  0.339536D-02 -0.772856D-01  0.950676D-03 -0.436524D-01  0.874310D-01
      6 -0.323060D-01  0.272525D-02 -0.534356D+00 -0.130735D+00  0.110284D-01
      7 -0.318075D+00  0.198322D-02  0.931270D-01  0.125536D-01  0.374412D-03
      8 -0.292170D-02 -0.669357D-01  0.641455D-02  0.274261D-03 -0.170529D-02
      9  0.999143D-01  0.446110D-02 -0.153011D+00  0.282383D-01  0.842208D-03
     10 -0.253781D+00  0.846633D-01 -0.901522D-01  0.133398D-01  0.918218D-03
     11  0.906655D-01 -0.114172D+00  0.525585D-01 -0.295645D-02  0.179037D-01
     12 -0.979260D-01  0.533768D-01 -0.170561D+00 -0.239485D-01  0.125186D-01
     13  0.116752D-01 -0.428415D-03  0.000000D+00 -0.509644D+00  0.404854D-01
     14 -0.556726D-03  0.664362D-02  0.000000D+00  0.415011D-01 -0.332169D-01
     15  0.323060D-01 -0.272525D-02  0.000000D+00  0.130735D+00 -0.110284D-01
     16 -0.176233D-01 -0.319930D-04  0.368660D-02  0.118194D-02 -0.155369D-02
     17 -0.149587D-02 -0.167864D-01  0.396657D-02  0.134320D-02  0.688588D-02
     18  0.355467D-02  0.510307D-02 -0.226605D-01 -0.363626D-02 -0.143212D-01
     19  0.222351D-02  0.106783D-02 -0.361935D-02  0.297362D-03 -0.764299D-04
     20  0.591131D-02  0.375610D-02 -0.116473D-01 -0.128013D-03  0.329026D-04
     21  0.178905D-02  0.984368D-03 -0.318854D-02  0.113886D-03 -0.292716D-04
     22 -0.195788D-02  0.341457D-03  0.357160D-03 -0.406160D-04  0.104394D-04
     23 -0.112966D-01  0.198940D-02  0.201825D-02  0.200019D-03 -0.514101D-04
     24 -0.516225D-02  0.886499D-03  0.972180D-03 -0.418559D-03  0.107581D-03
     25  0.109023D-02 -0.958388D-03  0.149729D-02 -0.383909D-03  0.986748D-04
     26  0.637495D-02 -0.558125D-02  0.870484D-02 -0.221918D-04  0.570388D-05
     27  0.211078D-02 -0.184517D-02  0.287601D-02  0.266852D-03 -0.685881D-04
     28 -0.199919D-03  0.860639D-04 -0.765662D-04  0.000000D+00  0.000000D+00
     29  0.735982D-03 -0.316836D-03  0.281871D-03  0.000000D+00  0.000000D+00
     30  0.121398D-04 -0.522613D-05  0.464939D-05  0.000000D+00  0.000000D+00
     31  0.676504D-03 -0.291231D-03  0.259092D-03  0.000000D+00  0.000000D+00
     32 -0.203375D-03  0.875518D-04 -0.778899D-04  0.000000D+00  0.000000D+00
     33  0.271083D-03 -0.116699D-03  0.103821D-03  0.000000D+00  0.000000D+00
     34 -0.465432D-03  0.200366D-03 -0.178254D-03  0.000000D+00  0.000000D+00
     35 -0.536046D-03  0.230764D-03 -0.205298D-03  0.000000D+00  0.000000D+00
     36 -0.278765D-03  0.120007D-03 -0.106763D-03  0.000000D+00  0.000000D+00
                6             7             8             9            10 
      6  0.642406D+00
      7  0.000000D+00  0.315767D+00
      8  0.000000D+00  0.341588D-03  0.512159D-01
      9  0.000000D+00 -0.105105D+00  0.768373D-03  0.126068D+00
     10  0.000000D+00 -0.808061D-02  0.121875D-01 -0.181767D-01  0.246727D+00
     11  0.000000D+00 -0.278106D-02  0.985127D-02 -0.625577D-02 -0.934969D-01
     12  0.000000D+00  0.109298D-01 -0.120590D-01  0.245856D-01  0.107151D+00
     13  0.163041D+00  0.000000D+00  0.597990D-03  0.000000D+00 -0.270616D-03
     14 -0.137537D-01  0.000000D+00  0.708877D-02  0.000000D+00 -0.320797D-02
     15 -0.108050D+00  0.000000D+00  0.000000D+00  0.000000D+00  0.000000D+00
     16  0.000000D+00 -0.222013D-02 -0.104099D-01 -0.499399D-02  0.197722D-02
     17  0.000000D+00  0.103258D-03  0.457707D-03  0.232270D-03 -0.102971D-02
     18  0.000000D+00  0.103188D-02  0.489677D-02  0.232112D-02  0.115141D-02
     19  0.000000D+00 -0.127849D-03  0.163118D-03 -0.287586D-03 -0.206089D-03
     20  0.000000D+00  0.550381D-04 -0.702212D-04  0.123804D-03  0.887199D-04
     21  0.000000D+00 -0.489644D-04  0.624719D-04 -0.110141D-03 -0.789291D-04
     22  0.000000D+00  0.174626D-04 -0.222799D-04  0.392806D-04  0.281492D-04
     23  0.000000D+00 -0.859968D-04  0.109720D-03 -0.193443D-03 -0.138624D-03
     24  0.000000D+00  0.179957D-03 -0.229600D-03  0.404797D-03  0.290085D-03
     25  0.000000D+00  0.165059D-03 -0.210593D-03  0.371287D-03  0.266071D-03
     26  0.000000D+00  0.954123D-05 -0.121733D-04  0.214622D-04  0.153802D-04
     27  0.000000D+00 -0.114731D-03  0.146382D-03 -0.258079D-03 -0.184944D-03
     28  0.000000D+00  0.000000D+00  0.000000D+00  0.000000D+00  0.000000D+00
     29  0.000000D+00  0.000000D+00  0.000000D+00  0.000000D+00  0.000000D+00
     30  0.000000D+00  0.000000D+00  0.000000D+00  0.000000D+00  0.000000D+00
     31  0.000000D+00  0.000000D+00  0.000000D+00  0.000000D+00  0.000000D+00
     32  0.000000D+00  0.000000D+00  0.000000D+00  0.000000D+00  0.000000D+00
     33  0.000000D+00  0.000000D+00  0.000000D+00  0.000000D+00  0.000000D+00
     34  0.000000D+00  0.000000D+00  0.000000D+00  0.000000D+00  0.000000D+00
     35  0.000000D+00  0.000000D+00  0.000000D+00  0.000000D+00  0.000000D+00
     36  0.000000D+00  0.000000D+00  0.000000D+00  0.000000D+00  0.000000D+00
               11            12            13            14            15 
     11  0.978965D-01
     12 -0.517841D-01  0.143597D+00
     13 -0.560973D-03  0.000000D+00  0.498045D+00
     14 -0.664996D-02  0.000000D+00 -0.400440D-01  0.267276D-01
     15  0.000000D+00  0.000000D+00 -0.163041D+00  0.137537D-01  0.108050D+00
     16  0.909876D-02  0.391205D-02  0.194664D-03  0.230762D-02  0.000000D+00
     17 -0.481712D-02 -0.209884D-02 -0.500338D-04 -0.593118D-03  0.000000D+00
     18  0.547210D-02  0.241392D-02  0.000000D+00  0.000000D+00  0.000000D+00
     19 -0.726699D-04  0.277391D-03  0.000000D+00  0.000000D+00  0.000000D+00
     20  0.312839D-04 -0.119415D-03  0.000000D+00  0.000000D+00  0.000000D+00
     21 -0.278315D-04  0.106237D-03  0.000000D+00  0.000000D+00  0.000000D+00
     22  0.992579D-05 -0.378882D-04  0.000000D+00  0.000000D+00  0.000000D+00
     23 -0.488809D-04  0.186586D-03  0.000000D+00  0.000000D+00  0.000000D+00
     24  0.102288D-03 -0.390449D-03  0.000000D+00  0.000000D+00  0.000000D+00
     25  0.938204D-04 -0.358126D-03  0.000000D+00  0.000000D+00  0.000000D+00
     26  0.542327D-05 -0.207014D-04  0.000000D+00  0.000000D+00  0.000000D+00
     27 -0.652138D-04  0.248931D-03  0.000000D+00  0.000000D+00  0.000000D+00
     28  0.000000D+00  0.000000D+00  0.000000D+00  0.000000D+00  0.000000D+00
     29  0.000000D+00  0.000000D+00  0.000000D+00  0.000000D+00  0.000000D+00
     30  0.000000D+00  0.000000D+00  0.000000D+00  0.000000D+00  0.000000D+00
     31  0.000000D+00  0.000000D+00  0.000000D+00  0.000000D+00  0.000000D+00
     32  0.000000D+00  0.000000D+00  0.000000D+00  0.000000D+00  0.000000D+00
     33  0.000000D+00  0.000000D+00  0.000000D+00  0.000000D+00  0.000000D+00
     34  0.000000D+00  0.000000D+00  0.000000D+00  0.000000D+00  0.000000D+00
     35  0.000000D+00  0.000000D+00  0.000000D+00  0.000000D+00  0.000000D+00
     36  0.000000D+00  0.000000D+00  0.000000D+00  0.000000D+00  0.000000D+00
               16            17            18            19            20 
     16  0.690025D+00
     17 -0.649761D-01  0.308117D+00
     18 -0.303785D-01 -0.104014D+00  0.694780D+00
     19 -0.161035D+00 -0.131880D-01  0.826695D-01  0.682658D+00
     20 -0.164061D-01 -0.118879D+00  0.338278D-01  0.386346D-03  0.657494D+00
     21  0.784702D-01  0.252721D-01 -0.302293D+00 -0.668749D-02 -0.728390D-02
     22 -0.348707D+00  0.289545D-01  0.353626D-01  0.334229D-02  0.805444D-03
     23  0.332770D-01 -0.835915D-01 -0.107510D-02 -0.346231D-02  0.115723D-01
     24  0.489808D-01 -0.167835D-02 -0.119144D+00  0.251233D-01 -0.284200D-02
     25 -0.180296D+00  0.512141D-01 -0.969255D-01  0.201845D-01 -0.496941D-02
     26  0.497199D-01 -0.109883D+00  0.679575D-01  0.776839D-03  0.105580D-01
     27 -0.106734D+00  0.765367D-01 -0.258778D+00 -0.142073D-01  0.838306D-02
     28 -0.823520D-03 -0.107180D-02 -0.510072D-03 -0.328935D+00 -0.671346D-01
     29 -0.187653D-02  0.264559D-02 -0.467855D-03 -0.667566D-01 -0.992208D-01
     30  0.243864D-01  0.651146D-02  0.116612D-01 -0.146348D-02  0.514972D-03
     31  0.410674D-02  0.114120D-01  0.337173D-02 -0.790355D-01 -0.254438D-02
     32  0.208493D-02  0.124566D-01  0.262119D-02 -0.699660D-02 -0.257135D+00
     33 -0.355052D-02 -0.202960D-01 -0.433859D-02 -0.715967D-02 -0.126813D+00
     34  0.132191D-01 -0.112156D-01  0.430867D-02 -0.139366D+00  0.839357D-01
     35 -0.123381D-02  0.398744D-02  0.000000D+00  0.881585D-01 -0.208139D+00
     36 -0.137795D-01  0.155676D-01 -0.396220D-02 -0.746453D-01  0.105856D+00
               21            22            23            24            25 
     21  0.692452D+00
     22  0.158637D-02  0.350263D+00
     23  0.500250D-04 -0.311902D-01  0.599024D-01
     24  0.107102D-01 -0.399353D-01  0.352050D-02  0.864146D-01
     25  0.823810D-02 -0.295138D-02  0.126541D-01 -0.290664D-01  0.161936D+00
     26  0.178421D-02  0.109248D-02  0.101312D-01  0.135667D-03 -0.579258D-01
     27 -0.513179D-02  0.262552D-02 -0.452385D-02  0.210291D-01  0.116248D+00
     28 -0.139563D-01 -0.103031D-03 -0.764352D-03 -0.149838D-03  0.201118D-03
     29 -0.281545D-02  0.379297D-03  0.281388D-02  0.551614D-03 -0.740395D-03
     30 -0.775328D-01  0.625641D-05  0.464143D-04  0.909873D-05 -0.122126D-04
     31 -0.379969D-02  0.348644D-03  0.258648D-02  0.507036D-03 -0.680561D-03
     32 -0.115602D+00 -0.104812D-03 -0.777566D-03 -0.152428D-03  0.204595D-03
     33 -0.157043D+00  0.139706D-03  0.103643D-02  0.203175D-03 -0.272708D-03
     34 -0.656263D-01 -0.239866D-03 -0.177949D-02 -0.348838D-03  0.468223D-03
     35  0.976051D-01 -0.276258D-03 -0.204947D-02 -0.401763D-03  0.539260D-03
     36 -0.157969D+00 -0.143665D-03 -0.106581D-02 -0.208933D-03  0.280437D-03
               26            27            28            29            30 
     26  0.947632D-01
     27 -0.785666D-01  0.240018D+00
     28  0.735641D-03  0.189249D-03  0.326871D+00
     29 -0.270819D-02 -0.696700D-03  0.717241D-01  0.814296D-01
     30 -0.446709D-04 -0.114919D-04  0.146388D-01  0.364667D-02  0.609109D-01
     31 -0.248933D-02 -0.640397D-03  0.921523D-02 -0.299591D-01 -0.202230D-01
     32  0.748359D-03  0.192520D-03  0.174119D-03 -0.526676D-03 -0.577419D-03
     33 -0.997502D-03 -0.256614D-03 -0.916400D-03  0.291760D-02  0.231679D-02
     34  0.171265D-02  0.440590D-03 -0.622560D-02  0.264933D-01 -0.173449D-01
     35  0.197248D-02  0.507435D-03 -0.374914D-02  0.158834D-01 -0.100922D-01
     36  0.102577D-02  0.263887D-03  0.781068D-03 -0.341775D-02  0.264158D-02
               31            32            33            34            35 
     31  0.614955D-01
     32  0.808401D-02  0.257138D+00
     33  0.668301D-02  0.126422D+00  0.139904D+00
     34  0.387352D-02 -0.324286D-02  0.480550D-02  0.128736D+00
     35  0.132016D-01 -0.119910D-01  0.178475D-01 -0.961041D-01  0.200105D+00
     36  0.138422D-01 -0.128262D-01  0.191101D-01  0.739435D-01 -0.105260D+00
               36 
     36  0.140231D+00
 FCInt: Cartesian first derivatives: 
                 1             2             3             4             5 
      1   0.000000D+00  0.000000D+00  0.000000D+00  0.000000D+00  0.000000D+00
      2   0.000000D+00  0.000000D+00  0.000000D+00  0.000000D+00  0.000000D+00
      3   0.000000D+00  0.000000D+00  0.000000D+00  0.000000D+00  0.000000D+00
                 6             7             8             9            10 
      1   0.000000D+00  0.000000D+00  0.000000D+00  0.000000D+00  0.000000D+00
      2   0.000000D+00  0.000000D+00  0.000000D+00  0.000000D+00  0.000000D+00
      3   0.000000D+00  0.000000D+00  0.000000D+00  0.000000D+00  0.000000D+00
                11            12 
      1   0.000000D+00  0.000000D+00
      2   0.000000D+00  0.000000D+00
      3   0.000000D+00  0.000000D+00
 FCInt: Cartesian force constants: 
                1             2             3             4             5 
      1  0.687858D+00
      2 -0.900728D-01  0.268371D+00
      3 -0.428501D-02 -0.629648D-01  0.879927D+00
      4 -0.111421D+00  0.344052D-02 -0.615781D-03  0.594117D+00
      5  0.339536D-02 -0.772856D-01  0.950676D-03 -0.436524D-01  0.874310D-01
      6 -0.323060D-01  0.272525D-02 -0.534356D+00 -0.130735D+00  0.110284D-01
      7 -0.318075D+00  0.198322D-02  0.931270D-01  0.125536D-01  0.374412D-03
      8 -0.292170D-02 -0.669357D-01  0.641455D-02  0.274261D-03 -0.170529D-02
      9  0.999143D-01  0.446110D-02 -0.153011D+00  0.282383D-01  0.842208D-03
     10 -0.253781D+00  0.846633D-01 -0.901522D-01  0.133398D-01  0.918218D-03
     11  0.906655D-01 -0.114172D+00  0.525585D-01 -0.295645D-02  0.179037D-01
     12 -0.979260D-01  0.533768D-01 -0.170561D+00 -0.239485D-01  0.125186D-01
     13  0.116752D-01 -0.428415D-03  0.000000D+00 -0.509644D+00  0.404854D-01
     14 -0.556726D-03  0.664362D-02  0.000000D+00  0.415011D-01 -0.332169D-01
     15  0.323060D-01 -0.272525D-02  0.000000D+00  0.130735D+00 -0.110284D-01
     16 -0.176233D-01 -0.319930D-04  0.368660D-02  0.118194D-02 -0.155369D-02
     17 -0.149587D-02 -0.167864D-01  0.396657D-02  0.134320D-02  0.688588D-02
     18  0.355467D-02  0.510307D-02 -0.226605D-01 -0.363626D-02 -0.143212D-01
     19  0.222351D-02  0.106783D-02 -0.361935D-02  0.297362D-03 -0.764299D-04
     20  0.591131D-02  0.375610D-02 -0.116473D-01 -0.128013D-03  0.329026D-04
     21  0.178905D-02  0.984368D-03 -0.318854D-02  0.113886D-03 -0.292716D-04
     22 -0.195788D-02  0.341457D-03  0.357160D-03 -0.406160D-04  0.104394D-04
     23 -0.112966D-01  0.198940D-02  0.201825D-02  0.200019D-03 -0.514101D-04
     24 -0.516225D-02  0.886499D-03  0.972180D-03 -0.418559D-03  0.107581D-03
     25  0.109023D-02 -0.958388D-03  0.149729D-02 -0.383909D-03  0.986748D-04
     26  0.637495D-02 -0.558125D-02  0.870484D-02 -0.221918D-04  0.570388D-05
     27  0.211078D-02 -0.184517D-02  0.287601D-02  0.266852D-03 -0.685881D-04
     28 -0.199919D-03  0.860639D-04 -0.765662D-04  0.000000D+00  0.000000D+00
     29  0.735982D-03 -0.316836D-03  0.281871D-03  0.000000D+00  0.000000D+00
     30  0.121398D-04 -0.522613D-05  0.464939D-05  0.000000D+00  0.000000D+00
     31  0.676504D-03 -0.291231D-03  0.259092D-03  0.000000D+00  0.000000D+00
     32 -0.203375D-03  0.875518D-04 -0.778899D-04  0.000000D+00  0.000000D+00
     33  0.271083D-03 -0.116699D-03  0.103821D-03  0.000000D+00  0.000000D+00
     34 -0.465432D-03  0.200366D-03 -0.178254D-03  0.000000D+00  0.000000D+00
     35 -0.536046D-03  0.230764D-03 -0.205298D-03  0.000000D+00  0.000000D+00
     36 -0.278765D-03  0.120007D-03 -0.106763D-03  0.000000D+00  0.000000D+00
                6             7             8             9            10 
      6  0.642406D+00
      7  0.000000D+00  0.315767D+00
      8  0.000000D+00  0.341588D-03  0.512159D-01
      9  0.000000D+00 -0.105105D+00  0.768373D-03  0.126068D+00
     10  0.000000D+00 -0.808061D-02  0.121875D-01 -0.181767D-01  0.246727D+00
     11  0.000000D+00 -0.278106D-02  0.985127D-02 -0.625577D-02 -0.934969D-01
     12  0.000000D+00  0.109298D-01 -0.120590D-01  0.245856D-01  0.107151D+00
     13  0.163041D+00  0.000000D+00  0.597990D-03  0.000000D+00 -0.270616D-03
     14 -0.137537D-01  0.000000D+00  0.708877D-02  0.000000D+00 -0.320797D-02
     15 -0.108050D+00  0.000000D+00  0.000000D+00  0.000000D+00  0.000000D+00
     16  0.000000D+00 -0.222013D-02 -0.104099D-01 -0.499399D-02  0.197722D-02
     17  0.000000D+00  0.103258D-03  0.457707D-03  0.232270D-03 -0.102971D-02
     18  0.000000D+00  0.103188D-02  0.489677D-02  0.232112D-02  0.115141D-02
     19  0.000000D+00 -0.127849D-03  0.163118D-03 -0.287586D-03 -0.206089D-03
     20  0.000000D+00  0.550381D-04 -0.702212D-04  0.123804D-03  0.887199D-04
     21  0.000000D+00 -0.489644D-04  0.624719D-04 -0.110141D-03 -0.789291D-04
     22  0.000000D+00  0.174626D-04 -0.222799D-04  0.392806D-04  0.281492D-04
     23  0.000000D+00 -0.859968D-04  0.109720D-03 -0.193443D-03 -0.138624D-03
     24  0.000000D+00  0.179957D-03 -0.229600D-03  0.404797D-03  0.290085D-03
     25  0.000000D+00  0.165059D-03 -0.210593D-03  0.371287D-03  0.266071D-03
     26  0.000000D+00  0.954123D-05 -0.121733D-04  0.214622D-04  0.153802D-04
     27  0.000000D+00 -0.114731D-03  0.146382D-03 -0.258079D-03 -0.184944D-03
     28  0.000000D+00  0.000000D+00  0.000000D+00  0.000000D+00  0.000000D+00
     29  0.000000D+00  0.000000D+00  0.000000D+00  0.000000D+00  0.000000D+00
     30  0.000000D+00  0.000000D+00  0.000000D+00  0.000000D+00  0.000000D+00
     31  0.000000D+00  0.000000D+00  0.000000D+00  0.000000D+00  0.000000D+00
     32  0.000000D+00  0.000000D+00  0.000000D+00  0.000000D+00  0.000000D+00
     33  0.000000D+00  0.000000D+00  0.000000D+00  0.000000D+00  0.000000D+00
     34  0.000000D+00  0.000000D+00  0.000000D+00  0.000000D+00  0.000000D+00
     35  0.000000D+00  0.000000D+00  0.000000D+00  0.000000D+00  0.000000D+00
     36  0.000000D+00  0.000000D+00  0.000000D+00  0.000000D+00  0.000000D+00
               11            12            13            14            15 
     11  0.978965D-01
     12 -0.517841D-01  0.143597D+00
     13 -0.560973D-03  0.000000D+00  0.498045D+00
     14 -0.664996D-02  0.000000D+00 -0.400440D-01  0.267276D-01
     15  0.000000D+00  0.000000D+00 -0.163041D+00  0.137537D-01  0.108050D+00
     16  0.909876D-02  0.391205D-02  0.194664D-03  0.230762D-02  0.000000D+00
     17 -0.481712D-02 -0.209884D-02 -0.500338D-04 -0.593118D-03  0.000000D+00
     18  0.547210D-02  0.241392D-02  0.000000D+00  0.000000D+00  0.000000D+00
     19 -0.726699D-04  0.277391D-03  0.000000D+00  0.000000D+00  0.000000D+00
     20  0.312839D-04 -0.119415D-03  0.000000D+00  0.000000D+00  0.000000D+00
     21 -0.278315D-04  0.106237D-03  0.000000D+00  0.000000D+00  0.000000D+00
     22  0.992579D-05 -0.378882D-04  0.000000D+00  0.000000D+00  0.000000D+00
     23 -0.488809D-04  0.186586D-03  0.000000D+00  0.000000D+00  0.000000D+00
     24  0.102288D-03 -0.390449D-03  0.000000D+00  0.000000D+00  0.000000D+00
     25  0.938204D-04 -0.358126D-03  0.000000D+00  0.000000D+00  0.000000D+00
     26  0.542327D-05 -0.207014D-04  0.000000D+00  0.000000D+00  0.000000D+00
     27 -0.652138D-04  0.248931D-03  0.000000D+00  0.000000D+00  0.000000D+00
     28  0.000000D+00  0.000000D+00  0.000000D+00  0.000000D+00  0.000000D+00
     29  0.000000D+00  0.000000D+00  0.000000D+00  0.000000D+00  0.000000D+00
     30  0.000000D+00  0.000000D+00  0.000000D+00  0.000000D+00  0.000000D+00
     31  0.000000D+00  0.000000D+00  0.000000D+00  0.000000D+00  0.000000D+00
     32  0.000000D+00  0.000000D+00  0.000000D+00  0.000000D+00  0.000000D+00
     33  0.000000D+00  0.000000D+00  0.000000D+00  0.000000D+00  0.000000D+00
     34  0.000000D+00  0.000000D+00  0.000000D+00  0.000000D+00  0.000000D+00
     35  0.000000D+00  0.000000D+00  0.000000D+00  0.000000D+00  0.000000D+00
     36  0.000000D+00  0.000000D+00  0.000000D+00  0.000000D+00  0.000000D+00
               16            17            18            19            20 
     16  0.690025D+00
     17 -0.649761D-01  0.308117D+00
     18 -0.303785D-01 -0.104014D+00  0.694780D+00
     19 -0.161035D+00 -0.131880D-01  0.826695D-01  0.682658D+00
     20 -0.164061D-01 -0.118879D+00  0.338278D-01  0.386346D-03  0.657494D+00
     21  0.784702D-01  0.252721D-01 -0.302293D+00 -0.668749D-02 -0.728390D-02
     22 -0.348707D+00  0.289545D-01  0.353626D-01  0.334229D-02  0.805444D-03
     23  0.332770D-01 -0.835915D-01 -0.107510D-02 -0.346231D-02  0.115723D-01
     24  0.489808D-01 -0.167835D-02 -0.119144D+00  0.251233D-01 -0.284200D-02
     25 -0.180296D+00  0.512141D-01 -0.969255D-01  0.201845D-01 -0.496941D-02
     26  0.497199D-01 -0.109883D+00  0.679575D-01  0.776839D-03  0.105580D-01
     27 -0.106734D+00  0.765367D-01 -0.258778D+00 -0.142073D-01  0.838306D-02
     28 -0.823520D-03 -0.107180D-02 -0.510072D-03 -0.328935D+00 -0.671346D-01
     29 -0.187653D-02  0.264559D-02 -0.467855D-03 -0.667566D-01 -0.992208D-01
     30  0.243864D-01  0.651146D-02  0.116612D-01 -0.146348D-02  0.514972D-03
     31  0.410674D-02  0.114120D-01  0.337173D-02 -0.790355D-01 -0.254438D-02
     32  0.208493D-02  0.124566D-01  0.262119D-02 -0.699660D-02 -0.257135D+00
     33 -0.355052D-02 -0.202960D-01 -0.433859D-02 -0.715967D-02 -0.126813D+00
     34  0.132191D-01 -0.112156D-01  0.430867D-02 -0.139366D+00  0.839357D-01
     35 -0.123381D-02  0.398744D-02  0.000000D+00  0.881585D-01 -0.208139D+00
     36 -0.137795D-01  0.155676D-01 -0.396220D-02 -0.746453D-01  0.105856D+00
               21            22            23            24            25 
     21  0.692452D+00
     22  0.158637D-02  0.350263D+00
     23  0.500250D-04 -0.311902D-01  0.599024D-01
     24  0.107102D-01 -0.399353D-01  0.352050D-02  0.864146D-01
     25  0.823810D-02 -0.295138D-02  0.126541D-01 -0.290664D-01  0.161936D+00
     26  0.178421D-02  0.109248D-02  0.101312D-01  0.135667D-03 -0.579258D-01
     27 -0.513179D-02  0.262552D-02 -0.452385D-02  0.210291D-01  0.116248D+00
     28 -0.139563D-01 -0.103031D-03 -0.764352D-03 -0.149838D-03  0.201118D-03
     29 -0.281545D-02  0.379297D-03  0.281388D-02  0.551614D-03 -0.740395D-03
     30 -0.775328D-01  0.625641D-05  0.464143D-04  0.909873D-05 -0.122126D-04
     31 -0.379969D-02  0.348644D-03  0.258648D-02  0.507036D-03 -0.680561D-03
     32 -0.115602D+00 -0.104812D-03 -0.777566D-03 -0.152428D-03  0.204595D-03
     33 -0.157043D+00  0.139706D-03  0.103643D-02  0.203175D-03 -0.272708D-03
     34 -0.656263D-01 -0.239866D-03 -0.177949D-02 -0.348838D-03  0.468223D-03
     35  0.976051D-01 -0.276258D-03 -0.204947D-02 -0.401763D-03  0.539260D-03
     36 -0.157969D+00 -0.143665D-03 -0.106581D-02 -0.208933D-03  0.280437D-03
               26            27            28            29            30 
     26  0.947632D-01
     27 -0.785666D-01  0.240018D+00
     28  0.735641D-03  0.189249D-03  0.326871D+00
     29 -0.270819D-02 -0.696700D-03  0.717241D-01  0.814296D-01
     30 -0.446709D-04 -0.114919D-04  0.146388D-01  0.364667D-02  0.609109D-01
     31 -0.248933D-02 -0.640397D-03  0.921523D-02 -0.299591D-01 -0.202230D-01
     32  0.748359D-03  0.192520D-03  0.174119D-03 -0.526676D-03 -0.577419D-03
     33 -0.997502D-03 -0.256614D-03 -0.916400D-03  0.291760D-02  0.231679D-02
     34  0.171265D-02  0.440590D-03 -0.622560D-02  0.264933D-01 -0.173449D-01
     35  0.197248D-02  0.507435D-03 -0.374914D-02  0.158834D-01 -0.100922D-01
     36  0.102577D-02  0.263887D-03  0.781068D-03 -0.341775D-02  0.264158D-02
               31            32            33            34            35 
     31  0.614955D-01
     32  0.808401D-02  0.257138D+00
     33  0.668301D-02  0.126422D+00  0.139904D+00
     34  0.387352D-02 -0.324286D-02  0.480550D-02  0.128736D+00
     35  0.132016D-01 -0.119910D-01  0.178475D-01 -0.961041D-01  0.200105D+00
     36  0.138422D-01 -0.128262D-01  0.191101D-01  0.739435D-01 -0.105260D+00
               36 
     36  0.140231D+00
 Internal force constants: 
                1             2             3             4             5 
      1  0.534356D+00
      2  0.000000D+00  0.362492D+00
      3  0.000000D+00  0.000000D+00  0.357897D+00
      4  0.000000D+00  0.000000D+00  0.000000D+00  0.560582D+00
      5  0.000000D+00  0.000000D+00  0.000000D+00  0.000000D+00  0.141921D-01
      6  0.000000D+00  0.000000D+00  0.000000D+00  0.000000D+00  0.000000D+00
      7  0.000000D+00  0.000000D+00  0.000000D+00  0.000000D+00  0.000000D+00
      8  0.000000D+00  0.000000D+00  0.000000D+00  0.000000D+00  0.000000D+00
      9  0.000000D+00  0.000000D+00  0.000000D+00  0.000000D+00  0.000000D+00
     10  0.000000D+00  0.000000D+00  0.000000D+00  0.000000D+00  0.000000D+00
     11  0.000000D+00  0.000000D+00  0.000000D+00  0.000000D+00  0.000000D+00
     12  0.000000D+00  0.000000D+00  0.000000D+00  0.000000D+00  0.000000D+00
     13  0.000000D+00  0.000000D+00  0.000000D+00  0.000000D+00  0.000000D+00
     14  0.000000D+00  0.000000D+00  0.000000D+00  0.000000D+00  0.000000D+00
     15  0.000000D+00  0.000000D+00  0.000000D+00  0.000000D+00  0.000000D+00
     16  0.000000D+00  0.000000D+00  0.000000D+00  0.000000D+00  0.000000D+00
     17  0.000000D+00  0.000000D+00  0.000000D+00  0.000000D+00  0.000000D+00
     18  0.000000D+00  0.000000D+00  0.000000D+00  0.000000D+00  0.000000D+00
     19  0.000000D+00  0.000000D+00  0.000000D+00  0.000000D+00  0.000000D+00
     20  0.000000D+00  0.000000D+00  0.000000D+00  0.000000D+00  0.000000D+00
     21  0.000000D+00  0.000000D+00  0.000000D+00  0.000000D+00  0.000000D+00
     22  0.000000D+00  0.000000D+00  0.000000D+00  0.000000D+00  0.000000D+00
     23  0.000000D+00  0.000000D+00  0.000000D+00  0.000000D+00  0.000000D+00
     24  0.000000D+00  0.000000D+00  0.000000D+00  0.000000D+00  0.000000D+00
     25  0.000000D+00  0.000000D+00  0.000000D+00  0.000000D+00  0.000000D+00
     26  0.000000D+00  0.000000D+00  0.000000D+00  0.000000D+00  0.000000D+00
     27  0.000000D+00  0.000000D+00  0.000000D+00  0.000000D+00  0.000000D+00
     28  0.000000D+00  0.000000D+00  0.000000D+00  0.000000D+00  0.000000D+00
     29  0.000000D+00  0.000000D+00  0.000000D+00  0.000000D+00  0.000000D+00
     30  0.000000D+00  0.000000D+00  0.000000D+00  0.000000D+00  0.000000D+00
                6             7             8             9            10 
      6  0.343530D+00
      7  0.000000D+00  0.359460D+00
      8  0.000000D+00  0.000000D+00  0.359581D+00
      9  0.000000D+00  0.000000D+00  0.000000D+00  0.347088D+00
     10  0.000000D+00  0.000000D+00  0.000000D+00  0.000000D+00  0.338263D+00
     11  0.000000D+00  0.000000D+00  0.000000D+00  0.000000D+00  0.000000D+00
     12  0.000000D+00  0.000000D+00  0.000000D+00  0.000000D+00  0.000000D+00
     13  0.000000D+00  0.000000D+00  0.000000D+00  0.000000D+00  0.000000D+00
     14  0.000000D+00  0.000000D+00  0.000000D+00  0.000000D+00  0.000000D+00
     15  0.000000D+00  0.000000D+00  0.000000D+00  0.000000D+00  0.000000D+00
     16  0.000000D+00  0.000000D+00  0.000000D+00  0.000000D+00  0.000000D+00
     17  0.000000D+00  0.000000D+00  0.000000D+00  0.000000D+00  0.000000D+00
     18  0.000000D+00  0.000000D+00  0.000000D+00  0.000000D+00  0.000000D+00
     19  0.000000D+00  0.000000D+00  0.000000D+00  0.000000D+00  0.000000D+00
     20  0.000000D+00  0.000000D+00  0.000000D+00  0.000000D+00  0.000000D+00
     21  0.000000D+00  0.000000D+00  0.000000D+00  0.000000D+00  0.000000D+00
     22  0.000000D+00  0.000000D+00  0.000000D+00  0.000000D+00  0.000000D+00
     23  0.000000D+00  0.000000D+00  0.000000D+00  0.000000D+00  0.000000D+00
     24  0.000000D+00  0.000000D+00  0.000000D+00  0.000000D+00  0.000000D+00
     25  0.000000D+00  0.000000D+00  0.000000D+00  0.000000D+00  0.000000D+00
     26  0.000000D+00  0.000000D+00  0.000000D+00  0.000000D+00  0.000000D+00
     27  0.000000D+00  0.000000D+00  0.000000D+00  0.000000D+00  0.000000D+00
     28  0.000000D+00  0.000000D+00  0.000000D+00  0.000000D+00  0.000000D+00
     29  0.000000D+00  0.000000D+00  0.000000D+00  0.000000D+00  0.000000D+00
     30  0.000000D+00  0.000000D+00  0.000000D+00  0.000000D+00  0.000000D+00
               11            12            13            14            15 
     11  0.346973D+00
     12  0.000000D+00  0.329200D+00
     13  0.000000D+00  0.128143D+00  0.323858D+00
     14  0.000000D+00  0.000000D+00  0.000000D+00  0.160000D+00
     15  0.000000D+00  0.348897D-01  0.365390D-01  0.000000D+00  0.327565D+00
     16  0.000000D+00 -0.348325D-03  0.352409D-03  0.000000D+00 -0.209403D-04
     17  0.000000D+00 -0.199226D-02  0.201561D-02  0.000000D+00  0.000000D+00
     18  0.000000D+00  0.204588D-02 -0.206987D-02  0.000000D+00  0.207933D-03
     19  0.000000D+00  0.000000D+00  0.000000D+00  0.000000D+00  0.118897D-04
     20  0.000000D+00  0.000000D+00  0.000000D+00  0.000000D+00  0.296271D-04
     21  0.000000D+00  0.000000D+00  0.000000D+00  0.000000D+00  0.124352D-04
     22  0.000000D+00  0.539061D-01  0.352852D-03  0.000000D+00 -0.643760D-01
     23  0.000000D+00  0.000000D+00  0.000000D+00  0.000000D+00  0.000000D+00
     24  0.000000D+00 -0.567847D-01  0.521453D-01  0.000000D+00  0.444825D-02
     25  0.000000D+00  0.613232D-02 -0.620422D-02  0.000000D+00  0.494861D-03
     26  0.000000D+00 -0.620197D-03  0.627468D-03  0.000000D+00  0.978207D-05
     27  0.000000D+00 -0.206840D-03  0.209265D-03  0.000000D+00 -0.109417D-02
     28  0.000000D+00  0.000000D+00  0.000000D+00  0.000000D+00  0.000000D+00
     29  0.000000D+00  0.000000D+00  0.000000D+00  0.000000D+00  0.000000D+00
     30  0.000000D+00  0.000000D+00  0.000000D+00  0.000000D+00  0.330934D-04
               16            17            18            19            20 
     16  0.336414D+00
     17  0.206705D-01  0.333093D+00
     18  0.881771D-02  0.157386D+00  0.326765D+00
     19 -0.109812D-04  0.000000D+00  0.000000D+00  0.255524D+00
     20 -0.315739D-04  0.000000D+00  0.000000D+00  0.462829D-01  0.252322D+00
     21 -0.149514D-04  0.000000D+00  0.000000D+00  0.497636D-01  0.462544D-01
     22  0.150499D-03  0.860785D-03 -0.883955D-03  0.000000D+00  0.000000D+00
     23  0.000000D+00  0.000000D+00  0.000000D+00  0.000000D+00  0.000000D+00
     24 -0.299932D-03 -0.168551D-02  0.165507D-02 -0.711456D-05 -0.113319D-04
     25 -0.117065D-02 -0.671758D-02  0.692801D-02 -0.183421D-04 -0.329428D-05
     26 -0.239126D-02 -0.298591D-01  0.151923D-01 -0.150930D-05  0.000000D+00
     27  0.699070D-01 -0.160147D-01 -0.822255D-03  0.000000D+00  0.000000D+00
     28  0.000000D+00  0.000000D+00  0.000000D+00  0.150930D-05  0.000000D+00
     29  0.719734D-05  0.000000D+00  0.000000D+00 -0.664009D-01 -0.109950D-04
     30 -0.383262D-04  0.000000D+00  0.000000D+00  0.677283D-01 -0.665491D-01
               21            22            23            24            25 
     21  0.255494D+00
     22  0.000000D+00  0.168669D+00
     23  0.000000D+00  0.225265D-01  0.675795D-01
     24 -0.216454D-05 -0.100142D+00  0.225265D-01  0.229999D+00
     25  0.157570D-04 -0.264956D-02  0.000000D+00  0.554643D-02  0.207028D-01
     26  0.150982D-05  0.267966D-03  0.000000D+00 -0.460838D-03 -0.209776D-02
     27  0.000000D+00  0.893684D-04  0.000000D+00  0.271071D-03 -0.567554D-03
     28 -0.150982D-05  0.000000D+00  0.000000D+00  0.000000D+00  0.000000D+00
     29  0.663891D-01  0.000000D+00  0.000000D+00 -0.898802D-05 -0.618945D-04
     30  0.133707D-02  0.000000D+00  0.000000D+00 -0.801259D-05  0.271222D-04
               26            27            28            29            30 
     26  0.258113D+00
     27  0.116290D+00  0.180235D+00
     28 -0.301613D-01  0.301613D-01  0.904838D-01
     29 -0.100592D-01  0.100538D-01  0.301668D-01  0.229932D+00
     30 -0.100510D-01  0.100538D-01  0.301585D-01 -0.998930D-01  0.227220D+00
 Frcnst in PutFF: 
                1             2             3             4             5 
      1  0.258113D+00
      2 -0.209776D-02  0.207028D-01
      3 -0.239126D-02 -0.117065D-02  0.336414D+00
      4 -0.460838D-03  0.554643D-02 -0.299932D-03  0.229999D+00
      5  0.978207D-05  0.494861D-03 -0.209403D-04  0.444825D-02  0.327565D+00
      6  0.627468D-03 -0.620422D-02  0.352409D-03  0.521453D-01  0.365390D-01
      7  0.000000D+00  0.000000D+00  0.000000D+00  0.000000D+00  0.000000D+00
      8  0.267966D-03 -0.264956D-02  0.150499D-03 -0.100142D+00 -0.643760D-01
      9  0.000000D+00  0.000000D+00  0.000000D+00  0.225265D-01  0.000000D+00
     10  0.000000D+00  0.000000D+00  0.000000D+00  0.000000D+00  0.000000D+00
     11  0.000000D+00  0.000000D+00  0.000000D+00  0.000000D+00  0.000000D+00
     12  0.000000D+00  0.000000D+00  0.000000D+00  0.000000D+00  0.000000D+00
     13  0.000000D+00  0.000000D+00  0.000000D+00  0.000000D+00  0.000000D+00
     14  0.000000D+00  0.000000D+00  0.000000D+00  0.000000D+00  0.000000D+00
     15  0.000000D+00  0.000000D+00  0.000000D+00  0.000000D+00  0.000000D+00
     16 -0.298591D-01 -0.671758D-02  0.206705D-01 -0.168551D-02  0.000000D+00
     17  0.151923D-01  0.692801D-02  0.881771D-02  0.165507D-02  0.207933D-03
     18 -0.150930D-05 -0.183421D-04 -0.109812D-04 -0.711456D-05  0.118897D-04
     19  0.000000D+00 -0.329428D-05 -0.315739D-04 -0.113319D-04  0.296271D-04
     20  0.150982D-05  0.157570D-04 -0.149514D-04 -0.216454D-05  0.124352D-04
     21  0.116290D+00 -0.567554D-03  0.699070D-01  0.271071D-03 -0.109417D-02
     22 -0.100592D-01 -0.618945D-04  0.719734D-05 -0.898802D-05  0.000000D+00
     23 -0.100510D-01  0.271222D-04 -0.383262D-04 -0.801259D-05  0.330934D-04
     24 -0.301613D-01  0.000000D+00  0.000000D+00  0.000000D+00  0.000000D+00
     25 -0.620197D-03  0.613232D-02 -0.348325D-03 -0.567847D-01  0.348897D-01
     26  0.000000D+00  0.000000D+00  0.000000D+00  0.000000D+00  0.000000D+00
     27  0.000000D+00  0.000000D+00  0.000000D+00  0.000000D+00  0.000000D+00
     28  0.000000D+00  0.000000D+00  0.000000D+00  0.000000D+00  0.000000D+00
     29  0.000000D+00  0.000000D+00  0.000000D+00  0.000000D+00  0.000000D+00
     30  0.000000D+00  0.000000D+00  0.000000D+00  0.000000D+00  0.000000D+00
                6             7             8             9            10 
      6  0.323858D+00
      7  0.000000D+00  0.160000D+00
      8  0.352852D-03  0.000000D+00  0.168669D+00
      9  0.000000D+00  0.000000D+00  0.225265D-01  0.675795D-01
     10  0.000000D+00  0.000000D+00  0.000000D+00  0.000000D+00  0.343530D+00
     11  0.000000D+00  0.000000D+00  0.000000D+00  0.000000D+00  0.000000D+00
     12  0.000000D+00  0.000000D+00  0.000000D+00  0.000000D+00  0.000000D+00
     13  0.000000D+00  0.000000D+00  0.000000D+00  0.000000D+00  0.000000D+00
     14  0.000000D+00  0.000000D+00  0.000000D+00  0.000000D+00  0.000000D+00
     15  0.000000D+00  0.000000D+00  0.000000D+00  0.000000D+00  0.000000D+00
     16  0.201561D-02  0.000000D+00  0.860785D-03  0.000000D+00  0.000000D+00
     17 -0.206987D-02  0.000000D+00 -0.883955D-03  0.000000D+00  0.000000D+00
     18  0.000000D+00  0.000000D+00  0.000000D+00  0.000000D+00  0.000000D+00
     19  0.000000D+00  0.000000D+00  0.000000D+00  0.000000D+00  0.000000D+00
     20  0.000000D+00  0.000000D+00  0.000000D+00  0.000000D+00  0.000000D+00
     21  0.209265D-03  0.000000D+00  0.893684D-04  0.000000D+00  0.000000D+00
     22  0.000000D+00  0.000000D+00  0.000000D+00  0.000000D+00  0.000000D+00
     23  0.000000D+00  0.000000D+00  0.000000D+00  0.000000D+00  0.000000D+00
     24  0.000000D+00  0.000000D+00  0.000000D+00  0.000000D+00  0.000000D+00
     25  0.128143D+00  0.000000D+00  0.539061D-01  0.000000D+00  0.000000D+00
     26  0.000000D+00  0.000000D+00  0.000000D+00  0.000000D+00  0.000000D+00
     27  0.000000D+00  0.000000D+00  0.000000D+00  0.000000D+00  0.000000D+00
     28  0.000000D+00  0.000000D+00  0.000000D+00  0.000000D+00  0.000000D+00
     29  0.000000D+00  0.000000D+00  0.000000D+00  0.000000D+00  0.000000D+00
     30  0.000000D+00  0.000000D+00  0.000000D+00  0.000000D+00  0.000000D+00
               11            12            13            14            15 
     11  0.359460D+00
     12  0.000000D+00  0.359581D+00
     13  0.000000D+00  0.000000D+00  0.347088D+00
     14  0.000000D+00  0.000000D+00  0.000000D+00  0.338263D+00
     15  0.000000D+00  0.000000D+00  0.000000D+00  0.000000D+00  0.346973D+00
     16  0.000000D+00  0.000000D+00  0.000000D+00  0.000000D+00  0.000000D+00
     17  0.000000D+00  0.000000D+00  0.000000D+00  0.000000D+00  0.000000D+00
     18  0.000000D+00  0.000000D+00  0.000000D+00  0.000000D+00  0.000000D+00
     19  0.000000D+00  0.000000D+00  0.000000D+00  0.000000D+00  0.000000D+00
     20  0.000000D+00  0.000000D+00  0.000000D+00  0.000000D+00  0.000000D+00
     21  0.000000D+00  0.000000D+00  0.000000D+00  0.000000D+00  0.000000D+00
     22  0.000000D+00  0.000000D+00  0.000000D+00  0.000000D+00  0.000000D+00
     23  0.000000D+00  0.000000D+00  0.000000D+00  0.000000D+00  0.000000D+00
     24  0.000000D+00  0.000000D+00  0.000000D+00  0.000000D+00  0.000000D+00
     25  0.000000D+00  0.000000D+00  0.000000D+00  0.000000D+00  0.000000D+00
     26  0.000000D+00  0.000000D+00  0.000000D+00  0.000000D+00  0.000000D+00
     27  0.000000D+00  0.000000D+00  0.000000D+00  0.000000D+00  0.000000D+00
     28  0.000000D+00  0.000000D+00  0.000000D+00  0.000000D+00  0.000000D+00
     29  0.000000D+00  0.000000D+00  0.000000D+00  0.000000D+00  0.000000D+00
     30  0.000000D+00  0.000000D+00  0.000000D+00  0.000000D+00  0.000000D+00
               16            17            18            19            20 
     16  0.333093D+00
     17  0.157386D+00  0.326765D+00
     18  0.000000D+00  0.000000D+00  0.255524D+00
     19  0.000000D+00  0.000000D+00  0.462829D-01  0.252322D+00
     20  0.000000D+00  0.000000D+00  0.497636D-01  0.462544D-01  0.255494D+00
     21 -0.160147D-01 -0.822255D-03  0.000000D+00  0.000000D+00  0.000000D+00
     22  0.000000D+00  0.000000D+00 -0.664009D-01 -0.109950D-04  0.663891D-01
     23  0.000000D+00  0.000000D+00  0.677283D-01 -0.665491D-01  0.133707D-02
     24  0.000000D+00  0.000000D+00  0.150930D-05  0.000000D+00 -0.150982D-05
     25 -0.199226D-02  0.204588D-02  0.000000D+00  0.000000D+00  0.000000D+00
     26  0.000000D+00  0.000000D+00  0.000000D+00  0.000000D+00  0.000000D+00
     27  0.000000D+00  0.000000D+00  0.000000D+00  0.000000D+00  0.000000D+00
     28  0.000000D+00  0.000000D+00  0.000000D+00  0.000000D+00  0.000000D+00
     29  0.000000D+00  0.000000D+00  0.000000D+00  0.000000D+00  0.000000D+00
     30  0.000000D+00  0.000000D+00  0.000000D+00  0.000000D+00  0.000000D+00
               21            22            23            24            25 
     21  0.180235D+00
     22  0.100538D-01  0.229932D+00
     23  0.100538D-01 -0.998930D-01  0.227220D+00
     24  0.301613D-01  0.301668D-01  0.301585D-01  0.904838D-01
     25 -0.206840D-03  0.000000D+00  0.000000D+00  0.000000D+00  0.329200D+00
     26  0.000000D+00  0.000000D+00  0.000000D+00  0.000000D+00  0.000000D+00
     27  0.000000D+00  0.000000D+00  0.000000D+00  0.000000D+00  0.000000D+00
     28  0.000000D+00  0.000000D+00  0.000000D+00  0.000000D+00  0.000000D+00
     29  0.000000D+00  0.000000D+00  0.000000D+00  0.000000D+00  0.000000D+00
     30  0.000000D+00  0.000000D+00  0.000000D+00  0.000000D+00  0.000000D+00
               26            27            28            29            30 
     26  0.560582D+00
     27  0.000000D+00  0.357897D+00
     28  0.000000D+00  0.000000D+00  0.362492D+00
     29  0.000000D+00  0.000000D+00  0.000000D+00  0.534356D+00
     30  0.000000D+00  0.000000D+00  0.000000D+00  0.000000D+00  0.141921D-01
 Force constants in internal coordinates: 
                1             2             3             4             5 
      1  0.534356D+00
      2  0.000000D+00  0.362492D+00
      3  0.000000D+00  0.000000D+00  0.357897D+00
      4  0.000000D+00  0.000000D+00  0.000000D+00  0.560582D+00
      5  0.000000D+00  0.000000D+00  0.000000D+00  0.000000D+00  0.141921D-01
      6  0.000000D+00  0.000000D+00  0.000000D+00  0.000000D+00  0.000000D+00
      7  0.000000D+00  0.000000D+00  0.000000D+00  0.000000D+00  0.000000D+00
      8  0.000000D+00  0.000000D+00  0.000000D+00  0.000000D+00  0.000000D+00
      9  0.000000D+00  0.000000D+00  0.000000D+00  0.000000D+00  0.000000D+00
     10  0.000000D+00  0.000000D+00  0.000000D+00  0.000000D+00  0.000000D+00
     11  0.000000D+00  0.000000D+00  0.000000D+00  0.000000D+00  0.000000D+00
     12  0.000000D+00  0.000000D+00  0.000000D+00  0.000000D+00  0.000000D+00
     13  0.000000D+00  0.000000D+00  0.000000D+00  0.000000D+00  0.000000D+00
     14  0.000000D+00  0.000000D+00  0.000000D+00  0.000000D+00  0.000000D+00
     15  0.000000D+00  0.000000D+00  0.000000D+00  0.000000D+00  0.000000D+00
     16  0.000000D+00  0.000000D+00  0.000000D+00  0.000000D+00  0.000000D+00
     17  0.000000D+00  0.000000D+00  0.000000D+00  0.000000D+00  0.000000D+00
     18  0.000000D+00  0.000000D+00  0.000000D+00  0.000000D+00  0.000000D+00
     19  0.000000D+00  0.000000D+00  0.000000D+00  0.000000D+00  0.000000D+00
     20  0.000000D+00  0.000000D+00  0.000000D+00  0.000000D+00  0.000000D+00
     21  0.000000D+00  0.000000D+00  0.000000D+00  0.000000D+00  0.000000D+00
     22  0.000000D+00  0.000000D+00  0.000000D+00  0.000000D+00  0.000000D+00
     23  0.000000D+00  0.000000D+00  0.000000D+00  0.000000D+00  0.000000D+00
     24  0.000000D+00  0.000000D+00  0.000000D+00  0.000000D+00  0.000000D+00
     25  0.000000D+00  0.000000D+00  0.000000D+00  0.000000D+00  0.000000D+00
     26  0.000000D+00  0.000000D+00  0.000000D+00  0.000000D+00  0.000000D+00
     27  0.000000D+00  0.000000D+00  0.000000D+00  0.000000D+00  0.000000D+00
     28  0.000000D+00  0.000000D+00  0.000000D+00  0.000000D+00  0.000000D+00
     29  0.000000D+00  0.000000D+00  0.000000D+00  0.000000D+00  0.000000D+00
     30  0.000000D+00  0.000000D+00  0.000000D+00  0.000000D+00  0.000000D+00
                6             7             8             9            10 
      6  0.343530D+00
      7  0.000000D+00  0.359460D+00
      8  0.000000D+00  0.000000D+00  0.359581D+00
      9  0.000000D+00  0.000000D+00  0.000000D+00  0.347088D+00
     10  0.000000D+00  0.000000D+00  0.000000D+00  0.000000D+00  0.338263D+00
     11  0.000000D+00  0.000000D+00  0.000000D+00  0.000000D+00  0.000000D+00
     12  0.000000D+00  0.000000D+00  0.000000D+00  0.000000D+00  0.000000D+00
     13  0.000000D+00  0.000000D+00  0.000000D+00  0.000000D+00  0.000000D+00
     14  0.000000D+00  0.000000D+00  0.000000D+00  0.000000D+00  0.000000D+00
     15  0.000000D+00  0.000000D+00  0.000000D+00  0.000000D+00  0.000000D+00
     16  0.000000D+00  0.000000D+00  0.000000D+00  0.000000D+00  0.000000D+00
     17  0.000000D+00  0.000000D+00  0.000000D+00  0.000000D+00  0.000000D+00
     18  0.000000D+00  0.000000D+00  0.000000D+00  0.000000D+00  0.000000D+00
     19  0.000000D+00  0.000000D+00  0.000000D+00  0.000000D+00  0.000000D+00
     20  0.000000D+00  0.000000D+00  0.000000D+00  0.000000D+00  0.000000D+00
     21  0.000000D+00  0.000000D+00  0.000000D+00  0.000000D+00  0.000000D+00
     22  0.000000D+00  0.000000D+00  0.000000D+00  0.000000D+00  0.000000D+00
     23  0.000000D+00  0.000000D+00  0.000000D+00  0.000000D+00  0.000000D+00
     24  0.000000D+00  0.000000D+00  0.000000D+00  0.000000D+00  0.000000D+00
     25  0.000000D+00  0.000000D+00  0.000000D+00  0.000000D+00  0.000000D+00
     26  0.000000D+00  0.000000D+00  0.000000D+00  0.000000D+00  0.000000D+00
     27  0.000000D+00  0.000000D+00  0.000000D+00  0.000000D+00  0.000000D+00
     28  0.000000D+00  0.000000D+00  0.000000D+00  0.000000D+00  0.000000D+00
     29  0.000000D+00  0.000000D+00  0.000000D+00  0.000000D+00  0.000000D+00
     30  0.000000D+00  0.000000D+00  0.000000D+00  0.000000D+00  0.000000D+00
               11            12            13            14            15 
     11  0.346973D+00
     12  0.000000D+00  0.329200D+00
     13  0.000000D+00  0.128143D+00  0.323858D+00
     14  0.000000D+00  0.000000D+00  0.000000D+00  0.160000D+00
     15  0.000000D+00  0.348897D-01  0.365390D-01  0.000000D+00  0.327565D+00
     16  0.000000D+00 -0.348325D-03  0.352409D-03  0.000000D+00 -0.209403D-04
     17  0.000000D+00 -0.199226D-02  0.201561D-02  0.000000D+00  0.000000D+00
     18  0.000000D+00  0.204588D-02 -0.206987D-02  0.000000D+00  0.207933D-03
     19  0.000000D+00  0.000000D+00  0.000000D+00  0.000000D+00  0.118897D-04
     20  0.000000D+00  0.000000D+00  0.000000D+00  0.000000D+00  0.296271D-04
     21  0.000000D+00  0.000000D+00  0.000000D+00  0.000000D+00  0.124352D-04
     22  0.000000D+00  0.539061D-01  0.352852D-03  0.000000D+00 -0.643760D-01
     23  0.000000D+00  0.000000D+00  0.000000D+00  0.000000D+00  0.000000D+00
     24  0.000000D+00 -0.567847D-01  0.521453D-01  0.000000D+00  0.444825D-02
     25  0.000000D+00  0.613232D-02 -0.620422D-02  0.000000D+00  0.494861D-03
     26  0.000000D+00 -0.620197D-03  0.627468D-03  0.000000D+00  0.978207D-05
     27  0.000000D+00 -0.206840D-03  0.209265D-03  0.000000D+00 -0.109417D-02
     28  0.000000D+00  0.000000D+00  0.000000D+00  0.000000D+00  0.000000D+00
     29  0.000000D+00  0.000000D+00  0.000000D+00  0.000000D+00  0.000000D+00
     30  0.000000D+00  0.000000D+00  0.000000D+00  0.000000D+00  0.330934D-04
               16            17            18            19            20 
     16  0.336414D+00
     17  0.206705D-01  0.333093D+00
     18  0.881771D-02  0.157386D+00  0.326765D+00
     19 -0.109812D-04  0.000000D+00  0.000000D+00  0.255524D+00
     20 -0.315739D-04  0.000000D+00  0.000000D+00  0.462829D-01  0.252322D+00
     21 -0.149514D-04  0.000000D+00  0.000000D+00  0.497636D-01  0.462544D-01
     22  0.150499D-03  0.860785D-03 -0.883955D-03  0.000000D+00  0.000000D+00
     23  0.000000D+00  0.000000D+00  0.000000D+00  0.000000D+00  0.000000D+00
     24 -0.299932D-03 -0.168551D-02  0.165507D-02 -0.711456D-05 -0.113319D-04
     25 -0.117065D-02 -0.671758D-02  0.692801D-02 -0.183421D-04 -0.329428D-05
     26 -0.239126D-02 -0.298591D-01  0.151923D-01 -0.150930D-05  0.000000D+00
     27  0.699070D-01 -0.160147D-01 -0.822255D-03  0.000000D+00  0.000000D+00
     28  0.000000D+00  0.000000D+00  0.000000D+00  0.150930D-05  0.000000D+00
     29  0.719734D-05  0.000000D+00  0.000000D+00 -0.664009D-01 -0.109950D-04
     30 -0.383262D-04  0.000000D+00  0.000000D+00  0.677283D-01 -0.665491D-01
               21            22            23            24            25 
     21  0.255494D+00
     22  0.000000D+00  0.168669D+00
     23  0.000000D+00  0.225265D-01  0.675795D-01
     24 -0.216454D-05 -0.100142D+00  0.225265D-01  0.229999D+00
     25  0.157570D-04 -0.264956D-02  0.000000D+00  0.554643D-02  0.207028D-01
     26  0.150982D-05  0.267966D-03  0.000000D+00 -0.460838D-03 -0.209776D-02
     27  0.000000D+00  0.893684D-04  0.000000D+00  0.271071D-03 -0.567554D-03
     28 -0.150982D-05  0.000000D+00  0.000000D+00  0.000000D+00  0.000000D+00
     29  0.663891D-01  0.000000D+00  0.000000D+00 -0.898802D-05 -0.618945D-04
     30  0.133707D-02  0.000000D+00  0.000000D+00 -0.801259D-05  0.271222D-04
               26            27            28            29            30 
     26  0.258113D+00
     27  0.116290D+00  0.180235D+00
     28 -0.301613D-01  0.301613D-01  0.904838D-01
     29 -0.100592D-01  0.100538D-01  0.301668D-01  0.229932D+00
     30 -0.100510D-01  0.100538D-01  0.301585D-01 -0.998930D-01  0.227220D+00
 Final forces over variables, Energy=-1.94235079D+02:
 -8.75220511D-04-3.69525061D-05-3.41932850D-04-6.47851030D-04
 -2.48837223D-04 3.62002417D-04-3.12136943D-04 1.25043914D-03
  3.45806217D-04 1.09177996D-03-1.46695344D-04-5.23212512D-04
 -1.74027663D-04 1.55096717D-05 2.30448170D-05-2.48813572D-04
 -6.40123825D-07-2.84631502D-04 2.45228321D-04 1.89741581D-04
 -1.88667543D-03 1.86302708D-04 3.88363599D-04 2.25519692D-04
  4.10764211D-04-1.65119932D-04-5.98950173D-04-2.31170650D-04
 -7.64065854D-04-5.26879291D-03

 GradGradGradGradGradGradGradGradGradGradGradGradGradGradGradGradGradGrad
 Berny optimization.
 Search for a local minimum.
 Step number   1 out of a maximum of   50
 All quantities printed in internal units (Hartrees-Bohrs-Radians)
 Second derivative matrix not updated -- first step.
 ITU=  0
     Eigenvalues ---    0.02068   0.25806   0.336491000.000001000.00000
     Eigenvalues --- 1000.000001000.000001000.000001000.000001000.00000
     Eigenvalues --- 1000.000001000.000001000.000001000.000001000.00000
     Eigenvalues --- 1000.000001000.000001000.000001000.000001000.00000
     Eigenvalues --- 1000.000001000.000001000.000001000.000001000.00000
     Eigenvalues --- 1000.000001000.000001000.000001000.000001000.00000
 RFO step:  Lambda=-3.43121674D-06 EMin= 2.06797839D-02
 Linear search not attempted -- first point.
 Variable       Old X    -DE/DX   Delta X   Delta X   Delta X     New X
                                 (Linear)    (Quad)   (Total)
  BABS3       1.75785  -0.00088   0.00000  -0.00342  -0.00342   1.75444
  BABS2       3.51240  -0.00004   0.00000  -0.00219  -0.00219   3.51021
  AABS2       1.73488  -0.00034   0.00000  -0.00105  -0.00105   1.73383
  BABS1       1.82238  -0.00065   0.00000   0.00000   0.00000   1.82238
  AABS1       1.98419  -0.00025   0.00000   0.00000   0.00000   1.98419
    A3        2.07773   0.00036   0.00000   0.00000   0.00000   2.07773
    A4        1.91774  -0.00031   0.00000   0.00000   0.00000   1.91774
    D3        3.59107   0.00125   0.00000   0.00000   0.00000   3.59107
    D4        3.05743   0.00035   0.00000   0.00000   0.00000   3.05743
   R21        2.80039   0.00109   0.00000   0.00000   0.00000   2.80039
   R22        2.04166  -0.00015   0.00000   0.00000   0.00000   2.04166
   R23        2.04147  -0.00052   0.00000   0.00000   0.00000   2.04147
   R24        2.06150  -0.00017   0.00000   0.00000   0.00000   2.06150
   R25        2.07624   0.00002   0.00000   0.00000   0.00000   2.07624
   R26        2.06169   0.00002   0.00000   0.00000   0.00000   2.06169
   A22        2.10998  -0.00025   0.00000   0.00000   0.00000   2.10998
   A23        2.11001  -0.00000   0.00000   0.00000   0.00000   2.11001
   A24        1.95093  -0.00028   0.00000   0.00000   0.00000   1.95093
   A25        1.94864   0.00025   0.00000   0.00000   0.00000   1.94864
   A26        1.95094   0.00019   0.00000   0.00000   0.00000   1.95094
   D23        3.00207  -0.00189   0.00000   0.00000   0.00000   3.00207
   D25        2.08059   0.00019   0.00000   0.00000   0.00000   2.08059
   D26        4.16079   0.00039   0.00000   0.00000   0.00000   4.16079
   D24        2.70779   0.00023   0.00000   0.00000   0.00000   2.70779
    A2        1.98912   0.00041   0.00000   0.00000   0.00000   1.98912
    R4        1.80903  -0.00017   0.00000   0.00000   0.00000   1.80903
    R3        2.04412  -0.00060   0.00000   0.00000   0.00000   2.04412
    R2        2.03694  -0.00023   0.00000   0.00000   0.00000   2.03694
    R1        2.56549  -0.00076   0.00000   0.00000   0.00000   2.56549
   RTS        6.04712  -0.00527   0.00000   0.00000   0.00000   6.04712
         Item               Value     Threshold  Converged?
 Maximum Force            0.000875     0.000450     NO 
 RMS     Force            0.000543     0.000300     NO 
 Maximum Displacement     0.003418     0.001800     NO 
 RMS     Displacement     0.000766     0.001200     YES
 Predicted change in Energy=-1.715608D-06
 GradGradGradGradGradGradGradGradGradGradGradGradGradGradGradGradGradGrad

 ---------------------------------------------------------------------------------------------------
                            Z-MATRIX (ANGSTROMS AND DEGREES)
   CD    Cent   Atom    N1       Length/X        N2       Alpha/Y        N3        Beta/Z          J
 ---------------------------------------------------------------------------------------------------
      1      1  C 
      2      2  O        1   1.357600(     1)
      3      3  H        1   1.077900(     2)      2  113.968(    12)
      4      4  H        1   1.081700(     3)      2  119.045(    13)      3  205.753(    22)      0
      5      5  H        2   0.957300(     4)      1  109.878(    14)      3  175.178(    23)      0
      6      6  C        1   3.200000(     5)      2  113.686(    15)      3  104.415(    24)      0
      7      7  C        6   1.481900(     6)      1   99.341(    16)      2  201.120(    25)      0
      8      8  H        6   1.080400(     7)      7  120.893(    17)      1  100.522(    26)      0
      9      9  H        6   1.080300(     8)      7  120.894(    18)      8  172.006(    27)      0
     10     10  H        7   1.090900(     9)      6  111.780(    19)      8  155.145(    28)      0
     11     11  H        7   1.098700(    10)      6  111.649(    20)     10  119.209(    29)      0
     12     12  H        7   1.091000(    11)      6  111.781(    21)     10  238.396(    30)      0
 ---------------------------------------------------------------------------------------------------
                         Z-Matrix orientation:                         
 ---------------------------------------------------------------------
 Center     Atomic      Atomic             Coordinates (Angstroms)
 Number     Number       Type             X           Y           Z
 ---------------------------------------------------------------------
      1          6           0        0.000000    0.000000    0.000000
      2          8           0        0.000000    0.000000    1.357600
      3          1           0        0.984955    0.000000   -0.437871
      4          1           0       -0.851738    0.410883   -0.525160
      5          1           0       -0.897076    0.075675    1.683103
      6          6           0       -0.729488   -2.838187   -1.285512
      7          6           0       -0.137618   -2.651976   -2.631262
      8          1           0       -1.791967   -2.724107   -1.126170
      9          1           0       -0.135556   -3.215188   -0.465656
     10          1           0        0.914558   -2.369421   -2.575139
     11          1           0       -0.181823   -3.575487   -3.224824
     12          1           0       -0.667206   -1.889576   -3.204466
 ---------------------------------------------------------------------
                    Distance matrix (angstroms):
                    1          2          3          4          5
     1  C    0.000000
     2  O    1.357600   0.000000
     3  H    1.077900   2.047890   0.000000
     4  H    1.081700   2.106909   1.884114   0.000000
     5  H    1.908745   0.957300   2.836600   2.234020   0.000000
     6  C    3.200000   3.946327   3.422443   3.339092   4.163094
     7  C    3.738376   4.791966   3.619960   3.785068   5.160484
     8  H    3.449661   4.098904   3.950419   3.327672   4.065910
     9  H    3.251560   3.698658   3.404960   3.696599   4.003355
    10  H    3.616893   4.681560   3.191712   3.879730   5.233845
    11  H    4.818367   5.815133   4.681088   4.860876   6.158759
    12  H    3.779453   4.982781   3.735530   3.536219   5.272891
                    6          7          8          9         10
     6  C    0.000000
     7  C    1.481900   0.000000
     8  H    1.080400   2.237716   0.000000
     9  H    1.080300   2.237646   1.849631   0.000000
    10  H    2.141441   1.090900   3.090402   2.503593   0.000000
    11  H    2.145806   1.098700   2.778805   2.782978   1.754633
    12  H    2.141525   1.091000   2.506160   3.088848   1.768695
                   11         12
    11  H    0.000000
    12  H    1.754510   0.000000
 Symmetry turned off by external request.
 Stoichiometry    C3H8O
 Framework group  C1[X(C3H8O)]
 Deg. of freedom    30
 Full point group                 C1      NOp   1
 Rotational constants (GHZ):     17.0630907      2.0353441      1.9056006
 Standard basis: Jun-CC-pVTZ (5D, 7F)
   268 basis functions,   384 primitive gaussians,   300 cartesian basis functions
    17 alpha electrons       17 beta electrons
       nuclear repulsion energy       111.1663347317 Hartrees.
 NAtoms=   12 NActive=   12 NUniq=   12 SFac= 1.00D+00 NAtFMM=   60 NAOKFM=F Big=F
 Integral buffers will be    131072 words long.
 Raffenetti 2 integral format.
 Two-electron integral symmetry is turned off.
 Nuclear repulsion after empirical dispersion term =      111.1628934658 Hartrees.
 One-electron integrals computed using PRISM.
 NBasis=   268 RedAO= T EigKep=  1.04D-04  NBF=   268
 NBsUse=   268 1.00D-06 EigRej= -1.00D+00 NBFU=   268
 ExpMin= 3.57D-02 ExpMax= 1.53D+04 ExpMxC= 5.22D+02 IAcc=3 IRadAn=         5 AccDes= 0.00D+00
 Harris functional with IExCor= 4639 and IRadAn=       5 diagonalized for initial guess.
 HarFok:  IExCor= 4639 AccDes= 0.00D+00 IRadAn=         5 IDoV= 1 UseB2=F ITyADJ=14
 ICtDFT=  3500011 ScaDFX=  1.000000  1.000000  1.000000  1.000000
 FoFCou: FMM=F IPFlag=           0 FMFlag=      100000 FMFlg1=           0
         NFxFlg=           0 DoJE=T BraDBF=F KetDBF=T FulRan=T
         wScrn=  0.000000 ICntrl=     500 IOpCl=  0 I1Cent=   200000004 NGrid=           0
         NMat0=    1 NMatS0=      1 NMatT0=    0 NMatD0=    1 NMtDS0=    0 NMtDT0=    0
 Symmetry not used in FoFCou.
 Mixing orbitals, IMix= 1 IMixAn=  0 NRI=1 NE=   17 Coef=  7.07106781D-01  7.07106781D-01
 Mixing orbitals, IMix= 1 IMixAn=  0 NRI=1 NE=   17 Coef= -7.07106781D-01  7.07106781D-01
 Initial guess <Sx>= 0.0000 <Sy>= 0.0000 <Sz>= 0.0000 <S**2>= 1.0000 S= 0.6180
 Requested convergence on RMS density matrix=1.00D-08 within 128 cycles.
 Requested convergence on MAX density matrix=1.00D-06.
 Requested convergence on             energy=1.00D-06.
 No special actions if energy rises.
 SCF Done:  E(UwB97XD) =  -194.235082012     A.U. after   15 cycles
            NFock= 15  Conv=0.65D-08     -V/T= 2.0066
 <Sx>= 0.0000 <Sy>= 0.0000 <Sz>= 0.0000 <S**2>= 0.8999 S= 0.5723
 <L.S>=  0.00000000000    
 Annihilation of the first spin contaminant:
 S**2 before annihilation     0.8999,   after     0.0509
 DipInt: DoE/N= T T RetVal/Mat= T F Init=T NMatP=  1 IDeriv=0 Min/MaxMlt=  1  1
 Entering OneElI...
 Multipole integrals L=1 to 1 MinM= 0 MaxM= 0.
 Requested accuracy = 0.1000D-12
 PrsmSu:  NPrtUS=   1 ThrOK=F IAlg=1 NPAlg=1 LenDen=           0.
 Prism:   IPart=     0 DynPar=F LinDyn=F Incr=          48.
 PRISM was handed   419025126 working-precision words and  4849 shell-pairs
 IPart=  0 NShTot=        4849 NBatch=          60 AvBLen=        80.8
 PrSmSu:  NxtVal=             49.
 Entering OneElI...
 Calculate overlap and kinetic energy integrals
    NBasis = 300  MinDer = 1  MaxDer = 1
 Requested accuracy = 0.1000D-12
 PrsmSu:  NPrtUS=  32 ThrOK=T IAlg=1 NPAlg=1 LenDen=           0.
 PRISM was handed    12996593 working-precision words and  4985 shell-pairs
 PRISM was handed    12996593 working-precision words and  4985 shell-pairs
 PRISM was handed    12996593 working-precision words and  4985 shell-pairs
 PRISM was handed    12996593 working-precision words and  4985 shell-pairs
 Prism:   IPart=     0 DynPar=F LinDyn=F Incr=           1.
 PRISM was handed    12996593 working-precision words and  4985 shell-pairs
 PRISM was handed    12996593 working-precision words and  4985 shell-pairs
 PRISM was handed    12996593 working-precision words and  4985 shell-pairs
 PRISM was handed    12996593 working-precision words and  4985 shell-pairs
 PRISM was handed    12996593 working-precision words and  4985 shell-pairs
 PRISM was handed    12996593 working-precision words and  4985 shell-pairs
 PRISM was handed    12996593 working-precision words and  4985 shell-pairs
 PRISM was handed    12996593 working-precision words and  4985 shell-pairs
 PRISM was handed    12996593 working-precision words and  4985 shell-pairs
 PRISM was handed    12996593 working-precision words and  4985 shell-pairs
 PRISM was handed    12996593 working-precision words and  4985 shell-pairs
 PRISM was handed    12996593 working-precision words and  4985 shell-pairs
 PRISM was handed    12996593 working-precision words and  4985 shell-pairs
 PRISM was handed    12996593 working-precision words and  4985 shell-pairs
 PRISM was handed    12996593 working-precision words and  4985 shell-pairs
 PRISM was handed    12996593 working-precision words and  4985 shell-pairs
 PRISM was handed    12996593 working-precision words and  4985 shell-pairs
 PRISM was handed    12996593 working-precision words and  4985 shell-pairs
 PRISM was handed    12996593 working-precision words and  4985 shell-pairs
 PRISM was handed    12996593 working-precision words and  4985 shell-pairs
 PRISM was handed    12996593 working-precision words and  4985 shell-pairs
 PRISM was handed    12996593 working-precision words and  4985 shell-pairs
 PRISM was handed    12996593 working-precision words and  4985 shell-pairs
 PRISM was handed    12996593 working-precision words and  4985 shell-pairs
 PRISM was handed    12996593 working-precision words and  4985 shell-pairs
 PRISM was handed    12996593 working-precision words and  4985 shell-pairs
 PRISM was handed    12996593 working-precision words and  4985 shell-pairs
 PRISM was handed    12996593 working-precision words and  4985 shell-pairs
 IPart= 26 NShTot=         142 NBatch=          20 AvBLen=         7.1
 IPart= 16 NShTot=         146 NBatch=          21 AvBLen=         7.0
 IPart=  2 NShTot=         184 NBatch=          46 AvBLen=         4.0
 IPart= 15 NShTot=         150 NBatch=          22 AvBLen=         6.8
 IPart=  6 NShTot=         172 NBatch=          36 AvBLen=         4.8
 IPart=  4 NShTot=         173 NBatch=          36 AvBLen=         4.8
 IPart=  0 NShTot=         198 NBatch=          58 AvBLen=         3.4
 IPart= 13 NShTot=         157 NBatch=          26 AvBLen=         6.0
 IPart= 23 NShTot=         143 NBatch=          21 AvBLen=         6.8
 IPart= 28 NShTot=         142 NBatch=          20 AvBLen=         7.1
 IPart=  7 NShTot=         171 NBatch=          36 AvBLen=         4.8
 IPart= 25 NShTot=         143 NBatch=          21 AvBLen=         6.8
 IPart=  5 NShTot=         172 NBatch=          36 AvBLen=         4.8
 IPart=  8 NShTot=         163 NBatch=          31 AvBLen=         5.3
 IPart= 14 NShTot=         152 NBatch=          22 AvBLen=         6.9
 IPart= 11 NShTot=         157 NBatch=          26 AvBLen=         6.0
 IPart= 29 NShTot=         141 NBatch=          20 AvBLen=         7.0
 IPart= 27 NShTot=         142 NBatch=          20 AvBLen=         7.1
 IPart= 21 NShTot=         145 NBatch=          21 AvBLen=         6.9
 IPart= 10 NShTot=         157 NBatch=          26 AvBLen=         6.0
 IPart= 12 NShTot=         157 NBatch=          26 AvBLen=         6.0
 IPart= 18 NShTot=         145 NBatch=          21 AvBLen=         6.9
 IPart= 24 NShTot=         143 NBatch=          21 AvBLen=         6.8
 IPart= 22 NShTot=         144 NBatch=          21 AvBLen=         6.9
 IPart=  1 NShTot=         189 NBatch=          50 AvBLen=         3.8
 IPart= 20 NShTot=         145 NBatch=          21 AvBLen=         6.9
 IPart=  9 NShTot=         160 NBatch=          28 AvBLen=         5.7
 IPart= 19 NShTot=         145 NBatch=          21 AvBLen=         6.9
 IPart= 30 NShTot=         140 NBatch=          20 AvBLen=         7.0
 IPart= 17 NShTot=         145 NBatch=          21 AvBLen=         6.9
 IPart=  3 NShTot=         182 NBatch=          44 AvBLen=         4.1
 IPart= 31 NShTot=         140 NBatch=          20 AvBLen=         7.0
 PrSmSu:  NxtVal=             33.
 Entering OneElI...
 Calculate potential energy integrals
    NBasis = 300  MinDer = 1  MaxDer = 1
 Requested accuracy = 0.1000D-12
 PrsmSu:  NPrtUS=  32 ThrOK=T IAlg=1 NPAlg=1 LenDen=           0.
 Prism:   IPart=     0 DynPar=F LinDyn=F Incr=          17.
 PRISM was handed    13013671 working-precision words and  4622 shell-pairs
 PRISM was handed    13013671 working-precision words and  4622 shell-pairs
 PRISM was handed    13013671 working-precision words and  4622 shell-pairs
 PRISM was handed    13013671 working-precision words and  4622 shell-pairs
 PRISM was handed    13013671 working-precision words and  4622 shell-pairs
 PRISM was handed    13013671 working-precision words and  4622 shell-pairs
 PRISM was handed    13013671 working-precision words and  4622 shell-pairs
 PRISM was handed    13013671 working-precision words and  4622 shell-pairs
 PRISM was handed    13013671 working-precision words and  4622 shell-pairs
 PRISM was handed    13013671 working-precision words and  4622 shell-pairs
 PRISM was handed    13013671 working-precision words and  4622 shell-pairs
 PRISM was handed    13013671 working-precision words and  4622 shell-pairs
 PRISM was handed    13013671 working-precision words and  4622 shell-pairs
 PRISM was handed    13013671 working-precision words and  4622 shell-pairs
 PRISM was handed    13013671 working-precision words and  4622 shell-pairs
 PRISM was handed    13013671 working-precision words and  4622 shell-pairs
 PRISM was handed    13013671 working-precision words and  4622 shell-pairs
 PRISM was handed    13013671 working-precision words and  4622 shell-pairs
 PRISM was handed    13013671 working-precision words and  4622 shell-pairs
 PRISM was handed    13013671 working-precision words and  4622 shell-pairs
 PRISM was handed    13013671 working-precision words and  4622 shell-pairs
 PRISM was handed    13013671 working-precision words and  4622 shell-pairs
 PRISM was handed    13013671 working-precision words and  4622 shell-pairs
 PRISM was handed    13013671 working-precision words and  4622 shell-pairs
 PRISM was handed    13013671 working-precision words and  4622 shell-pairs
 PRISM was handed    13013671 working-precision words and  4622 shell-pairs
 PRISM was handed    13013671 working-precision words and  4622 shell-pairs
 PRISM was handed    13013671 working-precision words and  4622 shell-pairs
 PRISM was handed    13013671 working-precision words and  4622 shell-pairs
 PRISM was handed    13013671 working-precision words and  4622 shell-pairs
 PRISM was handed    13013671 working-precision words and  4622 shell-pairs
 PRISM was handed    13013671 working-precision words and  4622 shell-pairs
 IPart= 29 NShTot=        1548 NBatch=         129 AvBLen=        12.0
 IPart= 28 NShTot=        1548 NBatch=         129 AvBLen=        12.0
 IPart=  0 NShTot=        2280 NBatch=         190 AvBLen=        12.0
 IPart= 26 NShTot=        1572 NBatch=         131 AvBLen=        12.0
 IPart= 25 NShTot=        1572 NBatch=         131 AvBLen=        12.0
 IPart=  6 NShTot=        1896 NBatch=         158 AvBLen=        12.0
 IPart= 15 NShTot=        1680 NBatch=         140 AvBLen=        12.0
 IPart= 10 NShTot=        1728 NBatch=         144 AvBLen=        12.0
 IPart=  4 NShTot=        1932 NBatch=         161 AvBLen=        12.0
 IPart= 27 NShTot=        1548 NBatch=         129 AvBLen=        12.0
 IPart= 12 NShTot=        1704 NBatch=         142 AvBLen=        12.0
 IPart= 23 NShTot=        1584 NBatch=         132 AvBLen=        12.0
 IPart=  8 NShTot=        1812 NBatch=         151 AvBLen=        12.0
 IPart= 13 NShTot=        1692 NBatch=         141 AvBLen=        12.0
 IPart= 20 NShTot=        1644 NBatch=         137 AvBLen=        12.0
 IPart=  2 NShTot=        2076 NBatch=         173 AvBLen=        12.0
 IPart= 16 NShTot=        1656 NBatch=         138 AvBLen=        12.0
 IPart= 14 NShTot=        1692 NBatch=         141 AvBLen=        12.0
 IPart= 24 NShTot=        1572 NBatch=         131 AvBLen=        12.0
 IPart= 18 NShTot=        1644 NBatch=         137 AvBLen=        12.0
 IPart= 21 NShTot=        1620 NBatch=         135 AvBLen=        12.0
 IPart=  1 NShTot=        2184 NBatch=         182 AvBLen=        12.0
 IPart=  3 NShTot=        2040 NBatch=         170 AvBLen=        12.0
 IPart= 17 NShTot=        1644 NBatch=         137 AvBLen=        12.0
 IPart= 31 NShTot=        1548 NBatch=         129 AvBLen=        12.0
 IPart= 19 NShTot=        1644 NBatch=         137 AvBLen=        12.0
 IPart=  9 NShTot=        1776 NBatch=         148 AvBLen=        12.0
 IPart= 11 NShTot=        1716 NBatch=         143 AvBLen=        12.0
 IPart=  5 NShTot=        1920 NBatch=         160 AvBLen=        12.0
 IPart= 30 NShTot=        1548 NBatch=         129 AvBLen=        12.0
 IPart=  7 NShTot=        1860 NBatch=         155 AvBLen=        12.0
 IPart= 22 NShTot=        1584 NBatch=         132 AvBLen=        12.0
 PrSmSu:  NxtVal=            545.
 l701 out
 I=    0 X=  -4.890100851594D-01 Y=   2.147084499074D-01 Z=  -9.511231148467D-02
 I=    1 X=   4.653410832967D-01 Y=   8.021795235194D-01 Z=  -4.242614096166D+00
 I=    2 X=   2.840746770930D+00 Y=   1.035570034645D+00 Z=   8.332534146526D+00
 I=    3 X=   3.169068791266D+00 Y=   1.593445088284D-01 Z=  -1.606913175720D+00
 I=    4 X=  -2.664213172159D+00 Y=   1.563638927515D+00 Z=  -1.819188899344D+00
 I=    5 X=  -3.094187697639D+00 Y=   4.338325309341D-01 Z=   2.493459429261D+00
 I=    6 X=  -1.414814859716D+00 Y=  -2.011299017696D+00 Z=   7.203144024066D-01
 I=    7 X=   8.318946235977D-01 Y=  -8.848667121394D-01 Z=  -3.264809043881D+00
 I=    8 X=  -3.400098754928D+00 Y=   8.239196458386D-02 Z=   7.148014205746D-01
 I=    9 X=   1.615723588780D+00 Y=  -1.479602934079D+00 Z=   2.717139170651D+00
 I=   10 X=   3.110376276091D+00 Y=   7.204236350567D-01 Z=  -1.988023981003D-01
 I=   11 X=  -3.934679638041D-02 Y=  -2.519519411409D+00 Z=  -1.858105925824D+00
 I=   12 X=  -1.420489853138D+00 Y=   2.097906950240D+00 Z=  -1.987815030383D+00
 ICntrl=      2127.
 Calling FoFJK, ICntrl=      2127 FMM=F ISym2X=0 I1Cent= 0 IOpClX= 1 NMat=1 NMatS=1 NMatT=0.
 FoFJK:  IHMeth= 1 ICntrl=    2127 DoSepK=T KAlg= 0 I1Cent=   0 FoldK=F
 IRaf=         1 NMat=   1 IRICut=       1 DoRegI=T DoRafI=F ISym2E= 0.
 FoFCou: FMM=F IPFlag=           0 FMFlag=      100000 FMFlg1=         800
         NFxFlg=           0 DoJE=F BraDBF=F KetDBF=F FulRan=T
         wScrn=  0.000000 ICntrl=    2527 IOpCl=  0 I1Cent=           0 NGrid=           0
         NMat0=    1 NMatS0=      1 NMatT0=    0 NMatD0=    1 NMtDS0=    0 NMtDT0=    0
 Symmetry not used in FoFCou.
 FoFCou:  KetSym=F NOpSet=  1 NOpAb=1 NOp=  1.
 FoFCou:  CnvScl= 1.00D+00 Thresh= 1.00D-10 IAcrcy=      10.
 PrismS was handed   418932717 working-precision words and  4799 shell-pairs
 FoFCou: LinMIO=F DoNuc=F BraDBF=F KetDBF=F HaveP=T PDBF=F HaveZ=T HaveW=F
         NIJTC =      10 NIJTAt=       0 NIJTCD=       0 NIJTT =      10
         IJTBeg=       1 IJTEnd=      10 KLTBeg=       1 KLTEnd=      10
         IPTBeg=       1 IPTEnd=      10 IPTBCv=       1 IPTECv=      10
         IZTBeg=       1 IZTEnd=      10 IZTBCv=       1 IZTECv=      10
         IWTBeg=      11 IWTEnd=      10 IWTBCv=      11 IWTECv=      10
         INTBeg=       1 INTEnd=       0 IFTBCv=       1 IFTECv=      10
 NCel replicated for PrismC:     1
 CoulSu:  IncDef=  1024 NBBP=       11517600 NTPThr=   100 NPartT=   32 Incr=        1024 LDynOK=F.
 CoulSu:  NPrtUS=  32 ThrOK=T IAlg=1 NPAlg=1 LenDen=           0 LWGrdD=           0 DoCopy=F.
 Enter PrismC: JobTyp=21 DoJE=F Cont=F.
 Enter PrismC: JobTyp=21 DoJE=F Cont=F.
 Enter PrismC: JobTyp=21 DoJE=F Cont=F.
 Enter PrismC: JobTyp=21 DoJE=F Cont=F.
 Enter PrismC: JobTyp=21 DoJE=F Cont=F.
 Enter PrismC: JobTyp=21 DoJE=F Cont=F.
 Enter PrismC: JobTyp=21 DoJE=F Cont=F.
 Enter PrismC: JobTyp=21 DoJE=F Cont=F.
 Enter PrismC: JobTyp=21 DoJE=F Cont=F.
 Enter PrismC: JobTyp=21 DoJE=F Cont=F.
 Enter PrismC: JobTyp=21 DoJE=F Cont=F.
 Enter PrismC: JobTyp=21 DoJE=F Cont=F.
 Enter PrismC: JobTyp=21 DoJE=F Cont=F.
 Enter PrismC: JobTyp=21 DoJE=F Cont=F.
 Enter PrismC: JobTyp=21 DoJE=F Cont=F.
 Enter PrismC: JobTyp=21 DoJE=F Cont=F.
 PrismC was handed    13006719 working-precision words and  4799 shell-pairs
 Enter PrismC: JobTyp=21 DoJE=F Cont=F.
 PrismC:  IPart=     0 DynPar=T LinDyn=F Incr=        1024 UseFst=F UseS4=T IGathr=2.
 PrismC was handed    13006719 working-precision words and  4799 shell-pairs
 Enter PrismC: JobTyp=21 DoJE=F Cont=F.
 Enter PrismC: JobTyp=21 DoJE=F Cont=F.
 Enter PrismC: JobTyp=21 DoJE=F Cont=F.
 Enter PrismC: JobTyp=21 DoJE=F Cont=F.
 Enter PrismC: JobTyp=21 DoJE=F Cont=F.
 Enter PrismC: JobTyp=21 DoJE=F Cont=F.
 Enter PrismC: JobTyp=21 DoJE=F Cont=F.
 Enter PrismC: JobTyp=21 DoJE=F Cont=F.
 PrismC was handed    13006719 working-precision words and  4799 shell-pairs
 Enter PrismC: JobTyp=21 DoJE=F Cont=F.
 Enter PrismC: JobTyp=21 DoJE=F Cont=F.
 PrismC was handed    13006719 working-precision words and  4799 shell-pairs
 Enter PrismC: JobTyp=21 DoJE=F Cont=F.
 Enter PrismC: JobTyp=21 DoJE=F Cont=F.
 Enter PrismC: JobTyp=21 DoJE=F Cont=F.
 PrismC was handed    13006719 working-precision words and  4799 shell-pairs
 PrismC was handed    13006719 working-precision words and  4799 shell-pairs
 PrismC was handed    13006719 working-precision words and  4799 shell-pairs
 PrismC was handed    13006719 working-precision words and  4799 shell-pairs
 PrismC was handed    13006719 working-precision words and  4799 shell-pairs
 PrismC was handed    13006719 working-precision words and  4799 shell-pairs
 PrismC was handed    13006719 working-precision words and  4799 shell-pairs
 PrismC was handed    13006719 working-precision words and  4799 shell-pairs
 PrismC was handed    13006719 working-precision words and  4799 shell-pairs
 PrismC was handed    13006719 working-precision words and  4799 shell-pairs
 PrismC was handed    13006719 working-precision words and  4799 shell-pairs
 PrismC was handed    13006719 working-precision words and  4799 shell-pairs
 PrismC was handed    13006719 working-precision words and  4799 shell-pairs
 PrismC was handed    13006719 working-precision words and  4799 shell-pairs
 PrismC was handed    13006719 working-precision words and  4799 shell-pairs
 PrismC was handed    13006719 working-precision words and  4799 shell-pairs
 Enter PrismC: JobTyp=21 DoJE=F Cont=F.
 Enter PrismC: JobTyp=21 DoJE=F Cont=F.
 PrismC was handed    13006719 working-precision words and  4799 shell-pairs
 PrismC was handed    13006719 working-precision words and  4799 shell-pairs
 PrismC was handed    13006719 working-precision words and  4799 shell-pairs
 PrismC was handed    13006719 working-precision words and  4799 shell-pairs
 PrismC was handed    13006719 working-precision words and  4799 shell-pairs
 PrismC was handed    13006719 working-precision words and  4799 shell-pairs
 PrismC was handed    13006719 working-precision words and  4799 shell-pairs
 PrismC was handed    13006719 working-precision words and  4799 shell-pairs
 PrismC was handed    13006719 working-precision words and  4799 shell-pairs
 PrismC was handed    13006719 working-precision words and  4799 shell-pairs
 PrismC was handed    13006719 working-precision words and  4799 shell-pairs
 PrismC was handed    13006719 working-precision words and  4799 shell-pairs
 IPart=  6 NShTot=      243030 NShNF=      243030 NShFF=           0 NBatch=        1815 AvBLen=       133.9
 IPart=  4 NShTot=      265982 NShNF=      265982 NShFF=           0 NBatch=        2017 AvBLen=       131.9
 IPart= 26 NShTot=      259402 NShNF=      259402 NShFF=           0 NBatch=        1800 AvBLen=       144.1
 IPart=  0 NShTot=      279889 NShNF=      279889 NShFF=           0 NBatch=        1971 AvBLen=       142.0
 IPart=  2 NShTot=      235658 NShNF=      235658 NShFF=           0 NBatch=        1711 AvBLen=       137.7
 IPart=  9 NShTot=      274603 NShNF=      274603 NShFF=           0 NBatch=        1910 AvBLen=       143.8
 IPart= 25 NShTot=      296902 NShNF=      296902 NShFF=           0 NBatch=        2002 AvBLen=       148.3
 IPart= 22 NShTot=      268038 NShNF=      268038 NShFF=           0 NBatch=        1882 AvBLen=       142.4
 IPart=  1 NShTot=      305220 NShNF=      305220 NShFF=           0 NBatch=        1959 AvBLen=       155.8
 IPart= 27 NShTot=      263802 NShNF=      263802 NShFF=           0 NBatch=        1682 AvBLen=       156.8
 IPart= 14 NShTot=      253258 NShNF=      253258 NShFF=           0 NBatch=        2148 AvBLen=       117.9
 IPart= 28 NShTot=      261389 NShNF=      261389 NShFF=           0 NBatch=        1767 AvBLen=       147.9
 IPart=  8 NShTot=      261420 NShNF=      261420 NShFF=           0 NBatch=        1932 AvBLen=       135.3
 IPart= 15 NShTot=      296590 NShNF=      296590 NShFF=           0 NBatch=        1990 AvBLen=       149.0
 IPart= 19 NShTot=      289448 NShNF=      289448 NShFF=           0 NBatch=        2081 AvBLen=       139.1
 IPart= 30 NShTot=      257107 NShNF=      257107 NShFF=           0 NBatch=        2230 AvBLen=       115.3
 IPart= 11 NShTot=      257424 NShNF=      257424 NShFF=           0 NBatch=        2145 AvBLen=       120.0
 IPart= 29 NShTot=      248619 NShNF=      248619 NShFF=           0 NBatch=        1901 AvBLen=       130.8
 IPart= 12 NShTot=      245867 NShNF=      245867 NShFF=           0 NBatch=        1722 AvBLen=       142.8
 IPart= 18 NShTot=      269830 NShNF=      269830 NShFF=           0 NBatch=        1812 AvBLen=       148.9
 IPart= 20 NShTot=      274754 NShNF=      274754 NShFF=           0 NBatch=        1997 AvBLen=       137.6
 IPart= 16 NShTot=      294613 NShNF=      294613 NShFF=           0 NBatch=        2021 AvBLen=       145.8
 IPart=  7 NShTot=      284843 NShNF=      284843 NShFF=           0 NBatch=        1931 AvBLen=       147.5
 IPart= 17 NShTot=      267269 NShNF=      267269 NShFF=           0 NBatch=        1705 AvBLen=       156.8
 IPart= 31 NShTot=      262484 NShNF=      262484 NShFF=           0 NBatch=        1917 AvBLen=       136.9
 IPart= 23 NShTot=      261880 NShNF=      261880 NShFF=           0 NBatch=        1833 AvBLen=       142.9
 IPart= 24 NShTot=      256809 NShNF=      256809 NShFF=           0 NBatch=        2076 AvBLen=       123.7
 IPart=  3 NShTot=      249626 NShNF=      249626 NShFF=           0 NBatch=        1853 AvBLen=       134.7
 IPart=  5 NShTot=      251561 NShNF=      251561 NShFF=           0 NBatch=        1770 AvBLen=       142.1
 IPart= 21 NShTot=      243409 NShNF=      243409 NShFF=           0 NBatch=        1810 AvBLen=       134.5
 IPart= 10 NShTot=      281305 NShNF=      281305 NShFF=           0 NBatch=        1853 AvBLen=       151.8
 IPart= 13 NShTot=      267577 NShNF=      267577 NShFF=           0 NBatch=        1968 AvBLen=       136.0
 CoulSu:  NxtVal=       12530689.
 FoFCou: FMM=F IPFlag=           0 FMFlag=      100000 FMFlg1=         800
         NFxFlg=           0 DoJE=F BraDBF=F KetDBF=F FulRan=T
         wScrn=  0.000000 ICntrl=    2127 IOpCl=  1 I1Cent=           0 NGrid=           0
         NMat0=    1 NMatS0=      0 NMatT0=    1 NMatD0=    1 NMtDS0=    0 NMtDT0=    0
         CW=    0.222036    0.777964
         WU=    0.000000   12.500000
 Symmetry not used in FoFCou.
 FoFCou:  KetSym=F NOpSet=  1 NOpAb=1 NOp=  1.
 FoFCou:  CnvScl= 1.00D+00 Thresh= 1.00D-10 IAcrcy=      10.
 PrismS was handed   418927751 working-precision words and  4799 shell-pairs
 FoFCou: LinMIO=F DoNuc=F BraDBF=F KetDBF=F HaveP=T PDBF=F HaveZ=T HaveW=F
         NIJTC =      10 NIJTAt=       0 NIJTCD=       0 NIJTT =      10
         IJTBeg=       1 IJTEnd=      10 KLTBeg=       1 KLTEnd=      10
         IPTBeg=       1 IPTEnd=      10 IPTBCv=       1 IPTECv=      10
         IZTBeg=       1 IZTEnd=      10 IZTBCv=       1 IZTECv=      10
         IWTBeg=      11 IWTEnd=      10 IWTBCv=      11 IWTECv=      10
         INTBeg=       1 INTEnd=       0 IFTBCv=       1 IFTECv=      10
 NCel replicated for PrismC:     1
 CoulSu:  IncDef=  1024 NBBP=       11517600 NTPThr=   100 NPartT=   32 Incr=        1024 LDynOK=F.
 CoulSu:  NPrtUS=  32 ThrOK=T IAlg=1 NPAlg=1 LenDen=           0 LWGrdD=           0 DoCopy=F.
 Enter PrismC: JobTyp=21 DoJE=F Cont=F.
 Linear combination for Coulomb/exchange, wScrn=  0.000000
 CW=    0.222036    0.777964
 WU=    0.000000   12.500000
 Enter PrismC: JobTyp=21 DoJE=F Cont=F.
 Enter PrismC: JobTyp=21 DoJE=F Cont=F.
 Enter PrismC: JobTyp=21 DoJE=F Cont=F.
 Linear combination for Coulomb/exchange, wScrn=  0.000000
 CW=    0.222036    0.777964
 WU=    0.000000   12.500000
 Enter PrismC: JobTyp=21 DoJE=F Cont=F.
 Linear combination for Coulomb/exchange, wScrn=  0.000000
 CW=    0.222036    0.777964
 WU=    0.000000   12.500000
 PrismC was handed    13006564 working-precision words and  4799 shell-pairs
 Enter PrismC: JobTyp=21 DoJE=F Cont=F.
 Enter PrismC: JobTyp=21 DoJE=F Cont=F.
 Enter PrismC: JobTyp=21 DoJE=F Cont=F.
 Enter PrismC: JobTyp=21 DoJE=F Cont=F.
 Linear combination for Coulomb/exchange, wScrn=  0.000000
 CW=    0.222036    0.777964
 WU=    0.000000   12.500000
 Enter PrismC: JobTyp=21 DoJE=F Cont=F.
 Linear combination for Coulomb/exchange, wScrn=  0.000000
 Enter PrismC: JobTyp=21 DoJE=F Cont=F.
 Linear combination for Coulomb/exchange, wScrn=  0.000000
 CW=    0.222036    0.777964
 WU=    0.000000   12.500000
 Enter PrismC: JobTyp=21 DoJE=F Cont=F.
 Linear combination for Coulomb/exchange, wScrn=  0.000000
 CW=    0.222036    0.777964
 WU=    0.000000   12.500000
 Enter PrismC: JobTyp=21 DoJE=F Cont=F.
 PrismC was handed    13006564 working-precision words and  4799 shell-pairs
 Linear combination for Coulomb/exchange, wScrn=  0.000000
 CW=    0.222036    0.777964
 WU=    0.000000   12.500000
 Enter PrismC: JobTyp=21 DoJE=F Cont=F.
 Linear combination for Coulomb/exchange, wScrn=  0.000000
 CW=    0.222036    0.777964
 WU=    0.000000   12.500000
 Enter PrismC: JobTyp=21 DoJE=F Cont=F.
 Linear combination for Coulomb/exchange, wScrn=  0.000000
 CW=    0.222036    0.777964
 WU=    0.000000   12.500000
 Enter PrismC: JobTyp=21 DoJE=F Cont=F.
 Linear combination for Coulomb/exchange, wScrn=  0.000000
 CW=    0.222036    0.777964
 WU=    0.000000   12.500000
 Linear combination for Coulomb/exchange, wScrn=  0.000000
 CW=    0.222036    0.777964
 WU=    0.000000   12.500000
 PrismC was handed    13006564 working-precision words and  4799 shell-pairs
 Linear combination for Coulomb/exchange, wScrn=  0.000000
 CW=    0.222036    0.777964
 WU=    0.000000   12.500000
 PrismC was handed    13006564 working-precision words and  4799 shell-pairs
 PrismC was handed    13006564 working-precision words and  4799 shell-pairs
 Enter PrismC: JobTyp=21 DoJE=F Cont=F.
 Enter PrismC: JobTyp=21 DoJE=F Cont=F.
 Enter PrismC: JobTyp=21 DoJE=F Cont=F.
 Linear combination for Coulomb/exchange, wScrn=  0.000000
 CW=    0.222036    0.777964
 WU=    0.000000   12.500000
 PrismC was handed    13006564 working-precision words and  4799 shell-pairs
 PrismC was handed    13006564 working-precision words and  4799 shell-pairs
 Enter PrismC: JobTyp=21 DoJE=F Cont=F.
 Linear combination for Coulomb/exchange, wScrn=  0.000000
 CW=    0.222036    0.777964
 WU=    0.000000   12.500000
 PrismC:  IPart=     0 DynPar=T LinDyn=F Incr=        1024 UseFst=F UseS4=T IGathr=2.
 PrismC was handed    13006564 working-precision words and  4799 shell-pairs
 Enter PrismC: JobTyp=21 DoJE=F Cont=F.
 Linear combination for Coulomb/exchange, wScrn=  0.000000
 CW=    0.222036    0.777964
 WU=    0.000000   12.500000
 PrismC was handed    13006564 working-precision words and  4799 shell-pairs
 Enter PrismC: JobTyp=21 DoJE=F Cont=F.
 Linear combination for Coulomb/exchange, wScrn=  0.000000
 CW=    0.222036    0.777964
 WU=    0.000000   12.500000
 PrismC was handed    13006564 working-precision words and  4799 shell-pairs
 Enter PrismC: JobTyp=21 DoJE=F Cont=F.
 Linear combination for Coulomb/exchange, wScrn=  0.000000
 CW=    0.222036    0.777964
 WU=    0.000000   12.500000
 PrismC was handed    13006564 working-precision words and  4799 shell-pairs
 Enter PrismC: JobTyp=21 DoJE=F Cont=F.
 Linear combination for Coulomb/exchange, wScrn=  0.000000
 CW=    0.222036    0.777964
 WU=    0.000000   12.500000
 PrismC was handed    13006564 working-precision words and  4799 shell-pairs
 Enter PrismC: JobTyp=21 DoJE=F Cont=F.
 Linear combination for Coulomb/exchange, wScrn=  0.000000
 CW=    0.222036    0.777964
 WU=    0.000000   12.500000
 PrismC was handed    13006564 working-precision words and  4799 shell-pairs
 Enter PrismC: JobTyp=21 DoJE=F Cont=F.
 Linear combination for Coulomb/exchange, wScrn=  0.000000
 CW=    0.222036    0.777964
 WU=    0.000000   12.500000
 PrismC was handed    13006564 working-precision words and  4799 shell-pairs
 Enter PrismC: JobTyp=21 DoJE=F Cont=F.
 Linear combination for Coulomb/exchange, wScrn=  0.000000
 CW=    0.222036    0.777964
 WU=    0.000000   12.500000
 PrismC was handed    13006564 working-precision words and  4799 shell-pairs
 Enter PrismC: JobTyp=21 DoJE=F Cont=F.
 Linear combination for Coulomb/exchange, wScrn=  0.000000
 CW=    0.222036    0.777964
 WU=    0.000000   12.500000
 Enter PrismC: JobTyp=21 DoJE=F Cont=F.
 Linear combination for Coulomb/exchange, wScrn=  0.000000
 CW=    0.222036    0.777964
 Enter PrismC: JobTyp=21 DoJE=F Cont=F.
 Linear combination for Coulomb/exchange, wScrn=  0.000000
 CW=    0.222036    0.777964
 WU=    0.000000   12.500000
 PrismC was handed    13006564 working-precision words and  4799 shell-pairs
 PrismC was handed    13006564 working-precision words and  4799 shell-pairs
 PrismC was handed    13006564 working-precision words and  4799 shell-pairs
 Enter PrismC: JobTyp=21 DoJE=F Cont=F.
 Linear combination for Coulomb/exchange, wScrn=  0.000000
 CW=    0.222036    0.777964
 WU=    0.000000   12.500000
 PrismC was handed    13006564 working-precision words and  4799 shell-pairs
 Linear combination for Coulomb/exchange, wScrn=  0.000000
 CW=    0.222036    0.777964
 WU=    0.000000   12.500000
 PrismC was handed    13006564 working-precision words and  4799 shell-pairs
 Linear combination for Coulomb/exchange, wScrn=  0.000000
 CW=    0.222036    0.777964
 WU=    0.000000   12.500000
 PrismC was handed    13006564 working-precision words and  4799 shell-pairs
 PrismC was handed    13006564 working-precision words and  4799 shell-pairs
 Linear combination for Coulomb/exchange, wScrn=  0.000000
 CW=    0.222036    0.777964
 WU=    0.000000   12.500000
 PrismC was handed    13006564 working-precision words and  4799 shell-pairs
 PrismC was handed    13006564 working-precision words and  4799 shell-pairs
 WU=    0.000000   12.500000
 Linear combination for Coulomb/exchange, wScrn=  0.000000
 CW=    0.222036    0.777964
 WU=    0.000000   12.500000
 Enter PrismC: JobTyp=21 DoJE=F Cont=F.
 PrismC was handed    13006564 working-precision words and  4799 shell-pairs
 PrismC was handed    13006564 working-precision words and  4799 shell-pairs
 PrismC was handed    13006564 working-precision words and  4799 shell-pairs
 PrismC was handed    13006564 working-precision words and  4799 shell-pairs
 Linear combination for Coulomb/exchange, wScrn=  0.000000
 CW=    0.222036    0.777964
 WU=    0.000000   12.500000
 PrismC was handed    13006564 working-precision words and  4799 shell-pairs
 CW=    0.222036    0.777964
 WU=    0.000000   12.500000
 PrismC was handed    13006564 working-precision words and  4799 shell-pairs
 Linear combination for Coulomb/exchange, wScrn=  0.000000
 CW=    0.222036    0.777964
 WU=    0.000000   12.500000
 PrismC was handed    13006564 working-precision words and  4799 shell-pairs
 PrismC was handed    13006564 working-precision words and  4799 shell-pairs
 IPart=  1 NShTot=      263015 NShNF=      263015 NShFF=           0 NBatch=        2184 AvBLen=       120.4
 IPart= 18 NShTot=      286648 NShNF=      286648 NShFF=           0 NBatch=        2504 AvBLen=       114.5
 IPart= 26 NShTot=      269911 NShNF=      269911 NShFF=           0 NBatch=        2492 AvBLen=       108.3
 IPart= 13 NShTot=      244770 NShNF=      244770 NShFF=           0 NBatch=        2287 AvBLen=       107.0
 IPart= 30 NShTot=      293970 NShNF=      293970 NShFF=           0 NBatch=        2817 AvBLen=       104.4
 IPart= 14 NShTot=      295261 NShNF=      295261 NShFF=           0 NBatch=        2437 AvBLen=       121.2
 IPart=  0 NShTot=      277975 NShNF=      277975 NShFF=           0 NBatch=        2568 AvBLen=       108.2
 IPart=  4 NShTot=      286807 NShNF=      286807 NShFF=           0 NBatch=        2559 AvBLen=       112.1
 IPart= 23 NShTot=      286157 NShNF=      286157 NShFF=           0 NBatch=        2549 AvBLen=       112.3
 IPart=  8 NShTot=      283525 NShNF=      283525 NShFF=           0 NBatch=        2498 AvBLen=       113.5
 IPart= 17 NShTot=      282891 NShNF=      282891 NShFF=           0 NBatch=        2331 AvBLen=       121.4
 IPart=  6 NShTot=      251187 NShNF=      251187 NShFF=           0 NBatch=        2016 AvBLen=       124.6
 IPart=  3 NShTot=      276963 NShNF=      276963 NShFF=           0 NBatch=        2195 AvBLen=       126.2
 IPart= 27 NShTot=      275735 NShNF=      275735 NShFF=           0 NBatch=        2677 AvBLen=       103.0
 IPart= 28 NShTot=      247794 NShNF=      247794 NShFF=           0 NBatch=        2158 AvBLen=       114.8
 IPart=  5 NShTot=      254159 NShNF=      254159 NShFF=           0 NBatch=        2513 AvBLen=       101.1
 IPart= 25 NShTot=      284616 NShNF=      284616 NShFF=           0 NBatch=        2765 AvBLen=       102.9
 IPart= 15 NShTot=      305153 NShNF=      305153 NShFF=           0 NBatch=        2802 AvBLen=       108.9
 IPart= 29 NShTot=      224779 NShNF=      224779 NShFF=           0 NBatch=        1883 AvBLen=       119.4
 IPart= 31 NShTot=      302113 NShNF=      302113 NShFF=           0 NBatch=        2717 AvBLen=       111.2
 IPart=  9 NShTot=      279701 NShNF=      279701 NShFF=           0 NBatch=        2508 AvBLen=       111.5
 IPart=  7 NShTot=      240255 NShNF=      240255 NShFF=           0 NBatch=        2433 AvBLen=        98.7
 IPart= 21 NShTot=      236171 NShNF=      236171 NShFF=           0 NBatch=        2018 AvBLen=       117.0
 IPart= 12 NShTot=      253302 NShNF=      253302 NShFF=           0 NBatch=        2094 AvBLen=       121.0
 IPart= 22 NShTot=      250966 NShNF=      250966 NShFF=           0 NBatch=        2244 AvBLen=       111.8
 IPart= 10 NShTot=      243942 NShNF=      243942 NShFF=           0 NBatch=        2188 AvBLen=       111.5
 IPart= 19 NShTot=      251258 NShNF=      251258 NShFF=           0 NBatch=        2403 AvBLen=       104.6
 IPart= 11 NShTot=      277786 NShNF=      277786 NShFF=           0 NBatch=        2412 AvBLen=       115.2
 IPart=  2 NShTot=      250520 NShNF=      250520 NShFF=           0 NBatch=        2299 AvBLen=       109.0
 IPart= 24 NShTot=      269035 NShNF=      269035 NShFF=           0 NBatch=        2256 AvBLen=       119.3
 IPart= 16 NShTot=      258525 NShNF=      258525 NShFF=           0 NBatch=        2099 AvBLen=       123.2
 IPart= 20 NShTot=      279166 NShNF=      279166 NShFF=           0 NBatch=        2519 AvBLen=       110.8
 CoulSu:  NxtVal=       12530689.
 ReadGW:  IGet=0 IStart=           1 Next=           1 LGW=           0.
 Remaining memory in FofDFT      399.83 Mw
 CkSvGd:  ISavGI=        -1 IRadAn=       5 IRASav=       5 ISavGd=        -1.
 CalDSu:  NPrtUS=  32 ThrOK=T IAlg=1 NPAlg=2 DoDPD=T LenP=       45150 LenD1P=             0.
 IPart=  0 IRanGd=          0 ScrnBf=T ScrnGd=T RCrit=4.00D+00 DoMicB=T.
 IPart= 31         7554 of         8054 points in      13 batches and       47 microbatches, Max-NSigAt=      12 Max-NSgAt2=      12
 IPart=  2         9021 of        11086 points in      17 batches and       41 microbatches, Max-NSigAt=      12 Max-NSgAt2=      12
 IPart= 25         6575 of         7128 points in      12 batches and       50 microbatches, Max-NSigAt=      12 Max-NSgAt2=      12
 IPart=  4        10752 of        12260 points in      18 batches and       84 microbatches, Max-NSigAt=      12 Max-NSgAt2=      12
 IPart= 11         8265 of         9484 points in      14 batches and       30 microbatches, Max-NSigAt=      12 Max-NSgAt2=      12
 IPart= 23         9381 of        10382 points in      16 batches and       74 microbatches, Max-NSigAt=      12 Max-NSgAt2=      12
 IPart= 18         9761 of        11232 points in      18 batches and       65 microbatches, Max-NSigAt=      12 Max-NSgAt2=      12
 IPart= 21         7975 of         8868 points in      14 batches and       63 microbatches, Max-NSigAt=      12 Max-NSgAt2=      12
 IPart=  6         7757 of         8344 points in      13 batches and       54 microbatches, Max-NSigAt=      12 Max-NSgAt2=      12
 IPart= 10         6781 of         7848 points in      12 batches and       56 microbatches, Max-NSigAt=      12 Max-NSgAt2=      12
 IPart= 29         8802 of         9658 points in      15 batches and       35 microbatches, Max-NSigAt=      12 Max-NSgAt2=      12
 IPart= 14        11179 of        13402 points in      21 batches and       57 microbatches, Max-NSigAt=      12 Max-NSgAt2=      12
 IPart= 28         7045 of         8284 points in      13 batches and       81 microbatches, Max-NSigAt=      12 Max-NSgAt2=      12
 IPart= 15        11533 of        14388 points in      21 batches and       70 microbatches, Max-NSigAt=      12 Max-NSgAt2=      12
 IPart= 12         5508 of         6244 points in      10 batches and       46 microbatches, Max-NSigAt=      12 Max-NSgAt2=      12
 IPart= 26         6740 of         7094 points in      12 batches and       41 microbatches, Max-NSigAt=      12 Max-NSgAt2=      12
 IPart=  1         4704 of         5338 points in       9 batches and       43 microbatches, Max-NSigAt=      12 Max-NSgAt2=      12
 IPart=  5         7122 of         8070 points in      13 batches and       48 microbatches, Max-NSigAt=      12 Max-NSgAt2=      12
 IPart= 22         9659 of        10032 points in      14 batches and       27 microbatches, Max-NSigAt=      12 Max-NSgAt2=      12
 IPart= 17         6939 of         8770 points in      14 batches and       51 microbatches, Max-NSigAt=      12 Max-NSgAt2=      12
 IPart= 13         8510 of         9344 points in      14 batches and       56 microbatches, Max-NSigAt=      12 Max-NSgAt2=      12
 IPart= 24         8813 of        11602 points in      19 batches and       73 microbatches, Max-NSigAt=      12 Max-NSgAt2=      12
 IPart=  9         6138 of         6988 points in      11 batches and       44 microbatches, Max-NSigAt=      12 Max-NSgAt2=      12
 IPart= 30         7354 of         7638 points in      11 batches and       33 microbatches, Max-NSigAt=      12 Max-NSgAt2=      12
 IPart= 16         5495 of         5924 points in       9 batches and       36 microbatches, Max-NSigAt=      12 Max-NSgAt2=      12
 IPart=  7         6441 of         7220 points in      12 batches and       58 microbatches, Max-NSigAt=      12 Max-NSgAt2=      12
 IPart= 20         7002 of         8418 points in      13 batches and       60 microbatches, Max-NSigAt=      12 Max-NSgAt2=      12
 IPart=  3         7416 of         7800 points in      12 batches and       41 microbatches, Max-NSigAt=      12 Max-NSgAt2=      12
 IPart= 19         7146 of         7900 points in      11 batches and       24 microbatches, Max-NSigAt=      12 Max-NSgAt2=      12
 IPart= 27         4313 of         4500 points in       7 batches and       24 microbatches, Max-NSigAt=      12 Max-NSgAt2=      12
 IPart=  8         5322 of         5352 points in       8 batches and       19 microbatches, Max-NSigAt=      12 Max-NSgAt2=      12
 IPart=  0         6058 of         7002 points in      11 batches and       50 microbatches, Max-NSigAt=      12 Max-NSgAt2=      12
 Forces at end of L703
 I=    0 X=  -4.890100851594D-01 Y=   2.147084499074D-01 Z=  -9.511231148467D-02
 I=    1 X=   2.243438529752D-03 Y=   5.208993447307D-03 Z=   1.523185509179D-03
 I=    2 X=  -2.008459381546D-04 Y=  -3.499833273306D-04 Z=   5.485374037715D-04
 I=    3 X=   2.941729098804D-04 Y=  -1.380082679183D-04 Z=   9.065011223930D-05
 I=    4 X=  -8.503813268521D-04 Y=  -3.642269961683D-04 Z=  -1.343490099537D-04
 I=    5 X=  -7.982779446225D-05 Y=   2.117705610193D-04 Z=   2.181653669435D-04
 I=    6 X=  -1.885735253089D-03 Y=  -6.568340058942D-03 Z=  -4.431876801674D-03
 I=    7 X=  -1.306318180619D-04 Y=   8.422570298218D-04 Z=   1.244702390688D-03
 I=    8 X=  -3.678103332527D-05 Y=   6.847377992382D-04 Z=   2.789378046913D-04
 I=    9 X=   5.627220869826D-04 Y=   8.134552933963D-04 Z=   6.530665960254D-04
 I=   10 X=   2.214332326598D-04 Y=  -1.276848216104D-04 Z=  -1.318399302386D-04
 I=   11 X=   3.266476327958D-05 Y=  -6.807053326918D-05 Z=   1.337507356440D-04
 I=   12 X=  -1.702283586045D-04 Y=  -1.449001255307D-04 Z=   7.069822683059D-06
 FrcOut:
 IF    =    61 IFX   =    97 IFXYZ =   133
 IFFX  =   169 IFFFX =   169 IFLen =    36
 IFFLen=     0 IFFFLn=     0 IEDerv=   169
 LEDerv=  1781 IFroze=  2356 ICStrt=146681
 -------------------------------------------------------------------
 Center     Atomic                   Forces (Hartrees/Bohr)
 Number     Number              X              Y              Z
 -------------------------------------------------------------------
      1        6          -0.002243439   -0.005208993   -0.001523186
      2        8           0.000200846    0.000349983   -0.000548537
      3        1          -0.000294173    0.000138008   -0.000090650
      4        1           0.000850381    0.000364227    0.000134349
      5        1           0.000079828   -0.000211771   -0.000218165
      6        6           0.001885735    0.006568340    0.004431877
      7        6           0.000130632   -0.000842257   -0.001244702
      8        1           0.000036781   -0.000684738   -0.000278938
      9        1          -0.000562722   -0.000813455   -0.000653067
     10        1          -0.000221433    0.000127685    0.000131840
     11        1          -0.000032665    0.000068071   -0.000133751
     12        1           0.000170228    0.000144900   -0.000007070
 -------------------------------------------------------------------
 Cartesian Forces:  Max     0.006568340 RMS     0.001722099
 From PutF, contents of force:
   1   -0.8346849111D-03
   2   -0.3673168883D-04
   3   -0.3263194523D-03
   4   -0.6406891470D-03
   5   -0.2279738517D-03
   6    0.3629636146D-03
   7   -0.3112745415D-03
   8    0.1246525610D-02
   9    0.3475834358D-03
  10    0.1094147698D-02
  11   -0.1496118337D-03
  12   -0.5211196524D-03
  13   -0.1737185894D-03
  14    0.1635524375D-04
  15    0.2234048677D-04
  16   -0.2501548866D-03
  17    0.3506255269D-05
  18   -0.2834133565D-03
  19    0.2478095737D-03
  20    0.1872230742D-03
  21   -0.1864918637D-02
  22    0.1838550408D-03
  23    0.3889704200D-03
  24    0.2217166292D-03
  25    0.4121421177D-03
  26   -0.1657272667D-03
  27   -0.5964704828D-03
  28   -0.2319826442D-03
  29   -0.7667027707D-03
  30   -0.5274986316D-02
 -----------------------------------------------------------------------------------------------
                       Internal Coordinate Forces (Hartree/Bohr or radian)
  Cent   Atom   N1       Length/X         N2         Alpha/Y        N3         Beta/Z          J
 -----------------------------------------------------------------------------------------------
      1  C 
      2  O        1  -0.000767(     1)
      3  H        1  -0.000232(     2)      2   0.000412(    12)
      4  H        1  -0.000596(     3)      2   0.000363(    13)      3   0.001247(    22)     0
      5  H        2  -0.000166(     4)      1  -0.000311(    14)      3   0.000348(    23)     0
      6  C        1  -0.005275(     5)      2  -0.000228(    15)      3  -0.000641(    24)     0
      7  C        6   0.001094(     6)      1  -0.000326(    16)      2  -0.000037(    25)     0
      8  H        6  -0.000150(     7)      7  -0.000250(    17)      1  -0.000835(    26)     0
      9  H        6  -0.000521(     8)      7   0.000004(    18)      8  -0.001865(    27)     0
     10  H        7  -0.000174(     9)      6  -0.000283(    19)      8   0.000222(    28)     0
     11  H        7   0.000016(    10)      6   0.000248(    20)     10   0.000184(    29)     0
     12  H        7   0.000022(    11)      6   0.000187(    21)     10   0.000389(    30)     0
 -----------------------------------------------------------------------------------------------
 Internal  Forces:  Max     0.005274986 RMS     0.001120478
 Final forces over variables, Energy=-1.94235082D+02:
 -8.34684911D-04-3.67316888D-05-3.26319452D-04-6.40689147D-04
 -2.27973852D-04 3.62963615D-04-3.11274542D-04 1.24652561D-03
  3.47583436D-04 1.09414770D-03-1.49611834D-04-5.21119652D-04
 -1.73718589D-04 1.63552438D-05 2.23404868D-05-2.50154887D-04
  3.50625527D-06-2.83413356D-04 2.47809574D-04 1.87223074D-04
 -1.86491864D-03 1.83855041D-04 3.88970420D-04 2.21716629D-04
  4.12142118D-04-1.65727267D-04-5.96470483D-04-2.31982644D-04
 -7.66702771D-04-5.27498632D-03

 GradGradGradGradGradGradGradGradGradGradGradGradGradGradGradGradGradGrad
 Berny optimization.
 Search for a local minimum.
 Step number   2 out of a maximum of   50
 All quantities printed in internal units (Hartrees-Bohrs-Radians)
 Update second derivatives using D2CorN and points    2
 DE= -3.35D-06 DEPred=-1.72D-06 R= 1.95D+00
 TightC=F SS=  1.41D+00  RLast= 4.19D-03 DXNew= 5.0454D-01 1.2579D-02
 Trust test= 1.95D+00 RLast= 4.19D-03 DXMaxT set to 3.00D-01
 ITU=  1  0
     Eigenvalues ---    0.02068   0.25806   0.336491000.000001000.00000
     Eigenvalues --- 1000.000001000.000001000.000001000.000001000.00000
     Eigenvalues --- 1000.000001000.000001000.000001000.000001000.00000
     Eigenvalues --- 1000.000001000.000001000.000001000.000001000.00000
     Eigenvalues --- 1000.000001000.000001000.000001000.000001000.00000
     Eigenvalues --- 1000.000001000.000001000.000001000.000001000.00000
 RFO step:  Lambda=-5.46863485D-06 EMin= 2.06797839D-02
 Quartic linear search produced a step of  2.00000.
 Variable       Old X    -DE/DX   Delta X   Delta X   Delta X     New X
                                 (Linear)    (Quad)   (Total)
  BABS3       1.75444  -0.00083  -0.00684  -0.00056  -0.00740   1.74704
  BABS2       3.51021  -0.00004  -0.00438   0.01601   0.01163   3.52184
  AABS2       1.73383  -0.00033  -0.00210  -0.00030  -0.00240   1.73144
  BABS1       1.82238  -0.00064   0.00000   0.00000   0.00000   1.82238
  AABS1       1.98419  -0.00023   0.00000   0.00000   0.00000   1.98419
    A3        2.07773   0.00036   0.00000   0.00000   0.00000   2.07773
    A4        1.91774  -0.00031   0.00000   0.00000   0.00000   1.91774
    D3        3.59107   0.00125   0.00000   0.00000   0.00000   3.59107
    D4        3.05743   0.00035   0.00000   0.00000   0.00000   3.05743
   R21        2.80039   0.00109   0.00000   0.00000   0.00000   2.80039
   R22        2.04166  -0.00015   0.00000   0.00000   0.00000   2.04166
   R23        2.04147  -0.00052   0.00000   0.00000   0.00000   2.04147
   R24        2.06150  -0.00017   0.00000   0.00000   0.00000   2.06150
   R25        2.07624   0.00002   0.00000   0.00000   0.00000   2.07624
   R26        2.06169   0.00002   0.00000   0.00000   0.00000   2.06169
   A22        2.10998  -0.00025   0.00000   0.00000   0.00000   2.10998
   A23        2.11001   0.00000   0.00000   0.00000   0.00000   2.11001
   A24        1.95093  -0.00028   0.00000   0.00000   0.00000   1.95093
   A25        1.94864   0.00025   0.00000   0.00000   0.00000   1.94864
   A26        1.95094   0.00019   0.00000   0.00000   0.00000   1.95094
   D23        3.00207  -0.00186   0.00000   0.00000   0.00000   3.00207
   D25        2.08059   0.00018   0.00000   0.00000   0.00000   2.08059
   D26        4.16079   0.00039   0.00000   0.00000   0.00000   4.16079
   D24        2.70779   0.00022   0.00000   0.00000   0.00000   2.70779
    A2        1.98912   0.00041   0.00000   0.00000   0.00000   1.98912
    R4        1.80903  -0.00017   0.00000   0.00000   0.00000   1.80903
    R3        2.04412  -0.00060   0.00000   0.00000   0.00000   2.04412
    R2        2.03694  -0.00023   0.00000   0.00000   0.00000   2.03694
    R1        2.56549  -0.00077   0.00000   0.00000   0.00000   2.56549
   RTS        6.04712  -0.00527   0.00000   0.00000   0.00000   6.04712
         Item               Value     Threshold  Converged?
 Maximum Force            0.000835     0.000450     NO 
 RMS     Force            0.000518     0.000300     NO 
 Maximum Displacement     0.011630     0.001800     NO 
 RMS     Displacement     0.002554     0.001200     NO 
 Predicted change in Energy=-3.067714D-06
 GradGradGradGradGradGradGradGradGradGradGradGradGradGradGradGradGradGrad

 ---------------------------------------------------------------------------------------------------
                            Z-MATRIX (ANGSTROMS AND DEGREES)
   CD    Cent   Atom    N1       Length/X        N2       Alpha/Y        N3        Beta/Z          J
 ---------------------------------------------------------------------------------------------------
      1      1  C 
      2      2  O        1   1.357600(     1)
      3      3  H        1   1.077900(     2)      2  113.968(    12)
      4      4  H        1   1.081700(     3)      2  119.045(    13)      3  205.753(    22)      0
      5      5  H        2   0.957300(     4)      1  109.878(    14)      3  175.178(    23)      0
      6      6  C        1   3.200000(     5)      2  113.686(    15)      3  104.415(    24)      0
      7      7  C        6   1.481900(     6)      1   99.204(    16)      2  201.786(    25)      0
      8      8  H        6   1.080400(     7)      7  120.893(    17)      1  100.098(    26)      0
      9      9  H        6   1.080300(     8)      7  120.894(    18)      8  172.006(    27)      0
     10     10  H        7   1.090900(     9)      6  111.780(    19)      8  155.145(    28)      0
     11     11  H        7   1.098700(    10)      6  111.649(    20)     10  119.209(    29)      0
     12     12  H        7   1.091000(    11)      6  111.781(    21)     10  238.396(    30)      0
 ---------------------------------------------------------------------------------------------------
                         Z-Matrix orientation:                         
 ---------------------------------------------------------------------
 Center     Atomic      Atomic             Coordinates (Angstroms)
 Number     Number       Type             X           Y           Z
 ---------------------------------------------------------------------
      1          6           0        0.000000    0.000000    0.000000
      2          8           0        0.000000    0.000000    1.357600
      3          1           0        0.984955    0.000000   -0.437871
      4          1           0       -0.851738    0.410883   -0.525160
      5          1           0       -0.897076    0.075675    1.683103
      6          6           0       -0.729488   -2.838187   -1.285512
      7          6           0       -0.121853   -2.655074   -2.624644
      8          1           0       -1.792288   -2.713247   -1.136817
      9          1           0       -0.148047   -3.223385   -0.460529
     10          1           0        0.932614   -2.383801   -2.557014
     11          1           0       -0.169686   -3.576661   -3.220908
     12          1           0       -0.637430   -1.885762   -3.201377
 ---------------------------------------------------------------------
                    Distance matrix (angstroms):
                    1          2          3          4          5
     1  C    0.000000
     2  O    1.357600   0.000000
     3  H    1.077900   2.047890   0.000000
     4  H    1.081700   2.106909   1.884114   0.000000
     5  H    1.908745   0.957300   2.836600   2.234020   0.000000
     6  C    3.200000   3.946327   3.422443   3.339092   4.163094
     7  C    3.735375   4.787749   3.613367   3.786906   5.158938
     8  H    3.444758   4.098307   3.945037   3.319480   4.065887
     9  H    3.259481   3.703744   3.416785   3.702332   4.004997
    10  H    3.618093   4.677230   3.189986   3.888779   5.232148
    11  H    4.816176   5.812404   4.676644   4.861354   6.157758
    12  H    3.769778   4.974604   3.718225   3.533078   5.269990
                    6          7          8          9         10
     6  C    0.000000
     7  C    1.481900   0.000000
     8  H    1.080400   2.237716   0.000000
     9  H    1.080300   2.237646   1.849631   0.000000
    10  H    2.141441   1.090900   3.090402   2.503593   0.000000
    11  H    2.145806   1.098700   2.778805   2.782978   1.754633
    12  H    2.141525   1.091000   2.506160   3.088848   1.768695
                   11         12
    11  H    0.000000
    12  H    1.754510   0.000000
 Symmetry turned off by external request.
 Stoichiometry    C3H8O
 Framework group  C1[X(C3H8O)]
 Deg. of freedom    30
 Full point group                 C1      NOp   1
 Rotational constants (GHZ):     17.0273532      2.0374266      1.9076972
 Standard basis: Jun-CC-pVTZ (5D, 7F)
   268 basis functions,   384 primitive gaussians,   300 cartesian basis functions
    17 alpha electrons       17 beta electrons
       nuclear repulsion energy       111.1792575970 Hartrees.
 NAtoms=   12 NActive=   12 NUniq=   12 SFac= 1.00D+00 NAtFMM=   60 NAOKFM=F Big=F
 Integral buffers will be    131072 words long.
 Raffenetti 2 integral format.
 Two-electron integral symmetry is turned off.
 Nuclear repulsion after empirical dispersion term =      111.1758145330 Hartrees.
 One-electron integrals computed using PRISM.
 NBasis=   268 RedAO= T EigKep=  1.05D-04  NBF=   268
 NBsUse=   268 1.00D-06 EigRej= -1.00D+00 NBFU=   268
 ExpMin= 3.57D-02 ExpMax= 1.53D+04 ExpMxC= 5.22D+02 IAcc=3 IRadAn=         5 AccDes= 0.00D+00
 Harris functional with IExCor= 4639 and IRadAn=       5 diagonalized for initial guess.
 HarFok:  IExCor= 4639 AccDes= 0.00D+00 IRadAn=         5 IDoV= 1 UseB2=F ITyADJ=14
 ICtDFT=  3500011 ScaDFX=  1.000000  1.000000  1.000000  1.000000
 FoFCou: FMM=F IPFlag=           0 FMFlag=      100000 FMFlg1=           0
         NFxFlg=           0 DoJE=T BraDBF=F KetDBF=T FulRan=T
         wScrn=  0.000000 ICntrl=     500 IOpCl=  0 I1Cent=   200000004 NGrid=           0
         NMat0=    1 NMatS0=      1 NMatT0=    0 NMatD0=    1 NMtDS0=    0 NMtDT0=    0
 Symmetry not used in FoFCou.
 Mixing orbitals, IMix= 1 IMixAn=  0 NRI=1 NE=   17 Coef=  7.07106781D-01  7.07106781D-01
 Mixing orbitals, IMix= 1 IMixAn=  0 NRI=1 NE=   17 Coef= -7.07106781D-01  7.07106781D-01
 Initial guess <Sx>= 0.0000 <Sy>= 0.0000 <Sz>= 0.0000 <S**2>= 1.0000 S= 0.6180
 Requested convergence on RMS density matrix=1.00D-08 within 128 cycles.
 Requested convergence on MAX density matrix=1.00D-06.
 Requested convergence on             energy=1.00D-06.
 No special actions if energy rises.
 SCF Done:  E(UwB97XD) =  -194.235088085     A.U. after   15 cycles
            NFock= 15  Conv=0.65D-08     -V/T= 2.0066
 <Sx>= 0.0000 <Sy>= 0.0000 <Sz>= 0.0000 <S**2>= 0.8998 S= 0.5723
 <L.S>=  0.00000000000    
 Annihilation of the first spin contaminant:
 S**2 before annihilation     0.8998,   after     0.0509
 DipInt: DoE/N= T T RetVal/Mat= T F Init=T NMatP=  1 IDeriv=0 Min/MaxMlt=  1  1
 Entering OneElI...
 Multipole integrals L=1 to 1 MinM= 0 MaxM= 0.
 Requested accuracy = 0.1000D-12
 PrsmSu:  NPrtUS=   1 ThrOK=F IAlg=1 NPAlg=1 LenDen=           0.
 Prism:   IPart=     0 DynPar=F LinDyn=F Incr=          48.
 PRISM was handed   419025084 working-precision words and  4849 shell-pairs
 IPart=  0 NShTot=        4849 NBatch=          61 AvBLen=        79.5
 PrSmSu:  NxtVal=             49.
 Entering OneElI...
 Calculate overlap and kinetic energy integrals
    NBasis = 300  MinDer = 1  MaxDer = 1
 Requested accuracy = 0.1000D-12
 PrsmSu:  NPrtUS=  32 ThrOK=T IAlg=1 NPAlg=1 LenDen=           0.
 PRISM was handed    12996550 working-precision words and  4989 shell-pairs
 PRISM was handed    12996550 working-precision words and  4989 shell-pairs
 PRISM was handed    12996550 working-precision words and  4989 shell-pairs
 PRISM was handed    12996550 working-precision words and  4989 shell-pairs
 PRISM was handed    12996550 working-precision words and  4989 shell-pairs
 Prism:   IPart=     0 DynPar=F LinDyn=F Incr=           1.
 PRISM was handed    12996550 working-precision words and  4989 shell-pairs
 PRISM was handed    12996550 working-precision words and  4989 shell-pairs
 PRISM was handed    12996550 working-precision words and  4989 shell-pairs
 PRISM was handed    12996550 working-precision words and  4989 shell-pairs
 PRISM was handed    12996550 working-precision words and  4989 shell-pairs
 PRISM was handed    12996550 working-precision words and  4989 shell-pairs
 PRISM was handed    12996550 working-precision words and  4989 shell-pairs
 PRISM was handed    12996550 working-precision words and  4989 shell-pairs
 PRISM was handed    12996550 working-precision words and  4989 shell-pairs
 PRISM was handed    12996550 working-precision words and  4989 shell-pairs
 PRISM was handed    12996550 working-precision words and  4989 shell-pairs
 IPart=  6 NShTot=         172 NBatch=          36 AvBLen=         4.8
 IPart= 30 NShTot=         140 NBatch=          20 AvBLen=         7.0
 PRISM was handed    12996550 working-precision words and  4989 shell-pairs
 PRISM was handed    12996550 working-precision words and  4989 shell-pairs
 IPart= 15 NShTot=         150 NBatch=          22 AvBLen=         6.8
 PRISM was handed    12996550 working-precision words and  4989 shell-pairs
 PRISM was handed    12996550 working-precision words and  4989 shell-pairs
 PRISM was handed    12996550 working-precision words and  4989 shell-pairs
 IPart= 13 NShTot=         157 NBatch=          26 AvBLen=         6.0
 IPart=  3 NShTot=         183 NBatch=          44 AvBLen=         4.2
 PRISM was handed    12996550 working-precision words and  4989 shell-pairs
 PRISM was handed    12996550 working-precision words and  4989 shell-pairs
 PRISM was handed    12996550 working-precision words and  4989 shell-pairs
 PRISM was handed    12996550 working-precision words and  4989 shell-pairs
 PRISM was handed    12996550 working-precision words and  4989 shell-pairs
 PRISM was handed    12996550 working-precision words and  4989 shell-pairs
 PRISM was handed    12996550 working-precision words and  4989 shell-pairs
 PRISM was handed    12996550 working-precision words and  4989 shell-pairs
 PRISM was handed    12996550 working-precision words and  4989 shell-pairs
 PRISM was handed    12996550 working-precision words and  4989 shell-pairs
 PRISM was handed    12996550 working-precision words and  4989 shell-pairs
 IPart= 25 NShTot=         143 NBatch=          21 AvBLen=         6.8
 IPart= 26 NShTot=         142 NBatch=          20 AvBLen=         7.1
 IPart=  0 NShTot=         198 NBatch=          58 AvBLen=         3.4
 IPart= 17 NShTot=         146 NBatch=          21 AvBLen=         7.0
 IPart=  4 NShTot=         174 NBatch=          36 AvBLen=         4.8
 IPart= 11 NShTot=         157 NBatch=          26 AvBLen=         6.0
 IPart= 12 NShTot=         157 NBatch=          26 AvBLen=         6.0
 IPart= 28 NShTot=         142 NBatch=          20 AvBLen=         7.1
 IPart= 22 NShTot=         144 NBatch=          21 AvBLen=         6.9
 IPart= 19 NShTot=         145 NBatch=          21 AvBLen=         6.9
 IPart= 14 NShTot=         152 NBatch=          22 AvBLen=         6.9
 IPart= 21 NShTot=         145 NBatch=          21 AvBLen=         6.9
 IPart= 10 NShTot=         157 NBatch=          26 AvBLen=         6.0
 IPart= 16 NShTot=         146 NBatch=          21 AvBLen=         7.0
 IPart=  5 NShTot=         172 NBatch=          36 AvBLen=         4.8
 IPart= 24 NShTot=         143 NBatch=          21 AvBLen=         6.8
 IPart= 29 NShTot=         141 NBatch=          20 AvBLen=         7.0
 IPart= 27 NShTot=         142 NBatch=          20 AvBLen=         7.1
 IPart=  7 NShTot=         172 NBatch=          36 AvBLen=         4.8
 IPart=  1 NShTot=         189 NBatch=          50 AvBLen=         3.8
 IPart= 20 NShTot=         145 NBatch=          21 AvBLen=         6.9
 IPart=  2 NShTot=         185 NBatch=          46 AvBLen=         4.0
 IPart= 18 NShTot=         145 NBatch=          21 AvBLen=         6.9
 IPart= 23 NShTot=         143 NBatch=          21 AvBLen=         6.8
 IPart= 31 NShTot=         140 NBatch=          20 AvBLen=         7.0
 IPart=  9 NShTot=         159 NBatch=          27 AvBLen=         5.9
 IPart=  8 NShTot=         163 NBatch=          31 AvBLen=         5.3
 PrSmSu:  NxtVal=             33.
 Entering OneElI...
 Calculate potential energy integrals
    NBasis = 300  MinDer = 1  MaxDer = 1
 Requested accuracy = 0.1000D-12
 PrsmSu:  NPrtUS=  32 ThrOK=T IAlg=1 NPAlg=1 LenDen=           0.
 PRISM was handed    13013655 working-precision words and  4622 shell-pairs
 PRISM was handed    13013655 working-precision words and  4622 shell-pairs
 PRISM was handed    13013655 working-precision words and  4622 shell-pairs
 PRISM was handed    13013655 working-precision words and  4622 shell-pairs
 PRISM was handed    13013655 working-precision words and  4622 shell-pairs
 PRISM was handed    13013655 working-precision words and  4622 shell-pairs
 PRISM was handed    13013655 working-precision words and  4622 shell-pairs
 PRISM was handed    13013655 working-precision words and  4622 shell-pairs
 PRISM was handed    13013655 working-precision words and  4622 shell-pairs
 PRISM was handed    13013655 working-precision words and  4622 shell-pairs
 PRISM was handed    13013655 working-precision words and  4622 shell-pairs
 Prism:   IPart=     0 DynPar=F LinDyn=F Incr=          17.
 PRISM was handed    13013655 working-precision words and  4622 shell-pairs
 PRISM was handed    13013655 working-precision words and  4622 shell-pairs
 PRISM was handed    13013655 working-precision words and  4622 shell-pairs
 PRISM was handed    13013655 working-precision words and  4622 shell-pairs
 PRISM was handed    13013655 working-precision words and  4622 shell-pairs
 PRISM was handed    13013655 working-precision words and  4622 shell-pairs
 PRISM was handed    13013655 working-precision words and  4622 shell-pairs
 PRISM was handed    13013655 working-precision words and  4622 shell-pairs
 PRISM was handed    13013655 working-precision words and  4622 shell-pairs
 PRISM was handed    13013655 working-precision words and  4622 shell-pairs
 PRISM was handed    13013655 working-precision words and  4622 shell-pairs
 PRISM was handed    13013655 working-precision words and  4622 shell-pairs
 PRISM was handed    13013655 working-precision words and  4622 shell-pairs
 PRISM was handed    13013655 working-precision words and  4622 shell-pairs
 PRISM was handed    13013655 working-precision words and  4622 shell-pairs
 PRISM was handed    13013655 working-precision words and  4622 shell-pairs
 PRISM was handed    13013655 working-precision words and  4622 shell-pairs
 PRISM was handed    13013655 working-precision words and  4622 shell-pairs
 PRISM was handed    13013655 working-precision words and  4622 shell-pairs
 PRISM was handed    13013655 working-precision words and  4622 shell-pairs
 PRISM was handed    13013655 working-precision words and  4622 shell-pairs
 IPart= 24 NShTot=        1572 NBatch=         131 AvBLen=        12.0
 IPart= 17 NShTot=        1644 NBatch=         137 AvBLen=        12.0
 IPart= 12 NShTot=        1704 NBatch=         142 AvBLen=        12.0
 IPart= 22 NShTot=        1584 NBatch=         132 AvBLen=        12.0
 IPart= 16 NShTot=        1656 NBatch=         138 AvBLen=        12.0
 IPart=  6 NShTot=        1896 NBatch=         158 AvBLen=        12.0
 IPart=  3 NShTot=        2040 NBatch=         170 AvBLen=        12.0
 IPart= 18 NShTot=        1644 NBatch=         137 AvBLen=        12.0
 IPart=  4 NShTot=        1932 NBatch=         161 AvBLen=        12.0
 IPart= 27 NShTot=        1548 NBatch=         129 AvBLen=        12.0
 IPart= 25 NShTot=        1572 NBatch=         131 AvBLen=        12.0
 IPart=  1 NShTot=        2184 NBatch=         182 AvBLen=        12.0
 IPart=  9 NShTot=        1776 NBatch=         148 AvBLen=        12.0
 IPart= 26 NShTot=        1572 NBatch=         131 AvBLen=        12.0
 IPart= 19 NShTot=        1644 NBatch=         137 AvBLen=        12.0
 IPart= 29 NShTot=        1548 NBatch=         129 AvBLen=        12.0
 IPart= 20 NShTot=        1644 NBatch=         137 AvBLen=        12.0
 IPart= 21 NShTot=        1620 NBatch=         135 AvBLen=        12.0
 IPart= 30 NShTot=        1548 NBatch=         129 AvBLen=        12.0
 IPart=  7 NShTot=        1860 NBatch=         155 AvBLen=        12.0
 IPart= 31 NShTot=        1548 NBatch=         129 AvBLen=        12.0
 IPart= 23 NShTot=        1584 NBatch=         132 AvBLen=        12.0
 IPart=  8 NShTot=        1812 NBatch=         151 AvBLen=        12.0
 IPart= 15 NShTot=        1680 NBatch=         140 AvBLen=        12.0
 IPart=  5 NShTot=        1920 NBatch=         160 AvBLen=        12.0
 IPart= 14 NShTot=        1692 NBatch=         141 AvBLen=        12.0
 IPart= 10 NShTot=        1728 NBatch=         144 AvBLen=        12.0
 IPart= 13 NShTot=        1692 NBatch=         141 AvBLen=        12.0
 IPart= 11 NShTot=        1716 NBatch=         143 AvBLen=        12.0
 IPart=  2 NShTot=        2076 NBatch=         173 AvBLen=        12.0
 IPart= 28 NShTot=        1548 NBatch=         129 AvBLen=        12.0
 IPart=  0 NShTot=        2280 NBatch=         190 AvBLen=        12.0
 PrSmSu:  NxtVal=            545.
 l701 out
 I=    0 X=  -4.883728912561D-01 Y=   2.146445917183D-01 Z=  -9.476370098721D-02
 I=    1 X=   4.606176878501D-01 Y=   8.034943377881D-01 Z=  -4.242950804301D+00
 I=    2 X=   2.838312455884D+00 Y=   1.037927332660D+00 Z=   8.333698428721D+00
 I=    3 X=   3.168881898919D+00 Y=   1.605564905045D-01 Z=  -1.606808037971D+00
 I=    4 X=  -2.664928592746D+00 Y=   1.563648449732D+00 Z=  -1.819865262380D+00
 I=    5 X=  -3.094149461619D+00 Y=   4.338530393050D-01 Z=   2.493168462110D+00
 I=    6 X=  -1.433732784880D+00 Y=  -2.006022253468D+00 Z=   7.126788445667D-01
 I=    7 X=   8.620547682167D-01 Y=  -8.939765339740D-01 Z=  -3.256440361749D+00
 I=    8 X=  -3.406164009517D+00 Y=   1.158932774305D-01 Z=   6.810121186112D-01
 I=    9 X=   1.572022422377D+00 Y=  -1.504656352736D+00 Z=   2.731021871623D+00
 I=   10 X=   3.120530234465D+00 Y=   6.877815338122D-01 Z=  -1.637758666476D-01
 I=   11 X=  -4.627848660706D-02 Y=  -2.515153468807D+00 Z=  -1.864259813305D+00
 I=   12 X=  -1.377166132343D+00 Y=   2.116654147752D+00 Z=  -1.997479579280D+00
 ICntrl=      2127.
 Calling FoFJK, ICntrl=      2127 FMM=F ISym2X=0 I1Cent= 0 IOpClX= 1 NMat=1 NMatS=1 NMatT=0.
 FoFJK:  IHMeth= 1 ICntrl=    2127 DoSepK=T KAlg= 0 I1Cent=   0 FoldK=F
 IRaf=         1 NMat=   1 IRICut=       1 DoRegI=T DoRafI=F ISym2E= 0.
 FoFCou: FMM=F IPFlag=           0 FMFlag=      100000 FMFlg1=         800
         NFxFlg=           0 DoJE=F BraDBF=F KetDBF=F FulRan=T
         wScrn=  0.000000 ICntrl=    2527 IOpCl=  0 I1Cent=           0 NGrid=           0
         NMat0=    1 NMatS0=      1 NMatT0=    0 NMatD0=    1 NMtDS0=    0 NMtDT0=    0
 Symmetry not used in FoFCou.
 FoFCou:  KetSym=F NOpSet=  1 NOpAb=1 NOp=  1.
 FoFCou:  CnvScl= 1.00D+00 Thresh= 1.00D-10 IAcrcy=      10.
 PrismS was handed   418932730 working-precision words and  4798 shell-pairs
 FoFCou: LinMIO=F DoNuc=F BraDBF=F KetDBF=F HaveP=T PDBF=F HaveZ=T HaveW=F
         NIJTC =      10 NIJTAt=       0 NIJTCD=       0 NIJTT =      10
         IJTBeg=       1 IJTEnd=      10 KLTBeg=       1 KLTEnd=      10
         IPTBeg=       1 IPTEnd=      10 IPTBCv=       1 IPTECv=      10
         IZTBeg=       1 IZTEnd=      10 IZTBCv=       1 IZTECv=      10
         IWTBeg=      11 IWTEnd=      10 IWTBCv=      11 IWTECv=      10
         INTBeg=       1 INTEnd=       0 IFTBCv=       1 IFTECv=      10
 NCel replicated for PrismC:     1
 CoulSu:  IncDef=  1024 NBBP=       11512801 NTPThr=   100 NPartT=   32 Incr=        1024 LDynOK=F.
 CoulSu:  NPrtUS=  32 ThrOK=T IAlg=1 NPAlg=1 LenDen=           0 LWGrdD=           0 DoCopy=F.
 Enter PrismC: JobTyp=21 DoJE=F Cont=F.
 Enter PrismC: JobTyp=21 DoJE=F Cont=F.
 Enter PrismC: JobTyp=21 DoJE=F Cont=F.
 PrismC was handed    13006720 working-precision words and  4798 shell-pairs
 Enter PrismC: JobTyp=21 DoJE=F Cont=F.
 Enter PrismC: JobTyp=21 DoJE=F Cont=F.
 PrismC was handed    13006720 working-precision words and  4798 shell-pairs
 Enter PrismC: JobTyp=21 DoJE=F Cont=F.
 PrismC was handed    13006720 working-precision words and  4798 shell-pairs
 Enter PrismC: JobTyp=21 DoJE=F Cont=F.
 PrismC was handed    13006720 working-precision words and  4798 shell-pairs
 Enter PrismC: JobTyp=21 DoJE=F Cont=F.
 Enter PrismC: JobTyp=21 DoJE=F Cont=F.
 PrismC was handed    13006720 working-precision words and  4798 shell-pairs
 Enter PrismC: JobTyp=21 DoJE=F Cont=F.
 PrismC was handed    13006720 working-precision words and  4798 shell-pairs
 Enter PrismC: JobTyp=21 DoJE=F Cont=F.
 PrismC was handed    13006720 working-precision words and  4798 shell-pairs
 Enter PrismC: JobTyp=21 DoJE=F Cont=F.
 PrismC was handed    13006720 working-precision words and  4798 shell-pairs
 Enter PrismC: JobTyp=21 DoJE=F Cont=F.
 PrismC was handed    13006720 working-precision words and  4798 shell-pairs
 Enter PrismC: JobTyp=21 DoJE=F Cont=F.
 Enter PrismC: JobTyp=21 DoJE=F Cont=F.
 PrismC was handed    13006720 working-precision words and  4798 shell-pairs
 Enter PrismC: JobTyp=21 DoJE=F Cont=F.
 PrismC was handed    13006720 working-precision words and  4798 shell-pairs
 Enter PrismC: JobTyp=21 DoJE=F Cont=F.
 PrismC was handed    13006720 working-precision words and  4798 shell-pairs
 Enter PrismC: JobTyp=21 DoJE=F Cont=F.
 PrismC was handed    13006720 working-precision words and  4798 shell-pairs
 Enter PrismC: JobTyp=21 DoJE=F Cont=F.
 Enter PrismC: JobTyp=21 DoJE=F Cont=F.
 PrismC:  IPart=     0 DynPar=T LinDyn=F Incr=        1024 UseFst=F UseS4=T IGathr=2.
 PrismC was handed    13006720 working-precision words and  4798 shell-pairs
 PrismC was handed    13006720 working-precision words and  4798 shell-pairs
 PrismC was handed    13006720 working-precision words and  4798 shell-pairs
 Enter PrismC: JobTyp=21 DoJE=F Cont=F.
 PrismC was handed    13006720 working-precision words and  4798 shell-pairs
 Enter PrismC: JobTyp=21 DoJE=F Cont=F.
 Enter PrismC: JobTyp=21 DoJE=F Cont=F.
 Enter PrismC: JobTyp=21 DoJE=F Cont=F.
 PrismC was handed    13006720 working-precision words and  4798 shell-pairs
 Enter PrismC: JobTyp=21 DoJE=F Cont=F.
 Enter PrismC: JobTyp=21 DoJE=F Cont=F.
 Enter PrismC: JobTyp=21 DoJE=F Cont=F.
 Enter PrismC: JobTyp=21 DoJE=F Cont=F.
 Enter PrismC: JobTyp=21 DoJE=F Cont=F.
 PrismC was handed    13006720 working-precision words and  4798 shell-pairs
 Enter PrismC: JobTyp=21 DoJE=F Cont=F.
 Enter PrismC: JobTyp=21 DoJE=F Cont=F.
 PrismC was handed    13006720 working-precision words and  4798 shell-pairs
 Enter PrismC: JobTyp=21 DoJE=F Cont=F.
 PrismC was handed    13006720 working-precision words and  4798 shell-pairs
 PrismC was handed    13006720 working-precision words and  4798 shell-pairs
 PrismC was handed    13006720 working-precision words and  4798 shell-pairs
 PrismC was handed    13006720 working-precision words and  4798 shell-pairs
 PrismC was handed    13006720 working-precision words and  4798 shell-pairs
 PrismC was handed    13006720 working-precision words and  4798 shell-pairs
 PrismC was handed    13006720 working-precision words and  4798 shell-pairs
 PrismC was handed    13006720 working-precision words and  4798 shell-pairs
 PrismC was handed    13006720 working-precision words and  4798 shell-pairs
 PrismC was handed    13006720 working-precision words and  4798 shell-pairs
 PrismC was handed    13006720 working-precision words and  4798 shell-pairs
 PrismC was handed    13006720 working-precision words and  4798 shell-pairs
 IPart=  7 NShTot=      270644 NShNF=      270644 NShFF=           0 NBatch=        1804 AvBLen=       150.0
 IPart= 23 NShTot=      301354 NShNF=      301354 NShFF=           0 NBatch=        1999 AvBLen=       150.8
 IPart= 21 NShTot=      224378 NShNF=      224378 NShFF=           0 NBatch=        1769 AvBLen=       126.8
 IPart= 13 NShTot=      315052 NShNF=      315052 NShFF=           0 NBatch=        2155 AvBLen=       146.2
 IPart= 15 NShTot=      247390 NShNF=      247390 NShFF=           0 NBatch=        2167 AvBLen=       114.2
 IPart= 24 NShTot=      276754 NShNF=      276754 NShFF=           0 NBatch=        1769 AvBLen=       156.4
 IPart=  9 NShTot=      317759 NShNF=      317759 NShFF=           0 NBatch=        2463 AvBLen=       129.0
 IPart= 18 NShTot=      261912 NShNF=      261912 NShFF=           0 NBatch=        1919 AvBLen=       136.5
 IPart=  4 NShTot=      254185 NShNF=      254185 NShFF=           0 NBatch=        1789 AvBLen=       142.1
 IPart= 17 NShTot=      321714 NShNF=      321714 NShFF=           0 NBatch=        1938 AvBLen=       166.0
 IPart= 25 NShTot=      240555 NShNF=      240555 NShFF=           0 NBatch=        1593 AvBLen=       151.0
 IPart= 20 NShTot=      258322 NShNF=      258322 NShFF=           0 NBatch=        2009 AvBLen=       128.6
 IPart= 10 NShTot=      283436 NShNF=      283436 NShFF=           0 NBatch=        1985 AvBLen=       142.8
 IPart= 26 NShTot=      288228 NShNF=      288228 NShFF=           0 NBatch=        1890 AvBLen=       152.5
 IPart= 29 NShTot=      243561 NShNF=      243561 NShFF=           0 NBatch=        1895 AvBLen=       128.5
 IPart=  5 NShTot=      232461 NShNF=      232461 NShFF=           0 NBatch=        1759 AvBLen=       132.2
 IPart=  0 NShTot=      252249 NShNF=      252249 NShFF=           0 NBatch=        1796 AvBLen=       140.5
 IPart= 30 NShTot=      244944 NShNF=      244944 NShFF=           0 NBatch=        1978 AvBLen=       123.8
 IPart=  3 NShTot=      290712 NShNF=      290712 NShFF=           0 NBatch=        1886 AvBLen=       154.1
 IPart= 31 NShTot=      278498 NShNF=      278498 NShFF=           0 NBatch=        2309 AvBLen=       120.6
 IPart=  1 NShTot=      249679 NShNF=      249679 NShFF=           0 NBatch=        1633 AvBLen=       152.9
 IPart= 16 NShTot=      262471 NShNF=      262471 NShFF=           0 NBatch=        1973 AvBLen=       133.0
 IPart= 11 NShTot=      280194 NShNF=      280194 NShFF=           0 NBatch=        1943 AvBLen=       144.2
 IPart= 27 NShTot=      253621 NShNF=      253621 NShFF=           0 NBatch=        1716 AvBLen=       147.8
 IPart= 19 NShTot=      241430 NShNF=      241430 NShFF=           0 NBatch=        1768 AvBLen=       136.6
 IPart= 14 NShTot=      218812 NShNF=      218812 NShFF=           0 NBatch=        1657 AvBLen=       132.1
 IPart= 22 NShTot=      326499 NShNF=      326499 NShFF=           0 NBatch=        2199 AvBLen=       148.5
 IPart= 28 NShTot=      271735 NShNF=      271735 NShFF=           0 NBatch=        1772 AvBLen=       153.3
 IPart=  8 NShTot=      240875 NShNF=      240875 NShFF=           0 NBatch=        1791 AvBLen=       134.5
 IPart= 12 NShTot=      233453 NShNF=      233453 NShFF=           0 NBatch=        1839 AvBLen=       126.9
 IPart=  6 NShTot=      231171 NShNF=      231171 NShFF=           0 NBatch=        1827 AvBLen=       126.5
 IPart=  2 NShTot=      318283 NShNF=      318283 NShFF=           0 NBatch=        2278 AvBLen=       139.7
 CoulSu:  NxtVal=       12525569.
 FoFCou: FMM=F IPFlag=           0 FMFlag=      100000 FMFlg1=         800
         NFxFlg=           0 DoJE=F BraDBF=F KetDBF=F FulRan=T
         wScrn=  0.000000 ICntrl=    2127 IOpCl=  1 I1Cent=           0 NGrid=           0
         NMat0=    1 NMatS0=      0 NMatT0=    1 NMatD0=    1 NMtDS0=    0 NMtDT0=    0
         CW=    0.222036    0.777964
         WU=    0.000000   12.500000
 Symmetry not used in FoFCou.
 FoFCou:  KetSym=F NOpSet=  1 NOpAb=1 NOp=  1.
 FoFCou:  CnvScl= 1.00D+00 Thresh= 1.00D-10 IAcrcy=      10.
 PrismS was handed   418927764 working-precision words and  4798 shell-pairs
 FoFCou: LinMIO=F DoNuc=F BraDBF=F KetDBF=F HaveP=T PDBF=F HaveZ=T HaveW=F
         NIJTC =      10 NIJTAt=       0 NIJTCD=       0 NIJTT =      10
         IJTBeg=       1 IJTEnd=      10 KLTBeg=       1 KLTEnd=      10
         IPTBeg=       1 IPTEnd=      10 IPTBCv=       1 IPTECv=      10
         IZTBeg=       1 IZTEnd=      10 IZTBCv=       1 IZTECv=      10
         IWTBeg=      11 IWTEnd=      10 IWTBCv=      11 IWTECv=      10
         INTBeg=       1 INTEnd=       0 IFTBCv=       1 IFTECv=      10
 NCel replicated for PrismC:     1
 CoulSu:  IncDef=  1024 NBBP=       11512801 NTPThr=   100 NPartT=   32 Incr=        1024 LDynOK=F.
 CoulSu:  NPrtUS=  32 ThrOK=T IAlg=1 NPAlg=1 LenDen=           0 LWGrdD=           0 DoCopy=F.
 Enter PrismC: JobTyp=21 DoJE=F Cont=F.
 Linear combination for Coulomb/exchange, wScrn=  0.000000
 Enter PrismC: JobTyp=21 DoJE=F Cont=F.
 Enter PrismC: JobTyp=21 DoJE=F Cont=F.
 CW=    0.222036    0.777964
 WU=    0.000000   12.500000
 Enter PrismC: JobTyp=21 DoJE=F Cont=F.
 Enter PrismC: JobTyp=21 DoJE=F Cont=F.
 Enter PrismC: JobTyp=21 DoJE=F Cont=F.
 Linear combination for Coulomb/exchange, wScrn=  0.000000
 CW=    0.222036    0.777964
 WU=    0.000000   12.500000
 Enter PrismC: JobTyp=21 DoJE=F Cont=F.
 Enter PrismC: JobTyp=21 DoJE=F Cont=F.
 Enter PrismC: JobTyp=21 DoJE=F Cont=F.
 Linear combination for Coulomb/exchange, wScrn=  0.000000
 CW=    0.222036    0.777964
 WU=    0.000000   12.500000
 Enter PrismC: JobTyp=21 DoJE=F Cont=F.
 Enter PrismC: JobTyp=21 DoJE=F Cont=F.
 Linear combination for Coulomb/exchange, wScrn=  0.000000
 Enter PrismC: JobTyp=21 DoJE=F Cont=F.
 Linear combination for Coulomb/exchange, wScrn=  0.000000
 Enter PrismC: JobTyp=21 DoJE=F Cont=F.
 Enter PrismC: JobTyp=21 DoJE=F Cont=F.
 Linear combination for Coulomb/exchange, wScrn=  0.000000
 CW=    0.222036    0.777964
 WU=    0.000000   12.500000
 PrismC was handed    13006565 working-precision words and  4798 shell-pairs
 Enter PrismC: JobTyp=21 DoJE=F Cont=F.
 Linear combination for Coulomb/exchange, wScrn=  0.000000
 CW=    0.222036    0.777964
 WU=    0.000000   12.500000
 Enter PrismC: JobTyp=21 DoJE=F Cont=F.
 Enter PrismC: JobTyp=21 DoJE=F Cont=F.
 Enter PrismC: JobTyp=21 DoJE=F Cont=F.
 Linear combination for Coulomb/exchange, wScrn=  0.000000
 CW=    0.222036    0.777964
 WU=    0.000000   12.500000
 Enter PrismC: JobTyp=21 DoJE=F Cont=F.
 Linear combination for Coulomb/exchange, wScrn=  0.000000
 CW=    0.222036    0.777964
 WU=    0.000000   12.500000
 PrismC was handed    13006565 working-precision words and  4798 shell-pairs
 Linear combination for Coulomb/exchange, wScrn=  0.000000
 CW=    0.222036    0.777964
 WU=    0.000000   12.500000
 PrismC was handed    13006565 working-precision words and  4798 shell-pairs
 Linear combination for Coulomb/exchange, wScrn=  0.000000
 CW=    0.222036    0.777964
 WU=    0.000000   12.500000
 Linear combination for Coulomb/exchange, wScrn=  0.000000
 CW=    0.222036    0.777964
 WU=    0.000000   12.500000
 Linear combination for Coulomb/exchange, wScrn=  0.000000
 CW=    0.222036    0.777964
 WU=    0.000000   12.500000
 Enter PrismC: JobTyp=21 DoJE=F Cont=F.
 Linear combination for Coulomb/exchange, wScrn=  0.000000
 CW=    0.222036    0.777964
 WU=    0.000000   12.500000
 Enter PrismC: JobTyp=21 DoJE=F Cont=F.
 Linear combination for Coulomb/exchange, wScrn=  0.000000
 Enter PrismC: JobTyp=21 DoJE=F Cont=F.
 Linear combination for Coulomb/exchange, wScrn=  0.000000
 CW=    0.222036    0.777964
 PrismC was handed    13006565 working-precision words and  4798 shell-pairs
 Linear combination for Coulomb/exchange, wScrn=  0.000000
 CW=    0.222036    0.777964
 WU=    0.000000   12.500000
 PrismC was handed    13006565 working-precision words and  4798 shell-pairs
 Linear combination for Coulomb/exchange, wScrn=  0.000000
 CW=    0.222036    0.777964
 WU=    0.000000   12.500000
 PrismC:  IPart=     0 DynPar=T LinDyn=F Incr=        1024 UseFst=F UseS4=T IGathr=2.
 PrismC was handed    13006565 working-precision words and  4798 shell-pairs
 PrismC was handed    13006565 working-precision words and  4798 shell-pairs
 Enter PrismC: JobTyp=21 DoJE=F Cont=F.
 Linear combination for Coulomb/exchange, wScrn=  0.000000
 CW=    0.222036    0.777964
 WU=    0.000000   12.500000
 PrismC was handed    13006565 working-precision words and  4798 shell-pairs
 Enter PrismC: JobTyp=21 DoJE=F Cont=F.
 Linear combination for Coulomb/exchange, wScrn=  0.000000
 CW=    0.222036    0.777964
 WU=    0.000000   12.500000
 Enter PrismC: JobTyp=21 DoJE=F Cont=F.
 Linear combination for Coulomb/exchange, wScrn=  0.000000
 CW=    0.222036    0.777964
 WU=    0.000000   12.500000
 Enter PrismC: JobTyp=21 DoJE=F Cont=F.
 Linear combination for Coulomb/exchange, wScrn=  0.000000
 CW=    0.222036    0.777964
 WU=    0.000000   12.500000
 Enter PrismC: JobTyp=21 DoJE=F Cont=F.
 Linear combination for Coulomb/exchange, wScrn=  0.000000
 CW=    0.222036    0.777964
 WU=    0.000000   12.500000
 Linear combination for Coulomb/exchange, wScrn=  0.000000
 CW=    0.222036    0.777964
 WU=    0.000000   12.500000
 Linear combination for Coulomb/exchange, wScrn=  0.000000
 CW=    0.222036    0.777964
 WU=    0.000000   12.500000
 Linear combination for Coulomb/exchange, wScrn=  0.000000
 CW=    0.222036    0.777964
 WU=    0.000000   12.500000
 CW=    0.222036    0.777964
 WU=    0.000000   12.500000
 PrismC was handed    13006565 working-precision words and  4798 shell-pairs
 PrismC was handed    13006565 working-precision words and  4798 shell-pairs
 PrismC was handed    13006565 working-precision words and  4798 shell-pairs
 Enter PrismC: JobTyp=21 DoJE=F Cont=F.
 Linear combination for Coulomb/exchange, wScrn=  0.000000
 CW=    0.222036    0.777964
 WU=    0.000000   12.500000
 CW=    0.222036    0.777964
 WU=    0.000000   12.500000
 PrismC was handed    13006565 working-precision words and  4798 shell-pairs
 Enter PrismC: JobTyp=21 DoJE=F Cont=F.
 Linear combination for Coulomb/exchange, wScrn=  0.000000
 CW=    0.222036    0.777964
 WU=    0.000000   12.500000
 PrismC was handed    13006565 working-precision words and  4798 shell-pairs
 PrismC was handed    13006565 working-precision words and  4798 shell-pairs
 PrismC was handed    13006565 working-precision words and  4798 shell-pairs
 Enter PrismC: JobTyp=21 DoJE=F Cont=F.
 Linear combination for Coulomb/exchange, wScrn=  0.000000
 CW=    0.222036    0.777964
 WU=    0.000000   12.500000
 PrismC was handed    13006565 working-precision words and  4798 shell-pairs
 PrismC was handed    13006565 working-precision words and  4798 shell-pairs
 PrismC was handed    13006565 working-precision words and  4798 shell-pairs
 PrismC was handed    13006565 working-precision words and  4798 shell-pairs
 PrismC was handed    13006565 working-precision words and  4798 shell-pairs
 CW=    0.222036    0.777964
 WU=    0.000000   12.500000
 PrismC was handed    13006565 working-precision words and  4798 shell-pairs
 PrismC was handed    13006565 working-precision words and  4798 shell-pairs
 PrismC was handed    13006565 working-precision words and  4798 shell-pairs
 PrismC was handed    13006565 working-precision words and  4798 shell-pairs
 PrismC was handed    13006565 working-precision words and  4798 shell-pairs
 Linear combination for Coulomb/exchange, wScrn=  0.000000
 CW=    0.222036    0.777964
 WU=    0.000000   12.500000
 PrismC was handed    13006565 working-precision words and  4798 shell-pairs
 PrismC was handed    13006565 working-precision words and  4798 shell-pairs
 WU=    0.000000   12.500000
 PrismC was handed    13006565 working-precision words and  4798 shell-pairs
 Enter PrismC: JobTyp=21 DoJE=F Cont=F.
 Linear combination for Coulomb/exchange, wScrn=  0.000000
 CW=    0.222036    0.777964
 WU=    0.000000   12.500000
 PrismC was handed    13006565 working-precision words and  4798 shell-pairs
 PrismC was handed    13006565 working-precision words and  4798 shell-pairs
 PrismC was handed    13006565 working-precision words and  4798 shell-pairs
 Enter PrismC: JobTyp=21 DoJE=F Cont=F.
 Linear combination for Coulomb/exchange, wScrn=  0.000000
 CW=    0.222036    0.777964
 WU=    0.000000   12.500000
 PrismC was handed    13006565 working-precision words and  4798 shell-pairs
 IPart=  5 NShTot=      332754 NShNF=      332754 NShFF=           0 NBatch=        3324 AvBLen=       100.1
 IPart=  4 NShTot=      217124 NShNF=      217124 NShFF=           0 NBatch=        1959 AvBLen=       110.8
 IPart=  3 NShTot=      471193 NShNF=      471193 NShFF=           0 NBatch=        3157 AvBLen=       149.3
 IPart= 17 NShTot=      275700 NShNF=      275700 NShFF=           0 NBatch=        2565 AvBLen=       107.5
 IPart= 22 NShTot=      283443 NShNF=      283443 NShFF=           0 NBatch=        2643 AvBLen=       107.2
 IPart= 26 NShTot=      212969 NShNF=      212969 NShFF=           0 NBatch=        1866 AvBLen=       114.1
 IPart= 30 NShTot=      278462 NShNF=      278462 NShFF=           0 NBatch=        2863 AvBLen=        97.3
 IPart= 21 NShTot=      220849 NShNF=      220849 NShFF=           0 NBatch=        2217 AvBLen=        99.6
 IPart=  7 NShTot=      248747 NShNF=      248747 NShFF=           0 NBatch=        2633 AvBLen=        94.5
 IPart= 25 NShTot=      327528 NShNF=      327528 NShFF=           0 NBatch=        2429 AvBLen=       134.8
 IPart= 16 NShTot=      274344 NShNF=      274344 NShFF=           0 NBatch=        2492 AvBLen=       110.1
 IPart= 18 NShTot=      270236 NShNF=      270236 NShFF=           0 NBatch=        2471 AvBLen=       109.4
 IPart=  2 NShTot=      182646 NShNF=      182646 NShFF=           0 NBatch=        2017 AvBLen=        90.6
 IPart= 19 NShTot=      250084 NShNF=      250084 NShFF=           0 NBatch=        2267 AvBLen=       110.3
 IPart= 15 NShTot=      384698 NShNF=      384698 NShFF=           0 NBatch=        3191 AvBLen=       120.6
 IPart= 29 NShTot=      293542 NShNF=      293542 NShFF=           0 NBatch=        2468 AvBLen=       118.9
 IPart= 31 NShTot=      276544 NShNF=      276544 NShFF=           0 NBatch=        2497 AvBLen=       110.8
 IPart= 27 NShTot=      253965 NShNF=      253965 NShFF=           0 NBatch=        2065 AvBLen=       123.0
 IPart= 13 NShTot=      229632 NShNF=      229632 NShFF=           0 NBatch=        1871 AvBLen=       122.7
 IPart=  6 NShTot=      239918 NShNF=      239918 NShFF=           0 NBatch=        2110 AvBLen=       113.7
 IPart= 11 NShTot=      300904 NShNF=      300904 NShFF=           0 NBatch=        2489 AvBLen=       120.9
 IPart= 12 NShTot=      284498 NShNF=      284498 NShFF=           0 NBatch=        2336 AvBLen=       121.8
 IPart= 23 NShTot=      287646 NShNF=      287646 NShFF=           0 NBatch=        2642 AvBLen=       108.9
 IPart=  8 NShTot=      205778 NShNF=      205778 NShFF=           0 NBatch=        1946 AvBLen=       105.7
 IPart= 28 NShTot=      254240 NShNF=      254240 NShFF=           0 NBatch=        2087 AvBLen=       121.8
 IPart=  9 NShTot=      294559 NShNF=      294559 NShFF=           0 NBatch=        2440 AvBLen=       120.7
 IPart= 24 NShTot=      245153 NShNF=      245153 NShFF=           0 NBatch=        2026 AvBLen=       121.0
 IPart=  0 NShTot=      223723 NShNF=      223723 NShFF=           0 NBatch=        2073 AvBLen=       107.9
 IPart= 20 NShTot=      204445 NShNF=      204445 NShFF=           0 NBatch=        2392 AvBLen=        85.5
 IPart= 10 NShTot=      272570 NShNF=      272570 NShFF=           0 NBatch=        2515 AvBLen=       108.4
 IPart= 14 NShTot=      223529 NShNF=      223529 NShFF=           0 NBatch=        1827 AvBLen=       122.3
 IPart=  1 NShTot=      264842 NShNF=      264842 NShFF=           0 NBatch=        2482 AvBLen=       106.7
 CoulSu:  NxtVal=       12525569.
 ReadGW:  IGet=0 IStart=           1 Next=           1 LGW=           0.
 Remaining memory in FofDFT      399.83 Mw
 CkSvGd:  ISavGI=        -1 IRadAn=       5 IRASav=       5 ISavGd=        -1.
 CalDSu:  NPrtUS=  32 ThrOK=T IAlg=1 NPAlg=2 DoDPD=T LenP=       45150 LenD1P=             0.
 IPart=  0 IRanGd=          0 ScrnBf=T ScrnGd=T RCrit=4.00D+00 DoMicB=T.
 IPart= 11         4748 of         5872 points in       9 batches and       23 microbatches, Max-NSigAt=      12 Max-NSgAt2=      12
 IPart= 14         5303 of         5640 points in       9 batches and       35 microbatches, Max-NSigAt=      12 Max-NSgAt2=      12
 IPart= 10         8013 of         9176 points in      15 batches and       67 microbatches, Max-NSigAt=      12 Max-NSgAt2=      12
 IPart=  9         8450 of         9624 points in      14 batches and       62 microbatches, Max-NSigAt=      12 Max-NSgAt2=      12
 IPart= 18         5078 of         5524 points in       9 batches and       30 microbatches, Max-NSigAt=      12 Max-NSgAt2=      12
 IPart= 30        14125 of        16368 points in      24 batches and      104 microbatches, Max-NSigAt=      12 Max-NSgAt2=      12
 IPart= 29         8413 of         9972 points in      15 batches and       52 microbatches, Max-NSigAt=      12 Max-NSgAt2=      12
 IPart= 16         8194 of         8904 points in      14 batches and       41 microbatches, Max-NSigAt=      12 Max-NSgAt2=      12
 IPart=  7        12434 of        13688 points in      20 batches and       91 microbatches, Max-NSigAt=      12 Max-NSgAt2=      12
 IPart= 22         7676 of         8384 points in      13 batches and       54 microbatches, Max-NSigAt=      12 Max-NSgAt2=      12
 IPart=  2         9316 of        10678 points in      17 batches and       35 microbatches, Max-NSigAt=      12 Max-NSgAt2=      12
 IPart= 17         5965 of         6732 points in      11 batches and       64 microbatches, Max-NSigAt=      12 Max-NSgAt2=      12
 IPart=  4         9156 of        11512 points in      17 batches and       26 microbatches, Max-NSigAt=      12 Max-NSgAt2=      12
 IPart= 19         6936 of         7154 points in      12 batches and       33 microbatches, Max-NSigAt=      12 Max-NSgAt2=      12
 IPart=  6         6981 of         8730 points in      15 batches and       52 microbatches, Max-NSigAt=      12 Max-NSgAt2=      12
 IPart=  8         6160 of         6888 points in      11 batches and       52 microbatches, Max-NSigAt=      12 Max-NSgAt2=      12
 IPart= 31         6007 of         6862 points in      11 batches and       62 microbatches, Max-NSigAt=      12 Max-NSgAt2=      12
 IPart= 21         6842 of         7584 points in      11 batches and       46 microbatches, Max-NSigAt=      12 Max-NSgAt2=      12
 IPart=  5         7215 of         7460 points in      11 batches and       33 microbatches, Max-NSigAt=      12 Max-NSgAt2=      12
 IPart= 28         7432 of         9018 points in      15 batches and       53 microbatches, Max-NSigAt=      12 Max-NSgAt2=      12
 IPart=  0        11081 of        13288 points in      20 batches and       67 microbatches, Max-NSigAt=      12 Max-NSgAt2=      12
 IPart= 15         8654 of         9148 points in      15 batches and       54 microbatches, Max-NSigAt=      12 Max-NSgAt2=      12
 IPart=  1         9476 of        10042 points in      14 batches and       56 microbatches, Max-NSigAt=      12 Max-NSgAt2=      12
 IPart= 27         7220 of         7674 points in      12 batches and       52 microbatches, Max-NSigAt=      12 Max-NSgAt2=      12
 IPart=  3         5838 of         7548 points in      12 batches and       41 microbatches, Max-NSigAt=      12 Max-NSgAt2=      12
 IPart= 12         6305 of         7256 points in      11 batches and       33 microbatches, Max-NSigAt=      12 Max-NSgAt2=      12
 IPart= 20         7928 of         9148 points in      13 batches and       59 microbatches, Max-NSigAt=      12 Max-NSgAt2=      12
 IPart= 24         7920 of         8956 points in      14 batches and       52 microbatches, Max-NSigAt=      12 Max-NSgAt2=      12
 IPart= 13         5697 of         6244 points in      10 batches and       31 microbatches, Max-NSigAt=      12 Max-NSgAt2=      12
 IPart= 23         4832 of         5352 points in       9 batches and       33 microbatches, Max-NSigAt=      12 Max-NSgAt2=      12
 IPart= 25         7893 of         8640 points in      14 batches and       43 microbatches, Max-NSigAt=      12 Max-NSgAt2=      12
 IPart= 26         5763 of         6588 points in      10 batches and       28 microbatches, Max-NSigAt=      12 Max-NSgAt2=      12
 Forces at end of L703
 I=    0 X=  -4.883728912561D-01 Y=   2.146445917183D-01 Z=  -9.476370098721D-02
 I=    1 X=   2.226766488723D-03 Y=   5.238588010080D-03 Z=   1.509782802956D-03
 I=    2 X=  -1.973092976724D-04 Y=  -3.624040357466D-04 Z=   5.503144428545D-04
 I=    3 X=   2.955422802486D-04 Y=  -1.378205069884D-04 Z=   9.198698263635D-05
 I=    4 X=  -8.469161486873D-04 Y=  -3.646538950473D-04 Z=  -1.342233722201D-04
 I=    5 X=  -8.056897932995D-05 Y=   2.120880078940D-04 Z=   2.174213302397D-04
 I=    6 X=  -1.859016742558D-03 Y=  -6.587521401004D-03 Z=  -4.430957410212D-03
 I=    7 X=  -1.395430410188D-04 Y=   8.575183059987D-04 Z=   1.255271157143D-03
 I=    8 X=  -3.462441924462D-05 Y=   7.038011694404D-04 Z=   2.878003232019D-04
 I=    9 X=   5.509266826644D-04 Y=   7.817672082315D-04 Z=   6.474255595754D-04
 I=   10 X=   2.241863179093D-04 Y=  -1.306137736014D-04 Z=  -1.306495313378D-04
 I=   11 X=   2.922330995457D-05 Y=  -6.734993936552D-05 Z=   1.358258337392D-04
 I=   12 X=  -1.686664509706D-04 Y=  -1.433991498736D-04 Z=   0.000000000000D+00
 FrcOut:
 IF    =    61 IFX   =    97 IFXYZ =   133
 IFFX  =   169 IFFFX =   169 IFLen =    36
 IFFLen=     0 IFFFLn=     0 IEDerv=   169
 LEDerv=  1781 IFroze=  2356 ICStrt=146681
 -------------------------------------------------------------------
 Center     Atomic                   Forces (Hartrees/Bohr)
 Number     Number              X              Y              Z
 -------------------------------------------------------------------
      1        6          -0.002226766   -0.005238588   -0.001509783
      2        8           0.000197309    0.000362404   -0.000550314
      3        1          -0.000295542    0.000137821   -0.000091987
      4        1           0.000846916    0.000364654    0.000134223
      5        1           0.000080569   -0.000212088   -0.000217421
      6        6           0.001859017    0.006587521    0.004430957
      7        6           0.000139543   -0.000857518   -0.001255271
      8        1           0.000034624   -0.000703801   -0.000287800
      9        1          -0.000550927   -0.000781767   -0.000647426
     10        1          -0.000224186    0.000130614    0.000130650
     11        1          -0.000029223    0.000067350   -0.000135826
     12        1           0.000168666    0.000143399   -0.000000002
 -------------------------------------------------------------------
 Cartesian Forces:  Max     0.006587521 RMS     0.001724991
 From PutF, contents of force:
   1   -0.7436476663D-03
   2   -0.4662875605D-04
   3   -0.2803357773D-03
   4   -0.6407284170D-03
   5   -0.2011057324D-03
   6    0.3599067501D-03
   7   -0.3095380392D-03
   8    0.1244522168D-02
   9    0.3480155874D-03
  10    0.1097707229D-02
  11   -0.1550595234D-03
  12   -0.5121828719D-03
  13   -0.1761198581D-03
  14    0.1849184304D-04
  15    0.2141085299D-04
  16   -0.2562189029D-03
  17    0.1030476468D-05
  18   -0.2852652358D-03
  19    0.2507626343D-03
  20    0.1752531137D-03
  21   -0.1813370696D-02
  22    0.1821541447D-03
  23    0.3892031067D-03
  24    0.2172187378D-03
  25    0.4157635242D-03
  26   -0.1661939287D-03
  27   -0.5935188245D-03
  28   -0.2326908652D-03
  29   -0.7677357731D-03
  30   -0.5283844903D-02
 -----------------------------------------------------------------------------------------------
                       Internal Coordinate Forces (Hartree/Bohr or radian)
  Cent   Atom   N1       Length/X         N2         Alpha/Y        N3         Beta/Z          J
 -----------------------------------------------------------------------------------------------
      1  C 
      2  O        1  -0.000768(     1)
      3  H        1  -0.000233(     2)      2   0.000416(    12)
      4  H        1  -0.000594(     3)      2   0.000360(    13)      3   0.001245(    22)     0
      5  H        2  -0.000166(     4)      1  -0.000310(    14)      3   0.000348(    23)     0
      6  C        1  -0.005284(     5)      2  -0.000201(    15)      3  -0.000641(    24)     0
      7  C        6   0.001098(     6)      1  -0.000280(    16)      2  -0.000047(    25)     0
      8  H        6  -0.000155(     7)      7  -0.000256(    17)      1  -0.000744(    26)     0
      9  H        6  -0.000512(     8)      7   0.000001(    18)      8  -0.001813(    27)     0
     10  H        7  -0.000176(     9)      6  -0.000285(    19)      8   0.000217(    28)     0
     11  H        7   0.000018(    10)      6   0.000251(    20)     10   0.000182(    29)     0
     12  H        7   0.000021(    11)      6   0.000175(    21)     10   0.000389(    30)     0
 -----------------------------------------------------------------------------------------------
 Internal  Forces:  Max     0.005283845 RMS     0.001116233
 Final forces over variables, Energy=-1.94235088D+02:
 -7.43647666D-04-4.66287561D-05-2.80335777D-04-6.40728417D-04
 -2.01105732D-04 3.59906750D-04-3.09538039D-04 1.24452217D-03
  3.48015587D-04 1.09770723D-03-1.55059523D-04-5.12182872D-04
 -1.76119858D-04 1.84918430D-05 2.14108530D-05-2.56218903D-04
  1.03047647D-06-2.85265236D-04 2.50762634D-04 1.75253114D-04
 -1.81337070D-03 1.82154145D-04 3.89203107D-04 2.17218738D-04
  4.15763524D-04-1.66193929D-04-5.93518824D-04-2.32690865D-04
 -7.67735773D-04-5.28384490D-03

 GradGradGradGradGradGradGradGradGradGradGradGradGradGradGradGradGradGrad
 Berny optimization.
 Search for a local minimum.
 Step number   3 out of a maximum of   50
 All quantities printed in internal units (Hartrees-Bohrs-Radians)
 Update second derivatives using D2CorN and points    1    2    3
 DE= -6.07D-06 DEPred=-3.07D-06 R= 1.98D+00
 TightC=F SS=  1.41D+00  RLast= 1.40D-02 DXNew= 5.0454D-01 4.1968D-02
 Trust test= 1.98D+00 RLast= 1.40D-02 DXMaxT set to 3.00D-01
 ITU=  1  1  0
     Eigenvalues ---    0.00317   0.14320   0.331771000.000001000.00000
     Eigenvalues --- 1000.000001000.000001000.000001000.000001000.00000
     Eigenvalues --- 1000.000001000.000001000.000001000.000001000.00000
     Eigenvalues --- 1000.000001000.000001000.000001000.000001000.00000
     Eigenvalues --- 1000.000001000.000001000.000001000.000001000.00000
     Eigenvalues --- 1000.000001000.000001000.000001000.000001000.00000
 RFO step:  Lambda=-2.80254226D-06 EMin= 3.16793004D-03
 Quartic linear search produced a step of  2.00000.
 Variable       Old X    -DE/DX   Delta X   Delta X   Delta X     New X
                                 (Linear)    (Quad)   (Total)
  BABS3       1.74704  -0.00074  -0.01479   0.00434  -0.01046   1.73658
  BABS2       3.52184  -0.00005   0.02326  -0.01638   0.00688   3.52872
  AABS2       1.73144  -0.00028  -0.00479   0.00147  -0.00332   1.72812
  BABS1       1.82238  -0.00064   0.00000   0.00000   0.00000   1.82238
  AABS1       1.98419  -0.00020   0.00000   0.00000   0.00000   1.98419
    A3        2.07773   0.00036   0.00000   0.00000   0.00000   2.07773
    A4        1.91774  -0.00031   0.00000   0.00000   0.00000   1.91774
    D3        3.59107   0.00124   0.00000   0.00000   0.00000   3.59107
    D4        3.05743   0.00035   0.00000   0.00000   0.00000   3.05743
   R21        2.80039   0.00110   0.00000   0.00000   0.00000   2.80039
   R22        2.04166  -0.00016   0.00000   0.00000   0.00000   2.04166
   R23        2.04147  -0.00051   0.00000   0.00000   0.00000   2.04147
   R24        2.06150  -0.00018   0.00000   0.00000   0.00000   2.06150
   R25        2.07624   0.00002   0.00000   0.00000   0.00000   2.07624
   R26        2.06169   0.00002   0.00000   0.00000   0.00000   2.06169
   A22        2.10998  -0.00026   0.00000   0.00000   0.00000   2.10998
   A23        2.11001   0.00000   0.00000   0.00000   0.00000   2.11001
   A24        1.95093  -0.00029   0.00000   0.00000   0.00000   1.95093
   A25        1.94864   0.00025   0.00000   0.00000   0.00000   1.94864
   A26        1.95094   0.00018   0.00000   0.00000   0.00000   1.95094
   D23        3.00207  -0.00181   0.00000   0.00000   0.00000   3.00207
   D25        2.08059   0.00018   0.00000   0.00000   0.00000   2.08059
   D26        4.16079   0.00039   0.00000   0.00000   0.00000   4.16079
   D24        2.70779   0.00022   0.00000   0.00000   0.00000   2.70779
    A2        1.98912   0.00042   0.00000   0.00000   0.00000   1.98912
    R4        1.80903  -0.00017   0.00000   0.00000   0.00000   1.80903
    R3        2.04412  -0.00059   0.00000   0.00000   0.00000   2.04412
    R2        2.03694  -0.00023   0.00000   0.00000   0.00000   2.03694
    R1        2.56549  -0.00077   0.00000   0.00000   0.00000   2.56549
   RTS        6.04712  -0.00528   0.00000   0.00000   0.00000   6.04712
         Item               Value     Threshold  Converged?
 Maximum Force            0.000744     0.000450     NO 
 RMS     Force            0.000460     0.000300     NO 
 Maximum Displacement     0.010456     0.001800     NO 
 RMS     Displacement     0.002365     0.001200     NO 
 Predicted change in Energy=-5.185915D-06
 GradGradGradGradGradGradGradGradGradGradGradGradGradGradGradGradGradGrad

 ---------------------------------------------------------------------------------------------------
                            Z-MATRIX (ANGSTROMS AND DEGREES)
   CD    Cent   Atom    N1       Length/X        N2       Alpha/Y        N3        Beta/Z          J
 ---------------------------------------------------------------------------------------------------
      1      1  C 
      2      2  O        1   1.357600(     1)
      3      3  H        1   1.077900(     2)      2  113.968(    12)
      4      4  H        1   1.081700(     3)      2  119.045(    13)      3  205.753(    22)      0
      5      5  H        2   0.957300(     4)      1  109.878(    14)      3  175.178(    23)      0
      6      6  C        1   3.200000(     5)      2  113.686(    15)      3  104.415(    24)      0
      7      7  C        6   1.481900(     6)      1   99.014(    16)      2  202.181(    25)      0
      8      8  H        6   1.080400(     7)      7  120.893(    17)      1   99.499(    26)      0
      9      9  H        6   1.080300(     8)      7  120.894(    18)      8  172.006(    27)      0
     10     10  H        7   1.090900(     9)      6  111.780(    19)      8  155.145(    28)      0
     11     11  H        7   1.098700(    10)      6  111.649(    20)     10  119.209(    29)      0
     12     12  H        7   1.091000(    11)      6  111.781(    21)     10  238.396(    30)      0
 ---------------------------------------------------------------------------------------------------
                         Z-Matrix orientation:                         
 ---------------------------------------------------------------------
 Center     Atomic      Atomic             Coordinates (Angstroms)
 Number     Number       Type             X           Y           Z
 ---------------------------------------------------------------------
      1          6           0        0.000000    0.000000    0.000000
      2          8           0        0.000000    0.000000    1.357600
      3          1           0        0.984955    0.000000   -0.437871
      4          1           0       -0.851738    0.410883   -0.525160
      5          1           0       -0.897076    0.075675    1.683103
      6          6           0       -0.729488   -2.838187   -1.285512
      7          6           0       -0.111721   -2.654351   -2.619901
      8          1           0       -1.791730   -2.702314   -1.142525
      9          1           0       -0.157373   -3.234396   -0.459225
     10          1           0        0.945246   -2.395156   -2.544384
     11          1           0       -0.166094   -3.572013   -3.221634
     12          1           0       -0.615248   -1.876172   -3.195382
 ---------------------------------------------------------------------
                    Distance matrix (angstroms):
                    1          2          3          4          5
     1  C    0.000000
     2  O    1.357600   0.000000
     3  H    1.077900   2.047890   0.000000
     4  H    1.081700   2.106909   1.884114   0.000000
     5  H    1.908745   0.957300   2.836600   2.234020   0.000000
     6  C    3.200000   3.946327   3.422443   3.339092   4.163094
     7  C    3.731212   4.783156   3.606873   3.785661   5.156129
     8  H    3.437755   4.094316   3.938149   3.310093   4.062241
     9  H    3.270623   3.713077   3.430261   3.711408   4.011645
    10  H    3.619966   4.675012   3.189944   3.896187   5.231711
    11  H    4.813085   5.810013   4.672636   4.858450   6.156005
    12  H    3.756197   4.962680   3.699261   3.523724   5.262009
                    6          7          8          9         10
     6  C    0.000000
     7  C    1.481900   0.000000
     8  H    1.080400   2.237716   0.000000
     9  H    1.080300   2.237646   1.849631   0.000000
    10  H    2.141441   1.090900   3.090402   2.503593   0.000000
    11  H    2.145806   1.098700   2.778805   2.782978   1.754633
    12  H    2.141525   1.091000   2.506160   3.088848   1.768695
                   11         12
    11  H    0.000000
    12  H    1.754510   0.000000
 Symmetry turned off by external request.
 Stoichiometry    C3H8O
 Framework group  C1[X(C3H8O)]
 Deg. of freedom    30
 Full point group                 C1      NOp   1
 Rotational constants (GHZ):     16.9897026      2.0400888      1.9100263
 Standard basis: Jun-CC-pVTZ (5D, 7F)
   268 basis functions,   384 primitive gaussians,   300 cartesian basis functions
    17 alpha electrons       17 beta electrons
       nuclear repulsion energy       111.1955607558 Hartrees.
 NAtoms=   12 NActive=   12 NUniq=   12 SFac= 1.00D+00 NAtFMM=   60 NAOKFM=F Big=F
 Integral buffers will be    131072 words long.
 Raffenetti 2 integral format.
 Two-electron integral symmetry is turned off.
 Nuclear repulsion after empirical dispersion term =      111.1921152458 Hartrees.
 One-electron integrals computed using PRISM.
 NBasis=   268 RedAO= T EigKep=  1.05D-04  NBF=   268
 NBsUse=   268 1.00D-06 EigRej= -1.00D+00 NBFU=   268
 ExpMin= 3.57D-02 ExpMax= 1.53D+04 ExpMxC= 5.22D+02 IAcc=3 IRadAn=         5 AccDes= 0.00D+00
 Harris functional with IExCor= 4639 and IRadAn=       5 diagonalized for initial guess.
 HarFok:  IExCor= 4639 AccDes= 0.00D+00 IRadAn=         5 IDoV= 1 UseB2=F ITyADJ=14
 ICtDFT=  3500011 ScaDFX=  1.000000  1.000000  1.000000  1.000000
 FoFCou: FMM=F IPFlag=           0 FMFlag=      100000 FMFlg1=           0
         NFxFlg=           0 DoJE=T BraDBF=F KetDBF=T FulRan=T
         wScrn=  0.000000 ICntrl=     500 IOpCl=  0 I1Cent=   200000004 NGrid=           0
         NMat0=    1 NMatS0=      1 NMatT0=    0 NMatD0=    1 NMtDS0=    0 NMtDT0=    0
 Symmetry not used in FoFCou.
 Mixing orbitals, IMix= 1 IMixAn=  0 NRI=1 NE=   17 Coef=  7.07106781D-01  7.07106781D-01
 Mixing orbitals, IMix= 1 IMixAn=  0 NRI=1 NE=   17 Coef= -7.07106781D-01  7.07106781D-01
 Initial guess <Sx>= 0.0000 <Sy>= 0.0000 <Sz>= 0.0000 <S**2>= 1.0000 S= 0.6180
 Requested convergence on RMS density matrix=1.00D-08 within 128 cycles.
 Requested convergence on MAX density matrix=1.00D-06.
 Requested convergence on             energy=1.00D-06.
 No special actions if energy rises.
 SCF Done:  E(UwB97XD) =  -194.235095689     A.U. after   15 cycles
            NFock= 15  Conv=0.65D-08     -V/T= 2.0066
 <Sx>= 0.0000 <Sy>= 0.0000 <Sz>= 0.0000 <S**2>= 0.8997 S= 0.5723
 <L.S>=  0.00000000000    
 Annihilation of the first spin contaminant:
 S**2 before annihilation     0.8997,   after     0.0509
 DipInt: DoE/N= T T RetVal/Mat= T F Init=T NMatP=  1 IDeriv=0 Min/MaxMlt=  1  1
 Entering OneElI...
 Multipole integrals L=1 to 1 MinM= 0 MaxM= 0.
 Requested accuracy = 0.1000D-12
 PrsmSu:  NPrtUS=   1 ThrOK=F IAlg=1 NPAlg=1 LenDen=           0.
 Prism:   IPart=     0 DynPar=F LinDyn=F Incr=          48.
 PRISM was handed   419025084 working-precision words and  4849 shell-pairs
 IPart=  0 NShTot=        4849 NBatch=          61 AvBLen=        79.5
 PrSmSu:  NxtVal=             49.
 Entering OneElI...
 Calculate overlap and kinetic energy integrals
    NBasis = 300  MinDer = 1  MaxDer = 1
 Requested accuracy = 0.1000D-12
 PrsmSu:  NPrtUS=  32 ThrOK=T IAlg=1 NPAlg=1 LenDen=           0.
 PRISM was handed    12996542 working-precision words and  4989 shell-pairs
 PRISM was handed    12996542 working-precision words and  4989 shell-pairs
 PRISM was handed    12996542 working-precision words and  4989 shell-pairs
 PRISM was handed    12996542 working-precision words and  4989 shell-pairs
 PRISM was handed    12996542 working-precision words and  4989 shell-pairs
 PRISM was handed    12996542 working-precision words and  4989 shell-pairs
 Prism:   IPart=     0 DynPar=F LinDyn=F Incr=           1.
 PRISM was handed    12996542 working-precision words and  4989 shell-pairs
 PRISM was handed    12996542 working-precision words and  4989 shell-pairs
 PRISM was handed    12996542 working-precision words and  4989 shell-pairs
 PRISM was handed    12996542 working-precision words and  4989 shell-pairs
 PRISM was handed    12996542 working-precision words and  4989 shell-pairs
 PRISM was handed    12996542 working-precision words and  4989 shell-pairs
 PRISM was handed    12996542 working-precision words and  4989 shell-pairs
 PRISM was handed    12996542 working-precision words and  4989 shell-pairs
 PRISM was handed    12996542 working-precision words and  4989 shell-pairs
 PRISM was handed    12996542 working-precision words and  4989 shell-pairs
 PRISM was handed    12996542 working-precision words and  4989 shell-pairs
 PRISM was handed    12996542 working-precision words and  4989 shell-pairs
 PRISM was handed    12996542 working-precision words and  4989 shell-pairs
 IPart=  0 NShTot=         198 NBatch=          58 AvBLen=         3.4
 IPart= 29 NShTot=         141 NBatch=          20 AvBLen=         7.0
 PRISM was handed    12996542 working-precision words and  4989 shell-pairs
 PRISM was handed    12996542 working-precision words and  4989 shell-pairs
 IPart=  9 NShTot=         159 NBatch=          27 AvBLen=         5.9
 PRISM was handed    12996542 working-precision words and  4989 shell-pairs
 PRISM was handed    12996542 working-precision words and  4989 shell-pairs
 PRISM was handed    12996542 working-precision words and  4989 shell-pairs
 PRISM was handed    12996542 working-precision words and  4989 shell-pairs
 PRISM was handed    12996542 working-precision words and  4989 shell-pairs
 PRISM was handed    12996542 working-precision words and  4989 shell-pairs
 PRISM was handed    12996542 working-precision words and  4989 shell-pairs
 PRISM was handed    12996542 working-precision words and  4989 shell-pairs
 PRISM was handed    12996542 working-precision words and  4989 shell-pairs
 PRISM was handed    12996542 working-precision words and  4989 shell-pairs
 PRISM was handed    12996542 working-precision words and  4989 shell-pairs
 IPart= 16 NShTot=         146 NBatch=          21 AvBLen=         7.0
 IPart=  1 NShTot=         189 NBatch=          50 AvBLen=         3.8
 IPart=  4 NShTot=         174 NBatch=          36 AvBLen=         4.8
 IPart= 14 NShTot=         152 NBatch=          22 AvBLen=         6.9
 IPart= 31 NShTot=         140 NBatch=          20 AvBLen=         7.0
 IPart=  7 NShTot=         171 NBatch=          36 AvBLen=         4.8
 IPart=  2 NShTot=         185 NBatch=          46 AvBLen=         4.0
 IPart= 18 NShTot=         145 NBatch=          21 AvBLen=         6.9
 IPart= 17 NShTot=         146 NBatch=          21 AvBLen=         7.0
 IPart= 23 NShTot=         143 NBatch=          21 AvBLen=         6.8
 IPart= 26 NShTot=         142 NBatch=          20 AvBLen=         7.1
 IPart= 28 NShTot=         142 NBatch=          20 AvBLen=         7.1
 IPart= 22 NShTot=         144 NBatch=          21 AvBLen=         6.9
 IPart= 11 NShTot=         157 NBatch=          26 AvBLen=         6.0
 IPart= 15 NShTot=         151 NBatch=          22 AvBLen=         6.9
 IPart= 27 NShTot=         142 NBatch=          20 AvBLen=         7.1
 IPart=  3 NShTot=         183 NBatch=          44 AvBLen=         4.2
 IPart=  5 NShTot=         172 NBatch=          36 AvBLen=         4.8
 IPart=  8 NShTot=         163 NBatch=          31 AvBLen=         5.3
 IPart= 13 NShTot=         157 NBatch=          26 AvBLen=         6.0
 IPart= 21 NShTot=         145 NBatch=          21 AvBLen=         6.9
 IPart= 19 NShTot=         145 NBatch=          21 AvBLen=         6.9
 IPart= 30 NShTot=         140 NBatch=          20 AvBLen=         7.0
 IPart= 20 NShTot=         145 NBatch=          21 AvBLen=         6.9
 IPart= 12 NShTot=         157 NBatch=          26 AvBLen=         6.0
 IPart=  6 NShTot=         172 NBatch=          36 AvBLen=         4.8
 IPart= 25 NShTot=         143 NBatch=          21 AvBLen=         6.8
 IPart= 24 NShTot=         143 NBatch=          21 AvBLen=         6.8
 IPart= 10 NShTot=         157 NBatch=          26 AvBLen=         6.0
 PrSmSu:  NxtVal=             33.
 Entering OneElI...
 Calculate potential energy integrals
    NBasis = 300  MinDer = 1  MaxDer = 1
 Requested accuracy = 0.1000D-12
 PrsmSu:  NPrtUS=  32 ThrOK=T IAlg=1 NPAlg=1 LenDen=           0.
 Prism:   IPart=     0 DynPar=F LinDyn=F Incr=          17.
 PRISM was handed    13013646 working-precision words and  4623 shell-pairs
 PRISM was handed    13013646 working-precision words and  4623 shell-pairs
 PRISM was handed    13013646 working-precision words and  4623 shell-pairs
 PRISM was handed    13013646 working-precision words and  4623 shell-pairs
 PRISM was handed    13013646 working-precision words and  4623 shell-pairs
 PRISM was handed    13013646 working-precision words and  4623 shell-pairs
 PRISM was handed    13013646 working-precision words and  4623 shell-pairs
 PRISM was handed    13013646 working-precision words and  4623 shell-pairs
 PRISM was handed    13013646 working-precision words and  4623 shell-pairs
 PRISM was handed    13013646 working-precision words and  4623 shell-pairs
 PRISM was handed    13013646 working-precision words and  4623 shell-pairs
 PRISM was handed    13013646 working-precision words and  4623 shell-pairs
 PRISM was handed    13013646 working-precision words and  4623 shell-pairs
 PRISM was handed    13013646 working-precision words and  4623 shell-pairs
 PRISM was handed    13013646 working-precision words and  4623 shell-pairs
 PRISM was handed    13013646 working-precision words and  4623 shell-pairs
 PRISM was handed    13013646 working-precision words and  4623 shell-pairs
 PRISM was handed    13013646 working-precision words and  4623 shell-pairs
 PRISM was handed    13013646 working-precision words and  4623 shell-pairs
 PRISM was handed    13013646 working-precision words and  4623 shell-pairs
 PRISM was handed    13013646 working-precision words and  4623 shell-pairs
 PRISM was handed    13013646 working-precision words and  4623 shell-pairs
 PRISM was handed    13013646 working-precision words and  4623 shell-pairs
 PRISM was handed    13013646 working-precision words and  4623 shell-pairs
 PRISM was handed    13013646 working-precision words and  4623 shell-pairs
 PRISM was handed    13013646 working-precision words and  4623 shell-pairs
 PRISM was handed    13013646 working-precision words and  4623 shell-pairs
 PRISM was handed    13013646 working-precision words and  4623 shell-pairs
 PRISM was handed    13013646 working-precision words and  4623 shell-pairs
 PRISM was handed    13013646 working-precision words and  4623 shell-pairs
 PRISM was handed    13013646 working-precision words and  4623 shell-pairs
 PRISM was handed    13013646 working-precision words and  4623 shell-pairs
 IPart=  1 NShTot=        2184 NBatch=         182 AvBLen=        12.0
 IPart= 25 NShTot=        1572 NBatch=         131 AvBLen=        12.0
 IPart= 19 NShTot=        1644 NBatch=         137 AvBLen=        12.0
 IPart=  3 NShTot=        2028 NBatch=         169 AvBLen=        12.0
 IPart= 21 NShTot=        1620 NBatch=         135 AvBLen=        12.0
 IPart= 31 NShTot=        1548 NBatch=         129 AvBLen=        12.0
 IPart=  0 NShTot=        2280 NBatch=         190 AvBLen=        12.0
 IPart= 27 NShTot=        1548 NBatch=         129 AvBLen=        12.0
 IPart=  2 NShTot=        2076 NBatch=         173 AvBLen=        12.0
 IPart= 12 NShTot=        1704 NBatch=         142 AvBLen=        12.0
 IPart= 11 NShTot=        1728 NBatch=         144 AvBLen=        12.0
 IPart= 20 NShTot=        1644 NBatch=         137 AvBLen=        12.0
 IPart=  4 NShTot=        1932 NBatch=         161 AvBLen=        12.0
 IPart= 23 NShTot=        1584 NBatch=         132 AvBLen=        12.0
 IPart= 24 NShTot=        1572 NBatch=         131 AvBLen=        12.0
 IPart= 17 NShTot=        1644 NBatch=         137 AvBLen=        12.0
 IPart= 15 NShTot=        1680 NBatch=         140 AvBLen=        12.0
 IPart= 16 NShTot=        1656 NBatch=         138 AvBLen=        12.0
 IPart= 18 NShTot=        1644 NBatch=         137 AvBLen=        12.0
 IPart= 30 NShTot=        1548 NBatch=         129 AvBLen=        12.0
 IPart= 28 NShTot=        1548 NBatch=         129 AvBLen=        12.0
 IPart=  6 NShTot=        1896 NBatch=         158 AvBLen=        12.0
 IPart= 10 NShTot=        1728 NBatch=         144 AvBLen=        12.0
 IPart= 29 NShTot=        1548 NBatch=         129 AvBLen=        12.0
 IPart= 13 NShTot=        1692 NBatch=         141 AvBLen=        12.0
 IPart=  7 NShTot=        1872 NBatch=         156 AvBLen=        12.0
 IPart=  5 NShTot=        1920 NBatch=         160 AvBLen=        12.0
 IPart=  9 NShTot=        1776 NBatch=         148 AvBLen=        12.0
 IPart= 26 NShTot=        1572 NBatch=         131 AvBLen=        12.0
 IPart=  8 NShTot=        1812 NBatch=         151 AvBLen=        12.0
 IPart= 22 NShTot=        1596 NBatch=         133 AvBLen=        12.0
 IPart= 14 NShTot=        1680 NBatch=         140 AvBLen=        12.0
 PrSmSu:  NxtVal=            545.
 l701 out
 I=    0 X=  -4.881122524582D-01 Y=   2.148151405942D-01 Z=  -9.458645703877D-02
 I=    1 X=   4.573200068582D-01 Y=   8.057294893765D-01 Z=  -4.242582673323D+00
 I=    2 X=   2.837074171568D+00 Y=   1.039290694259D+00 Z=   8.335481444214D+00
 I=    3 X=   3.168972984899D+00 Y=   1.613576823277D-01 Z=  -1.606538564192D+00
 I=    4 X=  -2.665662804790D+00 Y=   1.563409598490D+00 Z=  -1.820452313388D+00
 I=    5 X=  -3.094127469055D+00 Y=   4.337626205185D-01 Z=   2.493021530697D+00
 I=    6 X=  -1.443139202061D+00 Y=  -2.006673080250D+00 Z=   7.090315201122D-01
 I=    7 X=   8.813061853146D-01 Y=  -8.964279499667D-01 Z=  -3.251951918624D+00
 I=    8 X=  -3.408602409264D+00 Y=   1.483324962410D-01 Z=   6.624155725560D-01
 I=    9 X=   1.539100130400D+00 Y=  -1.539121344463D+00 Z=   2.733235775215D+00
 I=   10 X=   3.130242184203D+00 Y=   6.536119243597D-01 Z=  -1.393077358647D-01
 I=   11 X=  -6.186441200312D-02 Y=  -2.504896400607D+00 Z=  -1.878162677381D+00
 I=   12 X=  -1.340619366068D+00 Y=   2.141624269715D+00 Z=  -1.994189960020D+00
 ICntrl=      2127.
 Calling FoFJK, ICntrl=      2127 FMM=F ISym2X=0 I1Cent= 0 IOpClX= 1 NMat=1 NMatS=1 NMatT=0.
 FoFJK:  IHMeth= 1 ICntrl=    2127 DoSepK=T KAlg= 0 I1Cent=   0 FoldK=F
 IRaf=         1 NMat=   1 IRICut=       1 DoRegI=T DoRafI=F ISym2E= 0.
 FoFCou: FMM=F IPFlag=           0 FMFlag=      100000 FMFlg1=         800
         NFxFlg=           0 DoJE=F BraDBF=F KetDBF=F FulRan=T
         wScrn=  0.000000 ICntrl=    2527 IOpCl=  0 I1Cent=           0 NGrid=           0
         NMat0=    1 NMatS0=      1 NMatT0=    0 NMatD0=    1 NMtDS0=    0 NMtDT0=    0
 Symmetry not used in FoFCou.
 FoFCou:  KetSym=F NOpSet=  1 NOpAb=1 NOp=  1.
 FoFCou:  CnvScl= 1.00D+00 Thresh= 1.00D-10 IAcrcy=      10.
 PrismS was handed   418932621 working-precision words and  4801 shell-pairs
 FoFCou: LinMIO=F DoNuc=F BraDBF=F KetDBF=F HaveP=T PDBF=F HaveZ=T HaveW=F
         NIJTC =      10 NIJTAt=       0 NIJTCD=       0 NIJTT =      10
         IJTBeg=       1 IJTEnd=      10 KLTBeg=       1 KLTEnd=      10
         IPTBeg=       1 IPTEnd=      10 IPTBCv=       1 IPTECv=      10
         IZTBeg=       1 IZTEnd=      10 IZTBCv=       1 IZTECv=      10
         IWTBeg=      11 IWTEnd=      10 IWTBCv=      11 IWTECv=      10
         INTBeg=       1 INTEnd=       0 IFTBCv=       1 IFTECv=      10
 NCel replicated for PrismC:     1
 CoulSu:  IncDef=  1024 NBBP=       11527201 NTPThr=   100 NPartT=   32 Incr=        1024 LDynOK=F.
 CoulSu:  NPrtUS=  32 ThrOK=T IAlg=1 NPAlg=1 LenDen=           0 LWGrdD=           0 DoCopy=F.
 Enter PrismC: JobTyp=21 DoJE=F Cont=F.
 Enter PrismC: JobTyp=21 DoJE=F Cont=F.
 Enter PrismC: JobTyp=21 DoJE=F Cont=F.
 PrismC was handed    13006678 working-precision words and  4801 shell-pairs
 Enter PrismC: JobTyp=21 DoJE=F Cont=F.
 PrismC was handed    13006678 working-precision words and  4801 shell-pairs
 Enter PrismC: JobTyp=21 DoJE=F Cont=F.
 PrismC was handed    13006678 working-precision words and  4801 shell-pairs
 Enter PrismC: JobTyp=21 DoJE=F Cont=F.
 PrismC was handed    13006678 working-precision words and  4801 shell-pairs
 Enter PrismC: JobTyp=21 DoJE=F Cont=F.
 Enter PrismC: JobTyp=21 DoJE=F Cont=F.
 PrismC was handed    13006678 working-precision words and  4801 shell-pairs
 Enter PrismC: JobTyp=21 DoJE=F Cont=F.
 PrismC was handed    13006678 working-precision words and  4801 shell-pairs
 Enter PrismC: JobTyp=21 DoJE=F Cont=F.
 PrismC was handed    13006678 working-precision words and  4801 shell-pairs
 Enter PrismC: JobTyp=21 DoJE=F Cont=F.
 PrismC was handed    13006678 working-precision words and  4801 shell-pairs
 Enter PrismC: JobTyp=21 DoJE=F Cont=F.
 Enter PrismC: JobTyp=21 DoJE=F Cont=F.
 PrismC:  IPart=     0 DynPar=T LinDyn=F Incr=        1024 UseFst=F UseS4=T IGathr=2.
 PrismC was handed    13006678 working-precision words and  4801 shell-pairs
 Enter PrismC: JobTyp=21 DoJE=F Cont=F.
 PrismC was handed    13006678 working-precision words and  4801 shell-pairs
 Enter PrismC: JobTyp=21 DoJE=F Cont=F.
 PrismC was handed    13006678 working-precision words and  4801 shell-pairs
 Enter PrismC: JobTyp=21 DoJE=F Cont=F.
 Enter PrismC: JobTyp=21 DoJE=F Cont=F.
 PrismC was handed    13006678 working-precision words and  4801 shell-pairs
 Enter PrismC: JobTyp=21 DoJE=F Cont=F.
 PrismC was handed    13006678 working-precision words and  4801 shell-pairs
 Enter PrismC: JobTyp=21 DoJE=F Cont=F.
 PrismC was handed    13006678 working-precision words and  4801 shell-pairs
 PrismC was handed    13006678 working-precision words and  4801 shell-pairs
 PrismC was handed    13006678 working-precision words and  4801 shell-pairs
 Enter PrismC: JobTyp=21 DoJE=F Cont=F.
 Enter PrismC: JobTyp=21 DoJE=F Cont=F.
 Enter PrismC: JobTyp=21 DoJE=F Cont=F.
 Enter PrismC: JobTyp=21 DoJE=F Cont=F.
 PrismC was handed    13006678 working-precision words and  4801 shell-pairs
 Enter PrismC: JobTyp=21 DoJE=F Cont=F.
 Enter PrismC: JobTyp=21 DoJE=F Cont=F.
 Enter PrismC: JobTyp=21 DoJE=F Cont=F.
 Enter PrismC: JobTyp=21 DoJE=F Cont=F.
 PrismC was handed    13006678 working-precision words and  4801 shell-pairs
 Enter PrismC: JobTyp=21 DoJE=F Cont=F.
 PrismC was handed    13006678 working-precision words and  4801 shell-pairs
 Enter PrismC: JobTyp=21 DoJE=F Cont=F.
 Enter PrismC: JobTyp=21 DoJE=F Cont=F.
 PrismC was handed    13006678 working-precision words and  4801 shell-pairs
 Enter PrismC: JobTyp=21 DoJE=F Cont=F.
 Enter PrismC: JobTyp=21 DoJE=F Cont=F.
 PrismC was handed    13006678 working-precision words and  4801 shell-pairs
 PrismC was handed    13006678 working-precision words and  4801 shell-pairs
 PrismC was handed    13006678 working-precision words and  4801 shell-pairs
 PrismC was handed    13006678 working-precision words and  4801 shell-pairs
 PrismC was handed    13006678 working-precision words and  4801 shell-pairs
 PrismC was handed    13006678 working-precision words and  4801 shell-pairs
 PrismC was handed    13006678 working-precision words and  4801 shell-pairs
 PrismC was handed    13006678 working-precision words and  4801 shell-pairs
 PrismC was handed    13006678 working-precision words and  4801 shell-pairs
 PrismC was handed    13006678 working-precision words and  4801 shell-pairs
 PrismC was handed    13006678 working-precision words and  4801 shell-pairs
 PrismC was handed    13006678 working-precision words and  4801 shell-pairs
 IPart= 17 NShTot=      256508 NShNF=      256508 NShFF=           0 NBatch=        1867 AvBLen=       137.4
 IPart= 15 NShTot=      264830 NShNF=      264830 NShFF=           0 NBatch=        1956 AvBLen=       135.4
 IPart= 24 NShTot=      251356 NShNF=      251356 NShFF=           0 NBatch=        1856 AvBLen=       135.4
 IPart= 29 NShTot=      256350 NShNF=      256350 NShFF=           0 NBatch=        1784 AvBLen=       143.7
 IPart= 12 NShTot=      275033 NShNF=      275033 NShFF=           0 NBatch=        1862 AvBLen=       147.7
 IPart= 30 NShTot=      262684 NShNF=      262684 NShFF=           0 NBatch=        1827 AvBLen=       143.8
 IPart=  0 NShTot=      251335 NShNF=      251335 NShFF=           0 NBatch=        1744 AvBLen=       144.1
 IPart=  8 NShTot=      271392 NShNF=      271392 NShFF=           0 NBatch=        2031 AvBLen=       133.6
 IPart= 11 NShTot=      269016 NShNF=      269016 NShFF=           0 NBatch=        1886 AvBLen=       142.6
 IPart= 28 NShTot=      278318 NShNF=      278318 NShFF=           0 NBatch=        1906 AvBLen=       146.0
 IPart= 19 NShTot=      277641 NShNF=      277641 NShFF=           0 NBatch=        1992 AvBLen=       139.4
 IPart=  5 NShTot=      276247 NShNF=      276247 NShFF=           0 NBatch=        1938 AvBLen=       142.5
 IPart= 31 NShTot=      274436 NShNF=      274436 NShFF=           0 NBatch=        2043 AvBLen=       134.3
 IPart=  2 NShTot=      265949 NShNF=      265949 NShFF=           0 NBatch=        1998 AvBLen=       133.1
 IPart= 25 NShTot=      264662 NShNF=      264662 NShFF=           0 NBatch=        1771 AvBLen=       149.4
 IPart= 22 NShTot=      273409 NShNF=      273409 NShFF=           0 NBatch=        1798 AvBLen=       152.1
 IPart= 16 NShTot=      257726 NShNF=      257726 NShFF=           0 NBatch=        1970 AvBLen=       130.8
 IPart= 23 NShTot=      245939 NShNF=      245939 NShFF=           0 NBatch=        1865 AvBLen=       131.9
 IPart= 18 NShTot=      256167 NShNF=      256167 NShFF=           0 NBatch=        1959 AvBLen=       130.8
 IPart=  9 NShTot=      269942 NShNF=      269942 NShFF=           0 NBatch=        1913 AvBLen=       141.1
 IPart= 21 NShTot=      250882 NShNF=      250882 NShFF=           0 NBatch=        2004 AvBLen=       125.2
 IPart=  3 NShTot=      273728 NShNF=      273728 NShFF=           0 NBatch=        1981 AvBLen=       138.2
 IPart=  4 NShTot=      260275 NShNF=      260275 NShFF=           0 NBatch=        1893 AvBLen=       137.5
 IPart=  6 NShTot=      297286 NShNF=      297286 NShFF=           0 NBatch=        1999 AvBLen=       148.7
 IPart=  7 NShTot=      248293 NShNF=      248293 NShFF=           0 NBatch=        1952 AvBLen=       127.2
 IPart=  1 NShTot=      280687 NShNF=      280687 NShFF=           0 NBatch=        1947 AvBLen=       144.2
 IPart= 20 NShTot=      245077 NShNF=      245077 NShFF=           0 NBatch=        1768 AvBLen=       138.6
 IPart= 10 NShTot=      276510 NShNF=      276510 NShFF=           0 NBatch=        1998 AvBLen=       138.4
 IPart= 14 NShTot=      288375 NShNF=      288375 NShFF=           0 NBatch=        2049 AvBLen=       140.7
 IPart= 13 NShTot=      253436 NShNF=      253436 NShFF=           0 NBatch=        1956 AvBLen=       129.6
 IPart= 26 NShTot=      280148 NShNF=      280148 NShFF=           0 NBatch=        1996 AvBLen=       140.4
 IPart= 27 NShTot=      281095 NShNF=      281095 NShFF=           0 NBatch=        1879 AvBLen=       149.6
 CoulSu:  NxtVal=       12540929.
 FoFCou: FMM=F IPFlag=           0 FMFlag=      100000 FMFlg1=         800
         NFxFlg=           0 DoJE=F BraDBF=F KetDBF=F FulRan=T
         wScrn=  0.000000 ICntrl=    2127 IOpCl=  1 I1Cent=           0 NGrid=           0
         NMat0=    1 NMatS0=      0 NMatT0=    1 NMatD0=    1 NMtDS0=    0 NMtDT0=    0
         CW=    0.222036    0.777964
         WU=    0.000000   12.500000
 Symmetry not used in FoFCou.
 FoFCou:  KetSym=F NOpSet=  1 NOpAb=1 NOp=  1.
 FoFCou:  CnvScl= 1.00D+00 Thresh= 1.00D-10 IAcrcy=      10.
 PrismS was handed   418927655 working-precision words and  4801 shell-pairs
 FoFCou: LinMIO=F DoNuc=F BraDBF=F KetDBF=F HaveP=T PDBF=F HaveZ=T HaveW=F
         NIJTC =      10 NIJTAt=       0 NIJTCD=       0 NIJTT =      10
         IJTBeg=       1 IJTEnd=      10 KLTBeg=       1 KLTEnd=      10
         IPTBeg=       1 IPTEnd=      10 IPTBCv=       1 IPTECv=      10
         IZTBeg=       1 IZTEnd=      10 IZTBCv=       1 IZTECv=      10
         IWTBeg=      11 IWTEnd=      10 IWTBCv=      11 IWTECv=      10
         INTBeg=       1 INTEnd=       0 IFTBCv=       1 IFTECv=      10
 NCel replicated for PrismC:     1
 CoulSu:  IncDef=  1024 NBBP=       11527201 NTPThr=   100 NPartT=   32 Incr=        1024 LDynOK=F.
 CoulSu:  NPrtUS=  32 ThrOK=T IAlg=1 NPAlg=1 LenDen=           0 LWGrdD=           0 DoCopy=F.
 Enter PrismC: JobTyp=21 DoJE=F Cont=F.
 Enter PrismC: JobTyp=21 DoJE=F Cont=F.
 Linear combination for Coulomb/exchange, wScrn=  0.000000
 CW=    0.222036    0.777964
 WU=    0.000000   12.500000
 PrismC was handed    13006522 working-precision words and  4801 shell-pairs
 Enter PrismC: JobTyp=21 DoJE=F Cont=F.
 Linear combination for Coulomb/exchange, wScrn=  0.000000
 CW=    0.222036    0.777964
 Enter PrismC: JobTyp=21 DoJE=F Cont=F.
 Enter PrismC: JobTyp=21 DoJE=F Cont=F.
 Enter PrismC: JobTyp=21 DoJE=F Cont=F.
 Enter PrismC: JobTyp=21 DoJE=F Cont=F.
 Enter PrismC: JobTyp=21 DoJE=F Cont=F.
 Enter PrismC: JobTyp=21 DoJE=F Cont=F.
 Linear combination for Coulomb/exchange, wScrn=  0.000000
 CW=    0.222036    0.777964
 WU=    0.000000   12.500000
 Enter PrismC: JobTyp=21 DoJE=F Cont=F.
 Linear combination for Coulomb/exchange, wScrn=  0.000000
 CW=    0.222036    0.777964
 WU=    0.000000   12.500000
 PrismC was handed    13006522 working-precision words and  4801 shell-pairs
 Enter PrismC: JobTyp=21 DoJE=F Cont=F.
 Linear combination for Coulomb/exchange, wScrn=  0.000000
 CW=    0.222036    0.777964
 WU=    0.000000   12.500000
 Enter PrismC: JobTyp=21 DoJE=F Cont=F.
 Linear combination for Coulomb/exchange, wScrn=  0.000000
 CW=    0.222036    0.777964
 WU=    0.000000   12.500000
 Linear combination for Coulomb/exchange, wScrn=  0.000000
 CW=    0.222036    0.777964
 WU=    0.000000   12.500000
 PrismC was handed    13006522 working-precision words and  4801 shell-pairs
 Enter PrismC: JobTyp=21 DoJE=F Cont=F.
 Enter PrismC: JobTyp=21 DoJE=F Cont=F.
 Linear combination for Coulomb/exchange, wScrn=  0.000000
 CW=    0.222036    0.777964
 WU=    0.000000   12.500000
 PrismC was handed    13006522 working-precision words and  4801 shell-pairs
 Enter PrismC: JobTyp=21 DoJE=F Cont=F.
 Enter PrismC: JobTyp=21 DoJE=F Cont=F.
 Linear combination for Coulomb/exchange, wScrn=  0.000000
 CW=    0.222036    0.777964
 WU=    0.000000   12.500000
 Enter PrismC: JobTyp=21 DoJE=F Cont=F.
 Linear combination for Coulomb/exchange, wScrn=  0.000000
 CW=    0.222036    0.777964
 WU=    0.000000   12.500000
 Enter PrismC: JobTyp=21 DoJE=F Cont=F.
 Linear combination for Coulomb/exchange, wScrn=  0.000000
 CW=    0.222036    0.777964
 WU=    0.000000   12.500000
 Enter PrismC: JobTyp=21 DoJE=F Cont=F.
 Linear combination for Coulomb/exchange, wScrn=  0.000000
 CW=    0.222036    0.777964
 WU=    0.000000   12.500000
 PrismC was handed    13006522 working-precision words and  4801 shell-pairs
 WU=    0.000000   12.500000
 PrismC was handed    13006522 working-precision words and  4801 shell-pairs
 PrismC was handed    13006522 working-precision words and  4801 shell-pairs
 Enter PrismC: JobTyp=21 DoJE=F Cont=F.
 Linear combination for Coulomb/exchange, wScrn=  0.000000
 CW=    0.222036    0.777964
 WU=    0.000000   12.500000
 PrismC was handed    13006522 working-precision words and  4801 shell-pairs
 Linear combination for Coulomb/exchange, wScrn=  0.000000
 CW=    0.222036    0.777964
 WU=    0.000000   12.500000
 Linear combination for Coulomb/exchange, wScrn=  0.000000
 CW=    0.222036    0.777964
 WU=    0.000000   12.500000
 PrismC was handed    13006522 working-precision words and  4801 shell-pairs
 Enter PrismC: JobTyp=21 DoJE=F Cont=F.
 Linear combination for Coulomb/exchange, wScrn=  0.000000
 CW=    0.222036    0.777964
 WU=    0.000000   12.500000
 Linear combination for Coulomb/exchange, wScrn=  0.000000
 CW=    0.222036    0.777964
 WU=    0.000000   12.500000
 Enter PrismC: JobTyp=21 DoJE=F Cont=F.
 Linear combination for Coulomb/exchange, wScrn=  0.000000
 CW=    0.222036    0.777964
 WU=    0.000000   12.500000
 Enter PrismC: JobTyp=21 DoJE=F Cont=F.
 Linear combination for Coulomb/exchange, wScrn=  0.000000
 CW=    0.222036    0.777964
 WU=    0.000000   12.500000
 PrismC was handed    13006522 working-precision words and  4801 shell-pairs
 Enter PrismC: JobTyp=21 DoJE=F Cont=F.
 Linear combination for Coulomb/exchange, wScrn=  0.000000
 CW=    0.222036    0.777964
 WU=    0.000000   12.500000
 Enter PrismC: JobTyp=21 DoJE=F Cont=F.
 Linear combination for Coulomb/exchange, wScrn=  0.000000
 CW=    0.222036    0.777964
 WU=    0.000000   12.500000
 PrismC was handed    13006522 working-precision words and  4801 shell-pairs
 Enter PrismC: JobTyp=21 DoJE=F Cont=F.
 Linear combination for Coulomb/exchange, wScrn=  0.000000
 CW=    0.222036    0.777964
 WU=    0.000000   12.500000
 PrismC was handed    13006522 working-precision words and  4801 shell-pairs
 Enter PrismC: JobTyp=21 DoJE=F Cont=F.
 Linear combination for Coulomb/exchange, wScrn=  0.000000
 CW=    0.222036    0.777964
 WU=    0.000000   12.500000
 PrismC was handed    13006522 working-precision words and  4801 shell-pairs
 PrismC:  IPart=     0 DynPar=T LinDyn=F Incr=        1024 UseFst=F UseS4=T IGathr=2.
 PrismC was handed    13006522 working-precision words and  4801 shell-pairs
 Linear combination for Coulomb/exchange, wScrn=  0.000000
 CW=    0.222036    0.777964
 WU=    0.000000   12.500000
 PrismC was handed    13006522 working-precision words and  4801 shell-pairs
 Enter PrismC: JobTyp=21 DoJE=F Cont=F.
 Linear combination for Coulomb/exchange, wScrn=  0.000000
 CW=    0.222036    0.777964
 WU=    0.000000   12.500000
 PrismC was handed    13006522 working-precision words and  4801 shell-pairs
 PrismC was handed    13006522 working-precision words and  4801 shell-pairs
 PrismC was handed    13006522 working-precision words and  4801 shell-pairs
 Enter PrismC: JobTyp=21 DoJE=F Cont=F.
 Linear combination for Coulomb/exchange, wScrn=  0.000000
 CW=    0.222036    0.777964
 WU=    0.000000   12.500000
 Linear combination for Coulomb/exchange, wScrn=  0.000000
 CW=    0.222036    0.777964
 WU=    0.000000   12.500000
 PrismC was handed    13006522 working-precision words and  4801 shell-pairs
 Linear combination for Coulomb/exchange, wScrn=  0.000000
 CW=    0.222036    0.777964
 WU=    0.000000   12.500000
 PrismC was handed    13006522 working-precision words and  4801 shell-pairs
 PrismC was handed    13006522 working-precision words and  4801 shell-pairs
 PrismC was handed    13006522 working-precision words and  4801 shell-pairs
 Enter PrismC: JobTyp=21 DoJE=F Cont=F.
 Linear combination for Coulomb/exchange, wScrn=  0.000000
 CW=    0.222036    0.777964
 WU=    0.000000   12.500000
 PrismC was handed    13006522 working-precision words and  4801 shell-pairs
 Enter PrismC: JobTyp=21 DoJE=F Cont=F.
 Linear combination for Coulomb/exchange, wScrn=  0.000000
 CW=    0.222036    0.777964
 WU=    0.000000   12.500000
 PrismC was handed    13006522 working-precision words and  4801 shell-pairs
 PrismC was handed    13006522 working-precision words and  4801 shell-pairs
 Linear combination for Coulomb/exchange, wScrn=  0.000000
 CW=    0.222036    0.777964
 WU=    0.000000   12.500000
 Enter PrismC: JobTyp=21 DoJE=F Cont=F.
 PrismC was handed    13006522 working-precision words and  4801 shell-pairs
 PrismC was handed    13006522 working-precision words and  4801 shell-pairs
 PrismC was handed    13006522 working-precision words and  4801 shell-pairs
 PrismC was handed    13006522 working-precision words and  4801 shell-pairs
 PrismC was handed    13006522 working-precision words and  4801 shell-pairs
 PrismC was handed    13006522 working-precision words and  4801 shell-pairs
 Linear combination for Coulomb/exchange, wScrn=  0.000000
 CW=    0.222036    0.777964
 WU=    0.000000   12.500000
 PrismC was handed    13006522 working-precision words and  4801 shell-pairs
 IPart=  7 NShTot=      205236 NShNF=      205236 NShFF=           0 NBatch=        1938 AvBLen=       105.9
 IPart= 26 NShTot=      219447 NShNF=      219447 NShFF=           0 NBatch=        2228 AvBLen=        98.5
 IPart= 16 NShTot=      346492 NShNF=      346492 NShFF=           0 NBatch=        2516 AvBLen=       137.7
 IPart= 24 NShTot=      279139 NShNF=      279139 NShFF=           0 NBatch=        2513 AvBLen=       111.1
 IPart= 30 NShTot=      245829 NShNF=      245829 NShFF=           0 NBatch=        1924 AvBLen=       127.8
 IPart= 11 NShTot=      168651 NShNF=      168651 NShFF=           0 NBatch=        1686 AvBLen=       100.0
 IPart=  8 NShTot=      226936 NShNF=      226936 NShFF=           0 NBatch=        1850 AvBLen=       122.7
 IPart=  4 NShTot=      497497 NShNF=      497497 NShFF=           0 NBatch=        3381 AvBLen=       147.1
 IPart= 10 NShTot=      232384 NShNF=      232384 NShFF=           0 NBatch=        1962 AvBLen=       118.4
 IPart= 15 NShTot=      303270 NShNF=      303270 NShFF=           0 NBatch=        2696 AvBLen=       112.5
 IPart= 28 NShTot=      234864 NShNF=      234864 NShFF=           0 NBatch=        2365 AvBLen=        99.3
 IPart= 21 NShTot=      298060 NShNF=      298060 NShFF=           0 NBatch=        2626 AvBLen=       113.5
 IPart=  5 NShTot=      264567 NShNF=      264567 NShFF=           0 NBatch=        2511 AvBLen=       105.4
 IPart= 31 NShTot=      273672 NShNF=      273672 NShFF=           0 NBatch=        2684 AvBLen=       102.0
 IPart= 12 NShTot=      253194 NShNF=      253194 NShFF=           0 NBatch=        2453 AvBLen=       103.2
 IPart= 19 NShTot=      239916 NShNF=      239916 NShFF=           0 NBatch=        2147 AvBLen=       111.7
 IPart= 23 NShTot=      354449 NShNF=      354449 NShFF=           0 NBatch=        3304 AvBLen=       107.3
 IPart= 22 NShTot=      257609 NShNF=      257609 NShFF=           0 NBatch=        2568 AvBLen=       100.3
 IPart= 18 NShTot=      287272 NShNF=      287272 NShFF=           0 NBatch=        2804 AvBLen=       102.5
 IPart=  2 NShTot=      248784 NShNF=      248784 NShFF=           0 NBatch=        1972 AvBLen=       126.2
 IPart= 20 NShTot=      213793 NShNF=      213793 NShFF=           0 NBatch=        1856 AvBLen=       115.2
 IPart= 29 NShTot=      260829 NShNF=      260829 NShFF=           0 NBatch=        2485 AvBLen=       105.0
 IPart= 17 NShTot=      280686 NShNF=      280686 NShFF=           0 NBatch=        2538 AvBLen=       110.6
 IPart= 13 NShTot=      295500 NShNF=      295500 NShFF=           0 NBatch=        2586 AvBLen=       114.3
 IPart=  9 NShTot=      262748 NShNF=      262748 NShFF=           0 NBatch=        2491 AvBLen=       105.5
 IPart=  0 NShTot=      186026 NShNF=      186026 NShFF=           0 NBatch=        1892 AvBLen=        98.3
 IPart= 25 NShTot=      283740 NShNF=      283740 NShFF=           0 NBatch=        2754 AvBLen=       103.0
 IPart=  3 NShTot=      321241 NShNF=      321241 NShFF=           0 NBatch=        2312 AvBLen=       138.9
 IPart=  6 NShTot=      237605 NShNF=      237605 NShFF=           0 NBatch=        2280 AvBLen=       104.2
 IPart=  1 NShTot=      250049 NShNF=      250049 NShFF=           0 NBatch=        2171 AvBLen=       115.2
 IPart= 14 NShTot=      297596 NShNF=      297596 NShFF=           0 NBatch=        2618 AvBLen=       113.7
 IPart= 27 NShTot=      261798 NShNF=      261798 NShFF=           0 NBatch=        2213 AvBLen=       118.3
 CoulSu:  NxtVal=       12540929.
 ReadGW:  IGet=0 IStart=           1 Next=           1 LGW=           0.
 Remaining memory in FofDFT      399.83 Mw
 CkSvGd:  ISavGI=        -1 IRadAn=       5 IRASav=       5 ISavGd=        -1.
 CalDSu:  NPrtUS=  32 ThrOK=T IAlg=1 NPAlg=2 DoDPD=T LenP=       45150 LenD1P=             0.
 IPart=  0 IRanGd=          0 ScrnBf=T ScrnGd=T RCrit=4.00D+00 DoMicB=T.
 IPart= 14         9831 of        12402 points in      19 batches and       85 microbatches, Max-NSigAt=      12 Max-NSgAt2=      12
 IPart= 11         5894 of         7204 points in      11 batches and       42 microbatches, Max-NSigAt=      12 Max-NSgAt2=      12
 IPart= 16        10989 of        13036 points in      21 batches and       72 microbatches, Max-NSigAt=      12 Max-NSgAt2=      12
 IPart=  6         8650 of         9340 points in      13 batches and       58 microbatches, Max-NSigAt=      12 Max-NSgAt2=      12
 IPart= 23         8571 of         9934 points in      16 batches and       54 microbatches, Max-NSigAt=      12 Max-NSgAt2=      12
 IPart=  5         5511 of         6258 points in      10 batches and       33 microbatches, Max-NSigAt=      12 Max-NSgAt2=      12
 IPart= 26         7643 of         8570 points in      13 batches and       40 microbatches, Max-NSigAt=      12 Max-NSgAt2=      12
 IPart= 18         6500 of         7452 points in      12 batches and       52 microbatches, Max-NSigAt=      12 Max-NSgAt2=      12
 IPart=  1         8599 of         9580 points in      14 batches and       31 microbatches, Max-NSigAt=      12 Max-NSgAt2=      12
 IPart=  3         6036 of         6532 points in      11 batches and       46 microbatches, Max-NSigAt=      12 Max-NSgAt2=      12
 IPart= 17         8383 of         8674 points in      14 batches and       44 microbatches, Max-NSigAt=      12 Max-NSgAt2=      12
 IPart= 29        11134 of        12708 points in      19 batches and       87 microbatches, Max-NSigAt=      12 Max-NSgAt2=      12
 IPart= 25         7934 of         8730 points in      14 batches and       62 microbatches, Max-NSigAt=      12 Max-NSgAt2=      12
 IPart=  2         7930 of         8738 points in      13 batches and       53 microbatches, Max-NSigAt=      12 Max-NSgAt2=      12
 IPart= 28         7584 of         8014 points in      13 batches and       41 microbatches, Max-NSigAt=      12 Max-NSgAt2=      12
 IPart= 19         6198 of         6624 points in      10 batches and       38 microbatches, Max-NSigAt=      12 Max-NSgAt2=      12
 IPart=  4         6656 of         7006 points in      11 batches and       24 microbatches, Max-NSigAt=      12 Max-NSgAt2=      12
 IPart= 12         6786 of         8642 points in      14 batches and       65 microbatches, Max-NSigAt=      12 Max-NSgAt2=      12
 IPart= 21        10908 of        12592 points in      19 batches and       61 microbatches, Max-NSigAt=      12 Max-NSgAt2=      12
 IPart= 22        10695 of        11770 points in      18 batches and       61 microbatches, Max-NSigAt=      12 Max-NSgAt2=      12
 IPart= 20         9058 of        10878 points in      16 batches and       47 microbatches, Max-NSigAt=      12 Max-NSgAt2=      12
 IPart= 27         9037 of        11428 points in      18 batches and       71 microbatches, Max-NSigAt=      12 Max-NSgAt2=      12
 IPart=  0         9047 of        10472 points in      14 batches and       48 microbatches, Max-NSigAt=      12 Max-NSgAt2=      12
 IPart= 10         8127 of         8590 points in      14 batches and       49 microbatches, Max-NSigAt=      12 Max-NSgAt2=      12
 IPart=  7         6134 of         6888 points in      11 batches and       45 microbatches, Max-NSigAt=      12 Max-NSgAt2=      12
 IPart= 31         5787 of         6194 points in      10 batches and       39 microbatches, Max-NSigAt=      12 Max-NSgAt2=      12
 IPart= 30         5510 of         5928 points in      10 batches and       33 microbatches, Max-NSigAt=      12 Max-NSgAt2=      12
 IPart= 24         5742 of         6444 points in       9 batches and       31 microbatches, Max-NSigAt=      12 Max-NSgAt2=      12
 IPart= 15         5638 of         5642 points in       8 batches and       16 microbatches, Max-NSigAt=      12 Max-NSgAt2=      12
 IPart= 13         5423 of         6250 points in      10 batches and       39 microbatches, Max-NSigAt=      12 Max-NSgAt2=      12
 IPart=  8         5641 of         6560 points in      11 batches and       55 microbatches, Max-NSigAt=      12 Max-NSgAt2=      12
 IPart=  9         5461 of         6574 points in      11 batches and       55 microbatches, Max-NSigAt=      12 Max-NSgAt2=      12
 Forces at end of L703
 I=    0 X=  -4.881122524582D-01 Y=   2.148151405942D-01 Z=  -9.458645703877D-02
 I=    1 X=   2.202575483353D-03 Y=   5.282903073946D-03 Z=   1.484803248428D-03
 I=    2 X=  -1.934170354629D-04 Y=  -3.838789886887D-04 Z=   5.552077735125D-04
 I=    3 X=   2.977612388815D-04 Y=  -1.386165015586D-04 Z=   9.354565904829D-05
 I=    4 X=  -8.404406171589D-04 Y=  -3.634786242894D-04 Z=  -1.320028136051D-04
 I=    5 X=  -8.199505978279D-05 Y=   2.137535309527D-04 Z=   2.164821008241D-04
 I=    6 X=  -1.835865186979D-03 Y=  -6.609772243853D-03 Z=  -4.426146699894D-03
 I=    7 X=  -1.403145791486D-04 Y=   8.738755180847D-04 Z=   1.270856146786D-03
 I=    8 X=  -3.177288206491D-05 Y=   7.294631312814D-04 Z=   3.011597256252D-04
 I=    9 X=   5.413194586061D-04 Y=   7.384608273218D-04 Z=   6.352655193673D-04
 I=   10 X=   2.247982412036D-04 Y=  -1.345129525034D-04 Z=  -1.303277300492D-04
 I=   11 X=   2.436873246352D-05 Y=  -6.660091443811D-05 Z=   1.382913670231D-04
 I=   12 X=  -1.670177939315D-04 Y=  -1.415958562623D-04 Z=  -7.134296958755D-06
 FrcOut:
 IF    =    61 IFX   =    97 IFXYZ =   133
 IFFX  =   169 IFFFX =   169 IFLen =    36
 IFFLen=     0 IFFFLn=     0 IEDerv=   169
 LEDerv=  1781 IFroze=  2356 ICStrt=146681
 -------------------------------------------------------------------
 Center     Atomic                   Forces (Hartrees/Bohr)
 Number     Number              X              Y              Z
 -------------------------------------------------------------------
      1        6          -0.002202575   -0.005282903   -0.001484803
      2        8           0.000193417    0.000383879   -0.000555208
      3        1          -0.000297761    0.000138617   -0.000093546
      4        1           0.000840441    0.000363479    0.000132003
      5        1           0.000081995   -0.000213754   -0.000216482
      6        6           0.001835865    0.006609772    0.004426147
      7        6           0.000140315   -0.000873876   -0.001270856
      8        1           0.000031773   -0.000729463   -0.000301160
      9        1          -0.000541319   -0.000738461   -0.000635266
     10        1          -0.000224798    0.000134513    0.000130328
     11        1          -0.000024369    0.000066601   -0.000138291
     12        1           0.000167018    0.000141596    0.000007134
 -------------------------------------------------------------------
 Cartesian Forces:  Max     0.006609772 RMS     0.001728857
 From PutF, contents of force:
   1   -0.6160515927D-03
   2   -0.5110718525D-04
   3   -0.2220578584D-03
   4   -0.6310477959D-03
   5   -0.1534786002D-03
   6    0.3585936824D-03
   7   -0.3069799667D-03
   8    0.1237602545D-02
   9    0.3506350909D-03
  10    0.1103454463D-02
  11   -0.1628350164D-03
  12   -0.5017346381D-03
  13   -0.1768237971D-03
  14    0.2131819234D-04
  15    0.2014975155D-04
  16   -0.2624940858D-03
  17    0.6806124674D-05
  18   -0.2858676371D-03
  19    0.2563617986D-03
  20    0.1627184352D-03
  21   -0.1743181062D-02
  22    0.1774329777D-03
  23    0.3893566309D-03
  24    0.2080495041D-03
  25    0.4205007751D-03
  26   -0.1673425950D-03
  27   -0.5877883028D-03
  28   -0.2340853131D-03
  29   -0.7716898743D-03
  30   -0.5296017509D-02
 -----------------------------------------------------------------------------------------------
                       Internal Coordinate Forces (Hartree/Bohr or radian)
  Cent   Atom   N1       Length/X         N2         Alpha/Y        N3         Beta/Z          J
 -----------------------------------------------------------------------------------------------
      1  C 
      2  O        1  -0.000772(     1)
      3  H        1  -0.000234(     2)      2   0.000421(    12)
      4  H        1  -0.000588(     3)      2   0.000359(    13)      3   0.001238(    22)     0
      5  H        2  -0.000167(     4)      1  -0.000307(    14)      3   0.000351(    23)     0
      6  C        1  -0.005296(     5)      2  -0.000153(    15)      3  -0.000631(    24)     0
      7  C        6   0.001103(     6)      1  -0.000222(    16)      2  -0.000051(    25)     0
      8  H        6  -0.000163(     7)      7  -0.000262(    17)      1  -0.000616(    26)     0
      9  H        6  -0.000502(     8)      7   0.000007(    18)      8  -0.001743(    27)     0
     10  H        7  -0.000177(     9)      6  -0.000286(    19)      8   0.000208(    28)     0
     11  H        7   0.000021(    10)      6   0.000256(    20)     10   0.000177(    29)     0
     12  H        7   0.000020(    11)      6   0.000163(    21)     10   0.000389(    30)     0
 -----------------------------------------------------------------------------------------------
 Internal  Forces:  Max     0.005296018 RMS     0.001110780
 Final forces over variables, Energy=-1.94235096D+02:
 -6.16051593D-04-5.11071853D-05-2.22057858D-04-6.31047796D-04
 -1.53478600D-04 3.58593682D-04-3.06979967D-04 1.23760254D-03
  3.50635091D-04 1.10345446D-03-1.62835016D-04-5.01734638D-04
 -1.76823797D-04 2.13181923D-05 2.01497515D-05-2.62494086D-04
  6.80612467D-06-2.85867637D-04 2.56361799D-04 1.62718435D-04
 -1.74318106D-03 1.77432978D-04 3.89356631D-04 2.08049504D-04
  4.20500775D-04-1.67342595D-04-5.87788303D-04-2.34085313D-04
 -7.71689874D-04-5.29601751D-03

 GradGradGradGradGradGradGradGradGradGradGradGradGradGradGradGradGradGrad
 Berny optimization.
 Search for a local minimum.
 Step number   4 out of a maximum of   50
 All quantities printed in internal units (Hartrees-Bohrs-Radians)
 Update second derivatives using D2CorN and points    1    2    3    4
 DE= -7.60D-06 DEPred=-5.19D-06 R= 1.47D+00
 TightC=F SS=  1.41D+00  RLast= 1.30D-02 DXNew= 5.0454D-01 3.8855D-02
 Trust test= 1.47D+00 RLast= 1.30D-02 DXMaxT set to 3.00D-01
 ITU=  1  1  1  0
     Eigenvalues ---    0.00580   0.11726   0.331401000.000001000.00000
     Eigenvalues --- 1000.000001000.000001000.000001000.000001000.00000
     Eigenvalues --- 1000.000001000.000001000.000001000.000001000.00000
     Eigenvalues --- 1000.000001000.000001000.000001000.000001000.00000
     Eigenvalues --- 1000.000001000.000001000.000001000.000001000.00000
     Eigenvalues --- 1000.000001000.000001000.000001000.000001000.00000
 RFO step:  Lambda=-8.56299224D-07 EMin= 5.79513736D-03
 Quartic linear search produced a step of  2.00000.
 Variable       Old X    -DE/DX   Delta X   Delta X   Delta X     New X
                                 (Linear)    (Quad)   (Total)
  BABS3       1.73658  -0.00062  -0.02091   0.00400  -0.01691   1.71967
  BABS2       3.52872  -0.00005   0.01377  -0.00668   0.00709   3.53581
  AABS2       1.72812  -0.00022  -0.00664   0.00137  -0.00527   1.72285
  BABS1       1.82238  -0.00063   0.00000   0.00000   0.00000   1.82238
  AABS1       1.98419  -0.00015   0.00000   0.00000   0.00000   1.98419
    A3        2.07773   0.00036   0.00000   0.00000   0.00000   2.07773
    A4        1.91774  -0.00031   0.00000   0.00000   0.00000   1.91774
    D3        3.59107   0.00124   0.00000   0.00000   0.00000   3.59107
    D4        3.05743   0.00035   0.00000   0.00000   0.00000   3.05743
   R21        2.80039   0.00110   0.00000   0.00000   0.00000   2.80039
   R22        2.04166  -0.00016   0.00000   0.00000   0.00000   2.04166
   R23        2.04147  -0.00050   0.00000   0.00000   0.00000   2.04147
   R24        2.06150  -0.00018   0.00000   0.00000   0.00000   2.06150
   R25        2.07624   0.00002   0.00000   0.00000   0.00000   2.07624
   R26        2.06169   0.00002   0.00000   0.00000   0.00000   2.06169
   A22        2.10998  -0.00026   0.00000   0.00000   0.00000   2.10998
   A23        2.11001   0.00001   0.00000   0.00000   0.00000   2.11001
   A24        1.95093  -0.00029   0.00000   0.00000   0.00000   1.95093
   A25        1.94864   0.00026   0.00000   0.00000   0.00000   1.94864
   A26        1.95094   0.00016   0.00000   0.00000   0.00000   1.95094
   D23        3.00207  -0.00174   0.00000   0.00000   0.00000   3.00207
   D25        2.08059   0.00018   0.00000   0.00000   0.00000   2.08059
   D26        4.16079   0.00039   0.00000   0.00000   0.00000   4.16079
   D24        2.70779   0.00021   0.00000   0.00000   0.00000   2.70779
    A2        1.98912   0.00042   0.00000   0.00000   0.00000   1.98912
    R4        1.80903  -0.00017   0.00000   0.00000   0.00000   1.80903
    R3        2.04412  -0.00059   0.00000   0.00000   0.00000   2.04412
    R2        2.03694  -0.00023   0.00000   0.00000   0.00000   2.03694
    R1        2.56549  -0.00077   0.00000   0.00000   0.00000   2.56549
   RTS        6.04712  -0.00530   0.00000   0.00000   0.00000   6.04712
         Item               Value     Threshold  Converged?
 Maximum Force            0.000616     0.000450     NO 
 RMS     Force            0.000379     0.000300     NO 
 Maximum Displacement     0.016913     0.001800     NO 
 RMS     Displacement     0.003484     0.001200     NO 
 Predicted change in Energy=-7.681789D-06
 GradGradGradGradGradGradGradGradGradGradGradGradGradGradGradGradGradGrad

 ---------------------------------------------------------------------------------------------------
                            Z-MATRIX (ANGSTROMS AND DEGREES)
   CD    Cent   Atom    N1       Length/X        N2       Alpha/Y        N3        Beta/Z          J
 ---------------------------------------------------------------------------------------------------
      1      1  C 
      2      2  O        1   1.357600(     1)
      3      3  H        1   1.077900(     2)      2  113.968(    12)
      4      4  H        1   1.081700(     3)      2  119.045(    13)      3  205.753(    22)      0
      5      5  H        2   0.957300(     4)      1  109.878(    14)      3  175.178(    23)      0
      6      6  C        1   3.200000(     5)      2  113.686(    15)      3  104.415(    24)      0
      7      7  C        6   1.481900(     6)      1   98.712(    16)      2  202.587(    25)      0
      8      8  H        6   1.080400(     7)      7  120.893(    17)      1   98.530(    26)      0
      9      9  H        6   1.080300(     8)      7  120.894(    18)      8  172.006(    27)      0
     10     10  H        7   1.090900(     9)      6  111.780(    19)      8  155.145(    28)      0
     11     11  H        7   1.098700(    10)      6  111.649(    20)     10  119.209(    29)      0
     12     12  H        7   1.091000(    11)      6  111.781(    21)     10  238.396(    30)      0
 ---------------------------------------------------------------------------------------------------
                         Z-Matrix orientation:                         
 ---------------------------------------------------------------------
 Center     Atomic      Atomic             Coordinates (Angstroms)
 Number     Number       Type             X           Y           Z
 ---------------------------------------------------------------------
      1          6           0        0.000000    0.000000    0.000000
      2          8           0        0.000000    0.000000    1.357600
      3          1           0        0.984955    0.000000   -0.437871
      4          1           0       -0.851738    0.410883   -0.525160
      5          1           0       -0.897076    0.075675    1.683103
      6          6           0       -0.729488   -2.838187   -1.285512
      7          6           0       -0.100508   -2.651120   -2.614202
      8          1           0       -1.790265   -2.686514   -1.147628
      9          1           0       -0.169028   -3.251848   -0.459790
     10          1           0        0.960021   -2.409889   -2.529652
     11          1           0       -0.165960   -3.561737   -3.225459
     12          1           0       -0.587777   -1.859171   -3.184873
 ---------------------------------------------------------------------
                    Distance matrix (angstroms):
                    1          2          3          4          5
     1  C    0.000000
     2  O    1.357600   0.000000
     3  H    1.077900   2.047890   0.000000
     4  H    1.081700   2.106909   1.884114   0.000000
     5  H    1.908745   0.957300   2.836600   2.234020   0.000000
     6  C    3.200000   3.946327   3.422443   3.339092   4.163094
     7  C    3.724593   4.776374   3.597650   3.782103   5.151384
     8  H    3.426289   4.086389   3.927208   3.295780   4.054690
     9  H    3.288540   3.729074   3.450605   3.726387   4.024233
    10  H    3.623306   4.673322   3.191196   3.906048   5.232030
    11  H    4.808024   5.806715   4.667035   4.852176   6.152989
    12  H    3.734356   4.943284   3.670970   3.506693   5.247522
                    6          7          8          9         10
     6  C    0.000000
     7  C    1.481900   0.000000
     8  H    1.080400   2.237716   0.000000
     9  H    1.080300   2.237646   1.849631   0.000000
    10  H    2.141441   1.090900   3.090402   2.503593   0.000000
    11  H    2.145806   1.098700   2.778805   2.782978   1.754633
    12  H    2.141525   1.091000   2.506160   3.088848   1.768695
                   11         12
    11  H    0.000000
    12  H    1.754510   0.000000
 Symmetry turned off by external request.
 Stoichiometry    C3H8O
 Framework group  C1[X(C3H8O)]
 Deg. of freedom    30
 Full point group                 C1      NOp   1
 Rotational constants (GHZ):     16.9353728      2.0442374      1.9134894
 Standard basis: Jun-CC-pVTZ (5D, 7F)
   268 basis functions,   384 primitive gaussians,   300 cartesian basis functions
    17 alpha electrons       17 beta electrons
       nuclear repulsion energy       111.2210520881 Hartrees.
 NAtoms=   12 NActive=   12 NUniq=   12 SFac= 1.00D+00 NAtFMM=   60 NAOKFM=F Big=F
 Integral buffers will be    131072 words long.
 Raffenetti 2 integral format.
 Two-electron integral symmetry is turned off.
 Nuclear repulsion after empirical dispersion term =      111.2176025125 Hartrees.
 One-electron integrals computed using PRISM.
 NBasis=   268 RedAO= T EigKep=  1.05D-04  NBF=   268
 NBsUse=   268 1.00D-06 EigRej= -1.00D+00 NBFU=   268
 ExpMin= 3.57D-02 ExpMax= 1.53D+04 ExpMxC= 5.22D+02 IAcc=3 IRadAn=         5 AccDes= 0.00D+00
 Harris functional with IExCor= 4639 and IRadAn=       5 diagonalized for initial guess.
 HarFok:  IExCor= 4639 AccDes= 0.00D+00 IRadAn=         5 IDoV= 1 UseB2=F ITyADJ=14
 ICtDFT=  3500011 ScaDFX=  1.000000  1.000000  1.000000  1.000000
 FoFCou: FMM=F IPFlag=           0 FMFlag=      100000 FMFlg1=           0
         NFxFlg=           0 DoJE=T BraDBF=F KetDBF=T FulRan=T
         wScrn=  0.000000 ICntrl=     500 IOpCl=  0 I1Cent=   200000004 NGrid=           0
         NMat0=    1 NMatS0=      1 NMatT0=    0 NMatD0=    1 NMtDS0=    0 NMtDT0=    0
 Symmetry not used in FoFCou.
 Mixing orbitals, IMix= 1 IMixAn=  0 NRI=1 NE=   17 Coef=  7.07106781D-01  7.07106781D-01
 Mixing orbitals, IMix= 1 IMixAn=  0 NRI=1 NE=   17 Coef= -7.07106781D-01  7.07106781D-01
 Initial guess <Sx>= 0.0000 <Sy>= 0.0000 <Sz>= 0.0000 <S**2>= 1.0000 S= 0.6180
 Requested convergence on RMS density matrix=1.00D-08 within 128 cycles.
 Requested convergence on MAX density matrix=1.00D-06.
 Requested convergence on             energy=1.00D-06.
 No special actions if energy rises.
 SCF Done:  E(UwB97XD) =  -194.235104946     A.U. after   15 cycles
            NFock= 15  Conv=0.65D-08     -V/T= 2.0066
 <Sx>= 0.0000 <Sy>= 0.0000 <Sz>= 0.0000 <S**2>= 0.8996 S= 0.5722
 <L.S>=  0.00000000000    
 Annihilation of the first spin contaminant:
 S**2 before annihilation     0.8996,   after     0.0509
 DipInt: DoE/N= T T RetVal/Mat= T F Init=T NMatP=  1 IDeriv=0 Min/MaxMlt=  1  1
 Entering OneElI...
 Multipole integrals L=1 to 1 MinM= 0 MaxM= 0.
 Requested accuracy = 0.1000D-12
 PrsmSu:  NPrtUS=   1 ThrOK=F IAlg=1 NPAlg=1 LenDen=           0.
 Prism:   IPart=     0 DynPar=F LinDyn=F Incr=          48.
 PRISM was handed   419025044 working-precision words and  4850 shell-pairs
 IPart=  0 NShTot=        4850 NBatch=          61 AvBLen=        79.5
 PrSmSu:  NxtVal=             49.
 Entering OneElI...
 Calculate overlap and kinetic energy integrals
    NBasis = 300  MinDer = 1  MaxDer = 1
 Requested accuracy = 0.1000D-12
 PrsmSu:  NPrtUS=  32 ThrOK=T IAlg=1 NPAlg=1 LenDen=           0.
 PRISM was handed    12996558 working-precision words and  4989 shell-pairs
 PRISM was handed    12996558 working-precision words and  4989 shell-pairs
 PRISM was handed    12996558 working-precision words and  4989 shell-pairs
 PRISM was handed    12996558 working-precision words and  4989 shell-pairs
 PRISM was handed    12996558 working-precision words and  4989 shell-pairs
 PRISM was handed    12996558 working-precision words and  4989 shell-pairs
 Prism:   IPart=     0 DynPar=F LinDyn=F Incr=           1.
 PRISM was handed    12996558 working-precision words and  4989 shell-pairs
 PRISM was handed    12996558 working-precision words and  4989 shell-pairs
 PRISM was handed    12996558 working-precision words and  4989 shell-pairs
 PRISM was handed    12996558 working-precision words and  4989 shell-pairs
 PRISM was handed    12996558 working-precision words and  4989 shell-pairs
 PRISM was handed    12996558 working-precision words and  4989 shell-pairs
 PRISM was handed    12996558 working-precision words and  4989 shell-pairs
 PRISM was handed    12996558 working-precision words and  4989 shell-pairs
 PRISM was handed    12996558 working-precision words and  4989 shell-pairs
 PRISM was handed    12996558 working-precision words and  4989 shell-pairs
 PRISM was handed    12996558 working-precision words and  4989 shell-pairs
 PRISM was handed    12996558 working-precision words and  4989 shell-pairs
 PRISM was handed    12996558 working-precision words and  4989 shell-pairs
 PRISM was handed    12996558 working-precision words and  4989 shell-pairs
 PRISM was handed    12996558 working-precision words and  4989 shell-pairs
 PRISM was handed    12996558 working-precision words and  4989 shell-pairs
 PRISM was handed    12996558 working-precision words and  4989 shell-pairs
 PRISM was handed    12996558 working-precision words and  4989 shell-pairs
 PRISM was handed    12996558 working-precision words and  4989 shell-pairs
 PRISM was handed    12996558 working-precision words and  4989 shell-pairs
 PRISM was handed    12996558 working-precision words and  4989 shell-pairs
 PRISM was handed    12996558 working-precision words and  4989 shell-pairs
 PRISM was handed    12996558 working-precision words and  4989 shell-pairs
 PRISM was handed    12996558 working-precision words and  4989 shell-pairs
 PRISM was handed    12996558 working-precision words and  4989 shell-pairs
 PRISM was handed    12996558 working-precision words and  4989 shell-pairs
 IPart= 15 NShTot=         151 NBatch=          22 AvBLen=         6.9
 IPart= 22 NShTot=         144 NBatch=          21 AvBLen=         6.9
 IPart= 23 NShTot=         143 NBatch=          21 AvBLen=         6.8
 IPart= 17 NShTot=         146 NBatch=          21 AvBLen=         7.0
 IPart=  7 NShTot=         170 NBatch=          35 AvBLen=         4.9
 IPart= 21 NShTot=         145 NBatch=          21 AvBLen=         6.9
 IPart= 16 NShTot=         146 NBatch=          21 AvBLen=         7.0
 IPart=  6 NShTot=         172 NBatch=          36 AvBLen=         4.8
 IPart= 12 NShTot=         157 NBatch=          26 AvBLen=         6.0
 IPart= 29 NShTot=         141 NBatch=          20 AvBLen=         7.0
 IPart= 25 NShTot=         143 NBatch=          21 AvBLen=         6.8
 IPart= 26 NShTot=         142 NBatch=          20 AvBLen=         7.1
 IPart= 27 NShTot=         142 NBatch=          20 AvBLen=         7.1
 IPart= 13 NShTot=         157 NBatch=          26 AvBLen=         6.0
 IPart=  5 NShTot=         173 NBatch=          36 AvBLen=         4.8
 IPart=  1 NShTot=         189 NBatch=          50 AvBLen=         3.8
 IPart= 30 NShTot=         140 NBatch=          20 AvBLen=         7.0
 IPart= 14 NShTot=         152 NBatch=          22 AvBLen=         6.9
 IPart=  0 NShTot=         198 NBatch=          58 AvBLen=         3.4
 IPart=  8 NShTot=         162 NBatch=          30 AvBLen=         5.4
 IPart= 28 NShTot=         142 NBatch=          20 AvBLen=         7.1
 IPart= 11 NShTot=         157 NBatch=          26 AvBLen=         6.0
 IPart=  3 NShTot=         183 NBatch=          44 AvBLen=         4.2
 IPart= 31 NShTot=         140 NBatch=          20 AvBLen=         7.0
 IPart= 19 NShTot=         145 NBatch=          21 AvBLen=         6.9
 IPart=  2 NShTot=         185 NBatch=          46 AvBLen=         4.0
 IPart=  4 NShTot=         175 NBatch=          36 AvBLen=         4.9
 IPart=  9 NShTot=         159 NBatch=          27 AvBLen=         5.9
 IPart= 20 NShTot=         145 NBatch=          21 AvBLen=         6.9
 IPart= 18 NShTot=         145 NBatch=          21 AvBLen=         6.9
 IPart= 10 NShTot=         157 NBatch=          26 AvBLen=         6.0
 IPart= 24 NShTot=         143 NBatch=          21 AvBLen=         6.8
 PrSmSu:  NxtVal=             33.
 Entering OneElI...
 Calculate potential energy integrals
    NBasis = 300  MinDer = 1  MaxDer = 1
 Requested accuracy = 0.1000D-12
 PrsmSu:  NPrtUS=  32 ThrOK=T IAlg=1 NPAlg=1 LenDen=           0.
 PRISM was handed    13013604 working-precision words and  4627 shell-pairs
 PRISM was handed    13013604 working-precision words and  4627 shell-pairs
 PRISM was handed    13013604 working-precision words and  4627 shell-pairs
 PRISM was handed    13013604 working-precision words and  4627 shell-pairs
 PRISM was handed    13013604 working-precision words and  4627 shell-pairs
 PRISM was handed    13013604 working-precision words and  4627 shell-pairs
 PRISM was handed    13013604 working-precision words and  4627 shell-pairs
 Prism:   IPart=     0 DynPar=F LinDyn=F Incr=          17.
 PRISM was handed    13013604 working-precision words and  4627 shell-pairs
 PRISM was handed    13013604 working-precision words and  4627 shell-pairs
 PRISM was handed    13013604 working-precision words and  4627 shell-pairs
 PRISM was handed    13013604 working-precision words and  4627 shell-pairs
 PRISM was handed    13013604 working-precision words and  4627 shell-pairs
 PRISM was handed    13013604 working-precision words and  4627 shell-pairs
 PRISM was handed    13013604 working-precision words and  4627 shell-pairs
 PRISM was handed    13013604 working-precision words and  4627 shell-pairs
 PRISM was handed    13013604 working-precision words and  4627 shell-pairs
 PRISM was handed    13013604 working-precision words and  4627 shell-pairs
 PRISM was handed    13013604 working-precision words and  4627 shell-pairs
 PRISM was handed    13013604 working-precision words and  4627 shell-pairs
 PRISM was handed    13013604 working-precision words and  4627 shell-pairs
 PRISM was handed    13013604 working-precision words and  4627 shell-pairs
 PRISM was handed    13013604 working-precision words and  4627 shell-pairs
 PRISM was handed    13013604 working-precision words and  4627 shell-pairs
 PRISM was handed    13013604 working-precision words and  4627 shell-pairs
 PRISM was handed    13013604 working-precision words and  4627 shell-pairs
 PRISM was handed    13013604 working-precision words and  4627 shell-pairs
 PRISM was handed    13013604 working-precision words and  4627 shell-pairs
 PRISM was handed    13013604 working-precision words and  4627 shell-pairs
 PRISM was handed    13013604 working-precision words and  4627 shell-pairs
 PRISM was handed    13013604 working-precision words and  4627 shell-pairs
 PRISM was handed    13013604 working-precision words and  4627 shell-pairs
 PRISM was handed    13013604 working-precision words and  4627 shell-pairs
 IPart= 27 NShTot=        1548 NBatch=         129 AvBLen=        12.0
 IPart= 10 NShTot=        1740 NBatch=         145 AvBLen=        12.0
 IPart= 29 NShTot=        1548 NBatch=         129 AvBLen=        12.0
 IPart= 26 NShTot=        1572 NBatch=         131 AvBLen=        12.0
 IPart= 12 NShTot=        1728 NBatch=         144 AvBLen=        12.0
 IPart= 22 NShTot=        1596 NBatch=         133 AvBLen=        12.0
 IPart=  5 NShTot=        1920 NBatch=         160 AvBLen=        12.0
 IPart=  8 NShTot=        1812 NBatch=         151 AvBLen=        12.0
 IPart=  1 NShTot=        2184 NBatch=         182 AvBLen=        12.0
 IPart= 30 NShTot=        1548 NBatch=         129 AvBLen=        12.0
 IPart= 21 NShTot=        1620 NBatch=         135 AvBLen=        12.0
 IPart= 16 NShTot=        1668 NBatch=         139 AvBLen=        12.0
 IPart= 18 NShTot=        1644 NBatch=         137 AvBLen=        12.0
 IPart=  2 NShTot=        2064 NBatch=         172 AvBLen=        12.0
 IPart= 28 NShTot=        1548 NBatch=         129 AvBLen=        12.0
 IPart=  7 NShTot=        1872 NBatch=         156 AvBLen=        12.0
 IPart= 11 NShTot=        1740 NBatch=         145 AvBLen=        12.0
 IPart= 13 NShTot=        1692 NBatch=         141 AvBLen=        12.0
 IPart=  0 NShTot=        2280 NBatch=         190 AvBLen=        12.0
 IPart=  4 NShTot=        1932 NBatch=         161 AvBLen=        12.0
 IPart=  9 NShTot=        1776 NBatch=         148 AvBLen=        12.0
 IPart=  6 NShTot=        1896 NBatch=         158 AvBLen=        12.0
 IPart= 24 NShTot=        1572 NBatch=         131 AvBLen=        12.0
 IPart= 17 NShTot=        1644 NBatch=         137 AvBLen=        12.0
 IPart= 23 NShTot=        1584 NBatch=         132 AvBLen=        12.0
 IPart= 15 NShTot=        1680 NBatch=         140 AvBLen=        12.0
 IPart= 14 NShTot=        1692 NBatch=         141 AvBLen=        12.0
 IPart= 19 NShTot=        1644 NBatch=         137 AvBLen=        12.0
 IPart=  3 NShTot=        2016 NBatch=         168 AvBLen=        12.0
 IPart= 25 NShTot=        1572 NBatch=         131 AvBLen=        12.0
 IPart= 31 NShTot=        1548 NBatch=         129 AvBLen=        12.0
 IPart= 20 NShTot=        1644 NBatch=         137 AvBLen=        12.0
 PrSmSu:  NxtVal=            545.
 l701 out
 I=    0 X=  -4.879604253525D-01 Y=   2.151815844358D-01 Z=  -9.444085388372D-02
 I=    1 X=   4.534159972115D-01 Y=   8.095125217287D-01 Z=  -4.241633421570D+00
 I=    2 X=   2.836046777369D+00 Y=   1.040664156315D+00 Z=   8.338441213189D+00
 I=    3 X=   3.169255414752D+00 Y=   1.622422849585D-01 Z=  -1.606013250116D+00
 I=    4 X=  -2.666767142399D+00 Y=   1.562925726246D+00 Z=  -1.821291298915D+00
 I=    5 X=  -3.094121458460D+00 Y=   4.335613260424D-01 Z=   2.492886726600D+00
 I=    6 X=  -1.450879659444D+00 Y=  -2.010964434264D+00 Z=   7.064693943325D-01
 I=    7 X=   9.024595371141D-01 Y=  -8.962486119694D-01 Z=  -3.247950944362D+00
 I=    8 X=  -3.409551124025D+00 Y=   1.944384372241D-01 Z=   6.451970058545D-01
 I=    9 X=   1.497671818515D+00 Y=  -1.593918611755D+00 Z=   2.728821933301D+00
 I=   10 X=   3.143505221183D+00 Y=   6.031373956566D-01 Z=  -1.108552812183D-01
 I=   11 X=  -8.926176868877D-02 Y=  -2.486167297689D+00 Z=  -1.902854988602D+00
 I=   12 X=  -1.291773613127D+00 Y=   2.180817107506D+00 Z=  -1.981217088494D+00
 ICntrl=      2127.
 Calling FoFJK, ICntrl=      2127 FMM=F ISym2X=0 I1Cent= 0 IOpClX= 1 NMat=1 NMatS=1 NMatT=0.
 FoFJK:  IHMeth= 1 ICntrl=    2127 DoSepK=T KAlg= 0 I1Cent=   0 FoldK=F
 IRaf=         1 NMat=   1 IRICut=       1 DoRegI=T DoRafI=F ISym2E= 0.
 FoFCou: FMM=F IPFlag=           0 FMFlag=      100000 FMFlg1=         800
         NFxFlg=           0 DoJE=F BraDBF=F KetDBF=F FulRan=T
         wScrn=  0.000000 ICntrl=    2527 IOpCl=  0 I1Cent=           0 NGrid=           0
         NMat0=    1 NMatS0=      1 NMatT0=    0 NMatD0=    1 NMtDS0=    0 NMtDT0=    0
 Symmetry not used in FoFCou.
 FoFCou:  KetSym=F NOpSet=  1 NOpAb=1 NOp=  1.
 FoFCou:  CnvScl= 1.00D+00 Thresh= 1.00D-10 IAcrcy=      10.
 PrismS was handed   418932648 working-precision words and  4800 shell-pairs
 FoFCou: LinMIO=F DoNuc=F BraDBF=F KetDBF=F HaveP=T PDBF=F HaveZ=T HaveW=F
         NIJTC =      10 NIJTAt=       0 NIJTCD=       0 NIJTT =      10
         IJTBeg=       1 IJTEnd=      10 KLTBeg=       1 KLTEnd=      10
         IPTBeg=       1 IPTEnd=      10 IPTBCv=       1 IPTECv=      10
         IZTBeg=       1 IZTEnd=      10 IZTBCv=       1 IZTECv=      10
         IWTBeg=      11 IWTEnd=      10 IWTBCv=      11 IWTECv=      10
         INTBeg=       1 INTEnd=       0 IFTBCv=       1 IFTECv=      10
 NCel replicated for PrismC:     1
 CoulSu:  IncDef=  1024 NBBP=       11522400 NTPThr=   100 NPartT=   32 Incr=        1024 LDynOK=F.
 CoulSu:  NPrtUS=  32 ThrOK=T IAlg=1 NPAlg=1 LenDen=           0 LWGrdD=           0 DoCopy=F.
 Enter PrismC: JobTyp=21 DoJE=F Cont=F.
 Enter PrismC: JobTyp=21 DoJE=F Cont=F.
 Enter PrismC: JobTyp=21 DoJE=F Cont=F.
 Enter PrismC: JobTyp=21 DoJE=F Cont=F.
 Enter PrismC: JobTyp=21 DoJE=F Cont=F.
 PrismC was handed    13006686 working-precision words and  4800 shell-pairs
 Enter PrismC: JobTyp=21 DoJE=F Cont=F.
 PrismC was handed    13006686 working-precision words and  4800 shell-pairs
 Enter PrismC: JobTyp=21 DoJE=F Cont=F.
 PrismC was handed    13006686 working-precision words and  4800 shell-pairs
 Enter PrismC: JobTyp=21 DoJE=F Cont=F.
 PrismC was handed    13006686 working-precision words and  4800 shell-pairs
 Enter PrismC: JobTyp=21 DoJE=F Cont=F.
 Enter PrismC: JobTyp=21 DoJE=F Cont=F.
 Enter PrismC: JobTyp=21 DoJE=F Cont=F.
 PrismC:  IPart=     0 DynPar=T LinDyn=F Incr=        1024 UseFst=F UseS4=T IGathr=2.
 PrismC was handed    13006686 working-precision words and  4800 shell-pairs
 Enter PrismC: JobTyp=21 DoJE=F Cont=F.
 Enter PrismC: JobTyp=21 DoJE=F Cont=F.
 Enter PrismC: JobTyp=21 DoJE=F Cont=F.
 Enter PrismC: JobTyp=21 DoJE=F Cont=F.
 Enter PrismC: JobTyp=21 DoJE=F Cont=F.
 PrismC was handed    13006686 working-precision words and  4800 shell-pairs
 Enter PrismC: JobTyp=21 DoJE=F Cont=F.
 PrismC was handed    13006686 working-precision words and  4800 shell-pairs
 Enter PrismC: JobTyp=21 DoJE=F Cont=F.
 PrismC was handed    13006686 working-precision words and  4800 shell-pairs
 Enter PrismC: JobTyp=21 DoJE=F Cont=F.
 PrismC was handed    13006686 working-precision words and  4800 shell-pairs
 Enter PrismC: JobTyp=21 DoJE=F Cont=F.
 Enter PrismC: JobTyp=21 DoJE=F Cont=F.
 Enter PrismC: JobTyp=21 DoJE=F Cont=F.
 Enter PrismC: JobTyp=21 DoJE=F Cont=F.
 PrismC was handed    13006686 working-precision words and  4800 shell-pairs
 Enter PrismC: JobTyp=21 DoJE=F Cont=F.
 Enter PrismC: JobTyp=21 DoJE=F Cont=F.
 PrismC was handed    13006686 working-precision words and  4800 shell-pairs
 PrismC was handed    13006686 working-precision words and  4800 shell-pairs
 PrismC was handed    13006686 working-precision words and  4800 shell-pairs
 PrismC was handed    13006686 working-precision words and  4800 shell-pairs
 PrismC was handed    13006686 working-precision words and  4800 shell-pairs
 Enter PrismC: JobTyp=21 DoJE=F Cont=F.
 PrismC was handed    13006686 working-precision words and  4800 shell-pairs
 Enter PrismC: JobTyp=21 DoJE=F Cont=F.
 PrismC was handed    13006686 working-precision words and  4800 shell-pairs
 PrismC was handed    13006686 working-precision words and  4800 shell-pairs
 Enter PrismC: JobTyp=21 DoJE=F Cont=F.
 PrismC was handed    13006686 working-precision words and  4800 shell-pairs
 PrismC was handed    13006686 working-precision words and  4800 shell-pairs
 PrismC was handed    13006686 working-precision words and  4800 shell-pairs
 PrismC was handed    13006686 working-precision words and  4800 shell-pairs
 Enter PrismC: JobTyp=21 DoJE=F Cont=F.
 PrismC was handed    13006686 working-precision words and  4800 shell-pairs
 PrismC was handed    13006686 working-precision words and  4800 shell-pairs
 PrismC was handed    13006686 working-precision words and  4800 shell-pairs
 Enter PrismC: JobTyp=21 DoJE=F Cont=F.
 PrismC was handed    13006686 working-precision words and  4800 shell-pairs
 PrismC was handed    13006686 working-precision words and  4800 shell-pairs
 Enter PrismC: JobTyp=21 DoJE=F Cont=F.
 Enter PrismC: JobTyp=21 DoJE=F Cont=F.
 PrismC was handed    13006686 working-precision words and  4800 shell-pairs
 PrismC was handed    13006686 working-precision words and  4800 shell-pairs
 PrismC was handed    13006686 working-precision words and  4800 shell-pairs
 PrismC was handed    13006686 working-precision words and  4800 shell-pairs
 PrismC was handed    13006686 working-precision words and  4800 shell-pairs
 IPart= 14 NShTot=      259520 NShNF=      259520 NShFF=           0 NBatch=        1854 AvBLen=       140.0
 IPart= 11 NShTot=      271130 NShNF=      271130 NShFF=           0 NBatch=        2121 AvBLen=       127.8
 IPart= 23 NShTot=      258776 NShNF=      258776 NShFF=           0 NBatch=        1769 AvBLen=       146.3
 IPart= 29 NShTot=      327896 NShNF=      327896 NShFF=           0 NBatch=        2093 AvBLen=       156.7
 IPart=  6 NShTot=      249852 NShNF=      249852 NShFF=           0 NBatch=        2039 AvBLen=       122.5
 IPart=  1 NShTot=      264822 NShNF=      264822 NShFF=           0 NBatch=        1751 AvBLen=       151.2
 IPart= 16 NShTot=      261023 NShNF=      261023 NShFF=           0 NBatch=        2131 AvBLen=       122.5
 IPart=  5 NShTot=      261962 NShNF=      261962 NShFF=           0 NBatch=        1670 AvBLen=       156.9
 IPart=  2 NShTot=      328862 NShNF=      328862 NShFF=           0 NBatch=        1888 AvBLen=       174.2
 IPart= 15 NShTot=      231504 NShNF=      231504 NShFF=           0 NBatch=        1862 AvBLen=       124.3
 IPart= 28 NShTot=      282819 NShNF=      282819 NShFF=           0 NBatch=        2138 AvBLen=       132.3
 IPart=  7 NShTot=      270531 NShNF=      270531 NShFF=           0 NBatch=        1988 AvBLen=       136.1
 IPart= 20 NShTot=      224663 NShNF=      224663 NShFF=           0 NBatch=        1763 AvBLen=       127.4
 IPart= 30 NShTot=      316202 NShNF=      316202 NShFF=           0 NBatch=        1886 AvBLen=       167.7
 IPart=  4 NShTot=      269392 NShNF=      269392 NShFF=           0 NBatch=        2024 AvBLen=       133.1
 IPart= 19 NShTot=      351721 NShNF=      351721 NShFF=           0 NBatch=        2015 AvBLen=       174.6
 IPart= 31 NShTot=      286069 NShNF=      286069 NShFF=           0 NBatch=        2004 AvBLen=       142.7
 IPart=  9 NShTot=      282698 NShNF=      282698 NShFF=           0 NBatch=        1778 AvBLen=       159.0
 IPart= 22 NShTot=      272061 NShNF=      272061 NShFF=           0 NBatch=        1975 AvBLen=       137.8
 IPart= 24 NShTot=      278959 NShNF=      278959 NShFF=           0 NBatch=        2037 AvBLen=       136.9
 IPart= 18 NShTot=      277012 NShNF=      277012 NShFF=           0 NBatch=        2224 AvBLen=       124.6
 IPart= 10 NShTot=      341792 NShNF=      341792 NShFF=           0 NBatch=        2184 AvBLen=       156.5
 IPart=  8 NShTot=      236582 NShNF=      236582 NShFF=           0 NBatch=        1804 AvBLen=       131.1
 IPart= 17 NShTot=      272952 NShNF=      272952 NShFF=           0 NBatch=        1943 AvBLen=       140.5
 IPart= 27 NShTot=      213454 NShNF=      213454 NShFF=           0 NBatch=        1414 AvBLen=       151.0
 IPart= 12 NShTot=      237564 NShNF=      237564 NShFF=           0 NBatch=        1772 AvBLen=       134.1
 IPart= 26 NShTot=      263221 NShNF=      263221 NShFF=           0 NBatch=        2096 AvBLen=       125.6
 IPart= 25 NShTot=      189783 NShNF=      189783 NShFF=           0 NBatch=        1678 AvBLen=       113.1
 IPart=  0 NShTot=      232574 NShNF=      232574 NShFF=           0 NBatch=        1716 AvBLen=       135.5
 IPart= 13 NShTot=      230749 NShNF=      230749 NShFF=           0 NBatch=        1845 AvBLen=       125.1
 IPart=  3 NShTot=      268369 NShNF=      268369 NShFF=           0 NBatch=        2112 AvBLen=       127.1
 IPart= 21 NShTot=      224703 NShNF=      224703 NShFF=           0 NBatch=        1758 AvBLen=       127.8
 CoulSu:  NxtVal=       12534785.
 FoFCou: FMM=F IPFlag=           0 FMFlag=      100000 FMFlg1=         800
         NFxFlg=           0 DoJE=F BraDBF=F KetDBF=F FulRan=T
         wScrn=  0.000000 ICntrl=    2127 IOpCl=  1 I1Cent=           0 NGrid=           0
         NMat0=    1 NMatS0=      0 NMatT0=    1 NMatD0=    1 NMtDS0=    0 NMtDT0=    0
         CW=    0.222036    0.777964
         WU=    0.000000   12.500000
 Symmetry not used in FoFCou.
 FoFCou:  KetSym=F NOpSet=  1 NOpAb=1 NOp=  1.
 FoFCou:  CnvScl= 1.00D+00 Thresh= 1.00D-10 IAcrcy=      10.
 PrismS was handed   418927682 working-precision words and  4800 shell-pairs
 FoFCou: LinMIO=F DoNuc=F BraDBF=F KetDBF=F HaveP=T PDBF=F HaveZ=T HaveW=F
         NIJTC =      10 NIJTAt=       0 NIJTCD=       0 NIJTT =      10
         IJTBeg=       1 IJTEnd=      10 KLTBeg=       1 KLTEnd=      10
         IPTBeg=       1 IPTEnd=      10 IPTBCv=       1 IPTECv=      10
         IZTBeg=       1 IZTEnd=      10 IZTBCv=       1 IZTECv=      10
         IWTBeg=      11 IWTEnd=      10 IWTBCv=      11 IWTECv=      10
         INTBeg=       1 INTEnd=       0 IFTBCv=       1 IFTECv=      10
 NCel replicated for PrismC:     1
 CoulSu:  IncDef=  1024 NBBP=       11522400 NTPThr=   100 NPartT=   32 Incr=        1024 LDynOK=F.
 CoulSu:  NPrtUS=  32 ThrOK=T IAlg=1 NPAlg=1 LenDen=           0 LWGrdD=           0 DoCopy=F.
 Enter PrismC: JobTyp=21 DoJE=F Cont=F.
 Enter PrismC: JobTyp=21 DoJE=F Cont=F.
 Enter PrismC: JobTyp=21 DoJE=F Cont=F.
 Enter PrismC: JobTyp=21 DoJE=F Cont=F.
 Enter PrismC: JobTyp=21 DoJE=F Cont=F.
 Enter PrismC: JobTyp=21 DoJE=F Cont=F.
 Enter PrismC: JobTyp=21 DoJE=F Cont=F.
 Enter PrismC: JobTyp=21 DoJE=F Cont=F.
 Linear combination for Coulomb/exchange, wScrn=  0.000000
 CW=    0.222036    0.777964
 WU=    0.000000   12.500000
 Enter PrismC: JobTyp=21 DoJE=F Cont=F.
 Linear combination for Coulomb/exchange, wScrn=  0.000000
 CW=    0.222036    0.777964
 WU=    0.000000   12.500000
 Enter PrismC: JobTyp=21 DoJE=F Cont=F.
 Linear combination for Coulomb/exchange, wScrn=  0.000000
 CW=    0.222036    0.777964
 WU=    0.000000   12.500000
 Linear combination for Coulomb/exchange, wScrn=  0.000000
 CW=    0.222036    0.777964
 WU=    0.000000   12.500000
 Enter PrismC: JobTyp=21 DoJE=F Cont=F.
 Enter PrismC: JobTyp=21 DoJE=F Cont=F.
 Enter PrismC: JobTyp=21 DoJE=F Cont=F.
 Linear combination for Coulomb/exchange, wScrn=  0.000000
 Enter PrismC: JobTyp=21 DoJE=F Cont=F.
 Enter PrismC: JobTyp=21 DoJE=F Cont=F.
 Enter PrismC: JobTyp=21 DoJE=F Cont=F.
 Linear combination for Coulomb/exchange, wScrn=  0.000000
 Enter PrismC: JobTyp=21 DoJE=F Cont=F.
 Linear combination for Coulomb/exchange, wScrn=  0.000000
 CW=    0.222036    0.777964
 WU=    0.000000   12.500000
 Enter PrismC: JobTyp=21 DoJE=F Cont=F.
 Linear combination for Coulomb/exchange, wScrn=  0.000000
 CW=    0.222036    0.777964
 WU=    0.000000   12.500000
 Linear combination for Coulomb/exchange, wScrn=  0.000000
 CW=    0.222036    0.777964
 WU=    0.000000   12.500000
 Enter PrismC: JobTyp=21 DoJE=F Cont=F.
 Linear combination for Coulomb/exchange, wScrn=  0.000000
 CW=    0.222036    0.777964
 WU=    0.000000   12.500000
 Enter PrismC: JobTyp=21 DoJE=F Cont=F.
 Linear combination for Coulomb/exchange, wScrn=  0.000000
 CW=    0.222036    0.777964
 WU=    0.000000   12.500000
 Enter PrismC: JobTyp=21 DoJE=F Cont=F.
 PrismC was handed    13006531 working-precision words and  4800 shell-pairs
 Linear combination for Coulomb/exchange, wScrn=  0.000000
 CW=    0.222036    0.777964
 WU=    0.000000   12.500000
 PrismC was handed    13006531 working-precision words and  4800 shell-pairs
 Enter PrismC: JobTyp=21 DoJE=F Cont=F.
 Linear combination for Coulomb/exchange, wScrn=  0.000000
 CW=    0.222036    0.777964
 WU=    0.000000   12.500000
 PrismC was handed    13006531 working-precision words and  4800 shell-pairs
 CW=    0.222036    0.777964
 WU=    0.000000   12.500000
 PrismC was handed    13006531 working-precision words and  4800 shell-pairs
 Linear combination for Coulomb/exchange, wScrn=  0.000000
 CW=    0.222036    0.777964
 WU=    0.000000   12.500000
 Enter PrismC: JobTyp=21 DoJE=F Cont=F.
 Linear combination for Coulomb/exchange, wScrn=  0.000000
 CW=    0.222036    0.777964
 WU=    0.000000   12.500000
 PrismC was handed    13006531 working-precision words and  4800 shell-pairs
 Enter PrismC: JobTyp=21 DoJE=F Cont=F.
 PrismC was handed    13006531 working-precision words and  4800 shell-pairs
 Enter PrismC: JobTyp=21 DoJE=F Cont=F.
 Linear combination for Coulomb/exchange, wScrn=  0.000000
 CW=    0.222036    0.777964
 WU=    0.000000   12.500000
 Enter PrismC: JobTyp=21 DoJE=F Cont=F.
 PrismC was handed    13006531 working-precision words and  4800 shell-pairs
 Enter PrismC: JobTyp=21 DoJE=F Cont=F.
 Linear combination for Coulomb/exchange, wScrn=  0.000000
 CW=    0.222036    0.777964
 WU=    0.000000   12.500000
 Linear combination for Coulomb/exchange, wScrn=  0.000000
 CW=    0.222036    0.777964
 WU=    0.000000   12.500000
 PrismC was handed    13006531 working-precision words and  4800 shell-pairs
 CW=    0.222036    0.777964
 WU=    0.000000   12.500000
 Linear combination for Coulomb/exchange, wScrn=  0.000000
 CW=    0.222036    0.777964
 WU=    0.000000   12.500000
 Linear combination for Coulomb/exchange, wScrn=  0.000000
 CW=    0.222036    0.777964
 WU=    0.000000   12.500000
 Linear combination for Coulomb/exchange, wScrn=  0.000000
 CW=    0.222036    0.777964
 WU=    0.000000   12.500000
 PrismC was handed    13006531 working-precision words and  4800 shell-pairs
 PrismC was handed    13006531 working-precision words and  4800 shell-pairs
 PrismC was handed    13006531 working-precision words and  4800 shell-pairs
 Linear combination for Coulomb/exchange, wScrn=  0.000000
 CW=    0.222036    0.777964
 WU=    0.000000   12.500000
 Linear combination for Coulomb/exchange, wScrn=  0.000000
 CW=    0.222036    0.777964
 WU=    0.000000   12.500000
 PrismC was handed    13006531 working-precision words and  4800 shell-pairs
 PrismC was handed    13006531 working-precision words and  4800 shell-pairs
 Linear combination for Coulomb/exchange, wScrn=  0.000000
 CW=    0.222036    0.777964
 WU=    0.000000   12.500000
 Linear combination for Coulomb/exchange, wScrn=  0.000000
 CW=    0.222036    0.777964
 WU=    0.000000   12.500000
 PrismC was handed    13006531 working-precision words and  4800 shell-pairs
 Enter PrismC: JobTyp=21 DoJE=F Cont=F.
 Linear combination for Coulomb/exchange, wScrn=  0.000000
 CW=    0.222036    0.777964
 WU=    0.000000   12.500000
 PrismC was handed    13006531 working-precision words and  4800 shell-pairs
 Linear combination for Coulomb/exchange, wScrn=  0.000000
 CW=    0.222036    0.777964
 WU=    0.000000   12.500000
 PrismC was handed    13006531 working-precision words and  4800 shell-pairs
 PrismC was handed    13006531 working-precision words and  4800 shell-pairs
 Enter PrismC: JobTyp=21 DoJE=F Cont=F.
 Linear combination for Coulomb/exchange, wScrn=  0.000000
 CW=    0.222036    0.777964
 WU=    0.000000   12.500000
 PrismC was handed    13006531 working-precision words and  4800 shell-pairs
 PrismC was handed    13006531 working-precision words and  4800 shell-pairs
 PrismC was handed    13006531 working-precision words and  4800 shell-pairs
 PrismC was handed    13006531 working-precision words and  4800 shell-pairs
 PrismC was handed    13006531 working-precision words and  4800 shell-pairs
 PrismC was handed    13006531 working-precision words and  4800 shell-pairs
 PrismC was handed    13006531 working-precision words and  4800 shell-pairs
 Linear combination for Coulomb/exchange, wScrn=  0.000000
 CW=    0.222036    0.777964
 Enter PrismC: JobTyp=21 DoJE=F Cont=F.
 PrismC was handed    13006531 working-precision words and  4800 shell-pairs
 Enter PrismC: JobTyp=21 DoJE=F Cont=F.
 Linear combination for Coulomb/exchange, wScrn=  0.000000
 CW=    0.222036    0.777964
 WU=    0.000000   12.500000
 PrismC was handed    13006531 working-precision words and  4800 shell-pairs
 PrismC was handed    13006531 working-precision words and  4800 shell-pairs
 PrismC:  IPart=     0 DynPar=T LinDyn=F Incr=        1024 UseFst=F UseS4=T IGathr=2.
 Enter PrismC: JobTyp=21 DoJE=F Cont=F.
 Linear combination for Coulomb/exchange, wScrn=  0.000000
 CW=    0.222036    0.777964
 WU=    0.000000   12.500000
 PrismC was handed    13006531 working-precision words and  4800 shell-pairs
 Linear combination for Coulomb/exchange, wScrn=  0.000000
 CW=    0.222036    0.777964
 WU=    0.000000   12.500000
 WU=    0.000000   12.500000
 PrismC was handed    13006531 working-precision words and  4800 shell-pairs
 PrismC was handed    13006531 working-precision words and  4800 shell-pairs
 PrismC was handed    13006531 working-precision words and  4800 shell-pairs
 PrismC was handed    13006531 working-precision words and  4800 shell-pairs
 IPart=  0 NShTot=      370930 NShNF=      370930 NShFF=           0 NBatch=        2455 AvBLen=       151.1
 IPart= 16 NShTot=      279661 NShNF=      279661 NShFF=           0 NBatch=        2460 AvBLen=       113.7
 IPart= 14 NShTot=      248084 NShNF=      248084 NShFF=           0 NBatch=        2372 AvBLen=       104.6
 IPart= 29 NShTot=      268657 NShNF=      268657 NShFF=           0 NBatch=        2454 AvBLen=       109.5
 IPart= 26 NShTot=      282784 NShNF=      282784 NShFF=           0 NBatch=        2454 AvBLen=       115.2
 IPart= 22 NShTot=      193719 NShNF=      193719 NShFF=           0 NBatch=        1967 AvBLen=        98.5
 IPart= 28 NShTot=      260586 NShNF=      260586 NShFF=           0 NBatch=        2510 AvBLen=       103.8
 IPart= 17 NShTot=      228172 NShNF=      228172 NShFF=           0 NBatch=        2625 AvBLen=        86.9
 IPart= 23 NShTot=      220277 NShNF=      220277 NShFF=           0 NBatch=        2434 AvBLen=        90.5
 IPart=  3 NShTot=      325048 NShNF=      325048 NShFF=           0 NBatch=        2498 AvBLen=       130.1
 IPart= 25 NShTot=      260140 NShNF=      260140 NShFF=           0 NBatch=        2699 AvBLen=        96.4
 IPart= 27 NShTot=      338947 NShNF=      338947 NShFF=           0 NBatch=        2626 AvBLen=       129.1
 IPart= 10 NShTot=      184264 NShNF=      184264 NShFF=           0 NBatch=        1880 AvBLen=        98.0
 IPart=  8 NShTot=      270930 NShNF=      270930 NShFF=           0 NBatch=        2404 AvBLen=       112.7
 IPart= 19 NShTot=      294266 NShNF=      294266 NShFF=           0 NBatch=        2559 AvBLen=       115.0
 IPart= 21 NShTot=      293342 NShNF=      293342 NShFF=           0 NBatch=        2540 AvBLen=       115.5
 IPart=  7 NShTot=      205501 NShNF=      205501 NShFF=           0 NBatch=        1816 AvBLen=       113.2
 IPart= 11 NShTot=      243709 NShNF=      243709 NShFF=           0 NBatch=        2550 AvBLen=        95.6
 IPart=  2 NShTot=      328153 NShNF=      328153 NShFF=           0 NBatch=        2975 AvBLen=       110.3
 IPart= 31 NShTot=      217166 NShNF=      217166 NShFF=           0 NBatch=        1785 AvBLen=       121.7
 IPart= 12 NShTot=      399377 NShNF=      399377 NShFF=           0 NBatch=        2687 AvBLen=       148.6
 IPart= 24 NShTot=      202517 NShNF=      202517 NShFF=           0 NBatch=        1907 AvBLen=       106.2
 IPart= 30 NShTot=      261612 NShNF=      261612 NShFF=           0 NBatch=        2391 AvBLen=       109.4
 IPart= 13 NShTot=      296315 NShNF=      296315 NShFF=           0 NBatch=        2471 AvBLen=       119.9
 IPart=  4 NShTot=      312047 NShNF=      312047 NShFF=           0 NBatch=        2535 AvBLen=       123.1
 IPart= 15 NShTot=      282187 NShNF=      282187 NShFF=           0 NBatch=        2515 AvBLen=       112.2
 IPart=  5 NShTot=      293549 NShNF=      293549 NShFF=           0 NBatch=        2552 AvBLen=       115.0
 IPart=  6 NShTot=      252879 NShNF=      252879 NShFF=           0 NBatch=        2490 AvBLen=       101.6
 IPart=  9 NShTot=      253078 NShNF=      253078 NShFF=           0 NBatch=        2467 AvBLen=       102.6
 IPart= 18 NShTot=      187382 NShNF=      187382 NShFF=           0 NBatch=        1884 AvBLen=        99.5
 IPart= 20 NShTot=      275708 NShNF=      275708 NShFF=           0 NBatch=        2405 AvBLen=       114.6
 IPart=  1 NShTot=      261730 NShNF=      261730 NShFF=           0 NBatch=        2050 AvBLen=       127.7
 CoulSu:  NxtVal=       12534785.
 ReadGW:  IGet=0 IStart=           1 Next=           1 LGW=           0.
 Remaining memory in FofDFT      399.83 Mw
 CkSvGd:  ISavGI=        -1 IRadAn=       5 IRASav=       5 ISavGd=        -1.
 CalDSu:  NPrtUS=  32 ThrOK=T IAlg=1 NPAlg=2 DoDPD=T LenP=       45150 LenD1P=             0.
 IPart=  0 IRanGd=          0 ScrnBf=T ScrnGd=T RCrit=4.00D+00 DoMicB=T.
 IPart=  5         8511 of        10286 points in      17 batches and       66 microbatches, Max-NSigAt=      12 Max-NSgAt2=      12
 IPart= 30         4824 of         5630 points in       8 batches and       19 microbatches, Max-NSigAt=      12 Max-NSgAt2=      12
 IPart= 15         6964 of         7824 points in      13 batches and       53 microbatches, Max-NSigAt=      12 Max-NSgAt2=      12
 IPart= 29         7830 of         8260 points in      13 batches and       34 microbatches, Max-NSigAt=      12 Max-NSgAt2=      12
 IPart=  6         9908 of        10774 points in      18 batches and       71 microbatches, Max-NSigAt=      12 Max-NSgAt2=      12
 IPart= 17         8670 of         9504 points in      14 batches and       45 microbatches, Max-NSigAt=      12 Max-NSgAt2=      12
 IPart= 19        12308 of        13630 points in      20 batches and       71 microbatches, Max-NSigAt=      12 Max-NSgAt2=      12
 IPart= 18         8029 of         8660 points in      13 batches and       37 microbatches, Max-NSigAt=      12 Max-NSgAt2=      12
 IPart=  0         8115 of         9272 points in      14 batches and       38 microbatches, Max-NSigAt=      12 Max-NSgAt2=      12
 IPart=  3         7701 of         8168 points in      13 batches and       44 microbatches, Max-NSigAt=      12 Max-NSgAt2=      12
 IPart= 11        10595 of        12038 points in      19 batches and      101 microbatches, Max-NSigAt=      12 Max-NSgAt2=      12
 IPart=  1         6636 of         8516 points in      14 batches and       22 microbatches, Max-NSigAt=      12 Max-NSgAt2=      12
 IPart= 13         7099 of         9788 points in      15 batches and       63 microbatches, Max-NSigAt=      12 Max-NSgAt2=      12
 IPart= 22         7001 of         7424 points in      12 batches and       50 microbatches, Max-NSigAt=      12 Max-NSgAt2=      12
 IPart= 26         7939 of         8988 points in      14 batches and       48 microbatches, Max-NSigAt=      12 Max-NSgAt2=      12
 IPart=  4         8312 of         9316 points in      14 batches and       41 microbatches, Max-NSigAt=      12 Max-NSgAt2=      12
 IPart=  9         6620 of         7036 points in      10 batches and       37 microbatches, Max-NSigAt=      12 Max-NSgAt2=      12
 IPart= 14         7220 of         8080 points in      12 batches and       57 microbatches, Max-NSigAt=      12 Max-NSgAt2=      12
 IPart=  7        11953 of        14676 points in      22 batches and       57 microbatches, Max-NSigAt=      12 Max-NSgAt2=      12
 IPart= 20         8133 of         9506 points in      15 batches and       55 microbatches, Max-NSigAt=      12 Max-NSgAt2=      12
 IPart= 16         7901 of         8710 points in      14 batches and       64 microbatches, Max-NSigAt=      12 Max-NSgAt2=      12
 IPart=  2        10282 of        12174 points in      20 batches and       73 microbatches, Max-NSigAt=      12 Max-NSgAt2=      12
 IPart= 27         5319 of         5964 points in       9 batches and       34 microbatches, Max-NSigAt=      12 Max-NSgAt2=      12
 IPart= 21         5464 of         6088 points in       9 batches and       36 microbatches, Max-NSigAt=      12 Max-NSgAt2=      12
 IPart= 25         6159 of         6640 points in      10 batches and       31 microbatches, Max-NSigAt=      12 Max-NSgAt2=      12
 IPart= 24         8232 of         9146 points in      13 batches and       23 microbatches, Max-NSigAt=      12 Max-NSgAt2=      12
 IPart= 10         6833 of         7780 points in      13 batches and       52 microbatches, Max-NSigAt=      12 Max-NSgAt2=      12
 IPart= 23         6803 of         7424 points in      12 batches and       52 microbatches, Max-NSigAt=      12 Max-NSgAt2=      12
 IPart= 12         6075 of         6848 points in      11 batches and       51 microbatches, Max-NSigAt=      12 Max-NSgAt2=      12
 IPart= 31         6608 of         7572 points in      11 batches and       71 microbatches, Max-NSigAt=      12 Max-NSgAt2=      12
 IPart=  8         4370 of         4524 points in       7 batches and       20 microbatches, Max-NSigAt=      12 Max-NSgAt2=      12
 IPart= 28         4627 of         5408 points in       8 batches and       51 microbatches, Max-NSigAt=      12 Max-NSgAt2=      12
 Forces at end of L703
 I=    0 X=  -4.879604253525D-01 Y=   2.151815844358D-01 Z=  -9.444085388372D-02
 I=    1 X=   2.162056575510D-03 Y=   5.350328877353D-03 Z=   1.440392755050D-03
 I=    2 X=  -1.875516319565D-04 Y=  -4.200123597231D-04 Z=   5.637493047637D-04
 I=    3 X=   3.012789840113D-04 Y=  -1.400744042143D-04 Z=   9.600845730207D-05
 I=    4 X=  -8.289852852235D-04 Y=  -3.605888114899D-04 Z=  -1.274306833987D-04
 I=    5 X=  -8.445115169398D-05 Y=   2.169113294097D-04 Z=   2.149132505656D-04
 I=    6 X=  -1.805310223493D-03 Y=  -6.640465475549D-03 Z=  -4.415487261536D-03
 I=    7 X=  -1.358063376858D-04 Y=   8.972480623387D-04 Z=   1.296392756672D-03
 I=    8 X=  -2.616149757628D-05 Y=   7.699883080605D-04 Z=   3.239622746208D-04
 I=    9 X=   5.288514215618D-04 Y=   6.714965707053D-04 Z=   6.134269560438D-04
 I=   10 X=   2.240168961225D-04 Y=  -1.407636158745D-04 Z=  -1.306536651556D-04
 I=   11 X=   1.657023714385D-05 Y=  -6.564100498885D-05 Z=   1.418463229415D-04
 I=   12 X=  -1.645079867481D-04 Y=  -1.384274760388D-04 Z=  -1.712046781122D-05
 FrcOut:
 IF    =    61 IFX   =    97 IFXYZ =   133
 IFFX  =   169 IFFFX =   169 IFLen =    36
 IFFLen=     0 IFFFLn=     0 IEDerv=   169
 LEDerv=  1781 IFroze=  2356 ICStrt=146681
 -------------------------------------------------------------------
 Center     Atomic                   Forces (Hartrees/Bohr)
 Number     Number              X              Y              Z
 -------------------------------------------------------------------
      1        6          -0.002162057   -0.005350329   -0.001440393
      2        8           0.000187552    0.000420012   -0.000563749
      3        1          -0.000301279    0.000140074   -0.000096008
      4        1           0.000828985    0.000360589    0.000127431
      5        1           0.000084451   -0.000216911   -0.000214913
      6        6           0.001805310    0.006640465    0.004415487
      7        6           0.000135806   -0.000897248   -0.001296393
      8        1           0.000026161   -0.000769988   -0.000323962
      9        1          -0.000528851   -0.000671497   -0.000613427
     10        1          -0.000224017    0.000140764    0.000130654
     11        1          -0.000016570    0.000065641   -0.000141846
     12        1           0.000164508    0.000138427    0.000017120
 -------------------------------------------------------------------
 Cartesian Forces:  Max     0.006640465 RMS     0.001734274
 From PutF, contents of force:
   1   -0.4132109863D-03
   2   -0.5221139456D-04
   3   -0.1332399506D-03
   4   -0.6089852849D-03
   5   -0.7159768222D-04
   6    0.3577711453D-03
   7   -0.3026422650D-03
   8    0.1224056683D-02
   9    0.3556370435D-03
  10    0.1112663714D-02
  11   -0.1751271110D-03
  12   -0.4861137220D-03
  13   -0.1765267776D-03
  14    0.2549860364D-04
  15    0.1805466725D-04
  16   -0.2723157722D-03
  17    0.2099536415D-04
  18   -0.2862855327D-03
  19    0.2658844250D-03
  20    0.1448645355D-03
  21   -0.1634429283D-02
  22    0.1688322554D-03
  23    0.3888617366D-03
  24    0.1913537274D-03
  25    0.4279955542D-03
  26   -0.1693603540D-03
  27   -0.5776462439D-03
  28   -0.2362992782D-03
  29   -0.7786625553D-03
  30   -0.5310582708D-02
 -----------------------------------------------------------------------------------------------
                       Internal Coordinate Forces (Hartree/Bohr or radian)
  Cent   Atom   N1       Length/X         N2         Alpha/Y        N3         Beta/Z          J
 -----------------------------------------------------------------------------------------------
      1  C 
      2  O        1  -0.000779(     1)
      3  H        1  -0.000236(     2)      2   0.000428(    12)
      4  H        1  -0.000578(     3)      2   0.000358(    13)      3   0.001224(    22)     0
      5  H        2  -0.000169(     4)      1  -0.000303(    14)      3   0.000356(    23)     0
      6  C        1  -0.005311(     5)      2  -0.000072(    15)      3  -0.000609(    24)     0
      7  C        6   0.001113(     6)      1  -0.000133(    16)      2  -0.000052(    25)     0
      8  H        6  -0.000175(     7)      7  -0.000272(    17)      1  -0.000413(    26)     0
      9  H        6  -0.000486(     8)      7   0.000021(    18)      8  -0.001634(    27)     0
     10  H        7  -0.000177(     9)      6  -0.000286(    19)      8   0.000191(    28)     0
     11  H        7   0.000025(    10)      6   0.000266(    20)     10   0.000169(    29)     0
     12  H        7   0.000018(    11)      6   0.000145(    21)     10   0.000389(    30)     0
 -----------------------------------------------------------------------------------------------
 Internal  Forces:  Max     0.005310583 RMS     0.001102945
 Final forces over variables, Energy=-1.94235105D+02:
 -4.13210986D-04-5.22113946D-05-1.33239951D-04-6.08985285D-04
 -7.15976822D-05 3.57771145D-04-3.02642265D-04 1.22405668D-03
  3.55637044D-04 1.11266371D-03-1.75127111D-04-4.86113722D-04
 -1.76526778D-04 2.54986036D-05 1.80546672D-05-2.72315772D-04
  2.09953642D-05-2.86285533D-04 2.65884425D-04 1.44864535D-04
 -1.63442928D-03 1.68832255D-04 3.88861737D-04 1.91353727D-04
  4.27995554D-04-1.69360354D-04-5.77646244D-04-2.36299278D-04
 -7.78662555D-04-5.31058271D-03

 GradGradGradGradGradGradGradGradGradGradGradGradGradGradGradGradGradGrad
 Berny optimization.
 Search for a local minimum.
 Step number   5 out of a maximum of   50
 All quantities printed in internal units (Hartrees-Bohrs-Radians)
 Update second derivatives using D2CorN and points    1    2    3    4    5

 DE= -9.26D-06 DEPred=-7.68D-06 R= 1.21D+00
 TightC=F SS=  1.41D+00  RLast= 1.91D-02 DXNew= 5.0454D-01 5.7241D-02
 Trust test= 1.21D+00 RLast= 1.91D-02 DXMaxT set to 3.00D-01
 ITU=  1  1  1  1  0
     Eigenvalues ---    0.00920   0.10886   0.331331000.000001000.00000
     Eigenvalues --- 1000.000001000.000001000.000001000.000001000.00000
     Eigenvalues --- 1000.000001000.000001000.000001000.000001000.00000
     Eigenvalues --- 1000.000001000.000001000.000001000.000001000.00000
     Eigenvalues --- 1000.000001000.000001000.000001000.000001000.00000
     Eigenvalues --- 1000.000001000.000001000.000001000.000001000.00000
 RFO step:  Lambda=-3.24146526D-08 EMin= 9.20133682D-03
 Quartic linear search produced a step of  2.00000.
 Variable       Old X    -DE/DX   Delta X   Delta X   Delta X     New X
                                 (Linear)    (Quad)   (Total)
  BABS3       1.71967  -0.00041  -0.03383   0.00028  -0.03354   1.68613
  BABS2       3.53581  -0.00005   0.01418  -0.00071   0.01347   3.54928
  AABS2       1.72285  -0.00013  -0.01053   0.00025  -0.01029   1.71256
  BABS1       1.82238  -0.00061   0.00000   0.00000   0.00000   1.82238
  AABS1       1.98419  -0.00007   0.00000   0.00000   0.00000   1.98419
    A3        2.07773   0.00036   0.00000   0.00000   0.00000   2.07773
    A4        1.91774  -0.00030   0.00000   0.00000   0.00000   1.91774
    D3        3.59107   0.00122   0.00000   0.00000   0.00000   3.59107
    D4        3.05743   0.00036   0.00000   0.00000   0.00000   3.05743
   R21        2.80039   0.00111   0.00000   0.00000   0.00000   2.80039
   R22        2.04166  -0.00018   0.00000   0.00000   0.00000   2.04166
   R23        2.04147  -0.00049   0.00000   0.00000   0.00000   2.04147
   R24        2.06150  -0.00018   0.00000   0.00000   0.00000   2.06150
   R25        2.07624   0.00003   0.00000   0.00000   0.00000   2.07624
   R26        2.06169   0.00002   0.00000   0.00000   0.00000   2.06169
   A22        2.10998  -0.00027   0.00000   0.00000   0.00000   2.10998
   A23        2.11001   0.00002   0.00000   0.00000   0.00000   2.11001
   A24        1.95093  -0.00029   0.00000   0.00000   0.00000   1.95093
   A25        1.94864   0.00027   0.00000   0.00000   0.00000   1.94864
   A26        1.95094   0.00014   0.00000   0.00000   0.00000   1.95094
   D23        3.00207  -0.00163   0.00000   0.00000   0.00000   3.00207
   D25        2.08059   0.00017   0.00000   0.00000   0.00000   2.08059
   D26        4.16079   0.00039   0.00000   0.00000   0.00000   4.16079
   D24        2.70779   0.00019   0.00000   0.00000   0.00000   2.70779
    A2        1.98912   0.00043   0.00000   0.00000   0.00000   1.98912
    R4        1.80903  -0.00017   0.00000   0.00000   0.00000   1.80903
    R3        2.04412  -0.00058   0.00000   0.00000   0.00000   2.04412
    R2        2.03694  -0.00024   0.00000   0.00000   0.00000   2.03694
    R1        2.56549  -0.00078   0.00000   0.00000   0.00000   2.56549
   RTS        6.04712  -0.00531   0.00000   0.00000   0.00000   6.04712
         Item               Value     Threshold  Converged?
 Maximum Force            0.000413     0.000450     YES
 RMS     Force            0.000252     0.000300     YES
 Maximum Displacement     0.033544     0.001800     NO 
 RMS     Displacement     0.006862     0.001200     NO 
 Predicted change in Energy=-6.699189D-06
 GradGradGradGradGradGradGradGradGradGradGradGradGradGradGradGradGradGrad

 ---------------------------------------------------------------------------------------------------
                            Z-MATRIX (ANGSTROMS AND DEGREES)
   CD    Cent   Atom    N1       Length/X        N2       Alpha/Y        N3        Beta/Z          J
 ---------------------------------------------------------------------------------------------------
      1      1  C 
      2      2  O        1   1.357600(     1)
      3      3  H        1   1.077900(     2)      2  113.968(    12)
      4      4  H        1   1.081700(     3)      2  119.045(    13)      3  205.753(    22)      0
      5      5  H        2   0.957300(     4)      1  109.878(    14)      3  175.178(    23)      0
      6      6  C        1   3.200000(     5)      2  113.686(    15)      3  104.415(    24)      0
      7      7  C        6   1.481900(     6)      1   98.123(    16)      2  203.359(    25)      0
      8      8  H        6   1.080400(     7)      7  120.893(    17)      1   96.608(    26)      0
      9      9  H        6   1.080300(     8)      7  120.894(    18)      8  172.006(    27)      0
     10     10  H        7   1.090900(     9)      6  111.780(    19)      8  155.145(    28)      0
     11     11  H        7   1.098700(    10)      6  111.649(    20)     10  119.209(    29)      0
     12     12  H        7   1.091000(    11)      6  111.781(    21)     10  238.396(    30)      0
 ---------------------------------------------------------------------------------------------------
                         Z-Matrix orientation:                         
 ---------------------------------------------------------------------
 Center     Atomic      Atomic             Coordinates (Angstroms)
 Number     Number       Type             X           Y           Z
 ---------------------------------------------------------------------
      1          6           0        0.000000    0.000000    0.000000
      2          8           0        0.000000    0.000000    1.357600
      3          1           0        0.984955    0.000000   -0.437871
      4          1           0       -0.851738    0.410883   -0.525160
      5          1           0       -0.897076    0.075675    1.683103
      6          6           0       -0.729488   -2.838187   -1.285512
      7          6           0       -0.079184   -2.644687   -2.602967
      8          1           0       -1.786512   -2.655652   -1.156496
      9          1           0       -0.192207   -3.285882   -0.462137
     10          1           0        0.987351   -2.439033   -2.501614
     11          1           0       -0.166080   -3.540360   -3.233332
     12          1           0       -0.534406   -1.826396   -3.162837
 ---------------------------------------------------------------------
                    Distance matrix (angstroms):
                    1          2          3          4          5
     1  C    0.000000
     2  O    1.357600   0.000000
     3  H    1.077900   2.047890   0.000000
     4  H    1.081700   2.106909   1.884114   0.000000
     5  H    1.908745   0.957300   2.836600   2.234020   0.000000
     6  C    3.200000   3.946327   3.422443   3.339092   4.163094
     7  C    3.711614   4.763059   3.579721   3.775001   5.141956
     8  H    3.403175   4.069987   3.905117   3.267419   4.039129
     9  H    3.323784   3.761038   3.490462   3.755666   4.049563
    10  H    3.630678   4.670897   3.194984   3.925639   5.233228
    11  H    4.797517   5.799861   4.655495   4.839075   6.146658
    12  H    3.691185   4.904657   3.615193   3.473249   5.218480
                    6          7          8          9         10
     6  C    0.000000
     7  C    1.481900   0.000000
     8  H    1.080400   2.237716   0.000000
     9  H    1.080300   2.237646   1.849631   0.000000
    10  H    2.141441   1.090900   3.090402   2.503593   0.000000
    11  H    2.145806   1.098700   2.778805   2.782978   1.754633
    12  H    2.141525   1.091000   2.506160   3.088848   1.768695
                   11         12
    11  H    0.000000
    12  H    1.754510   0.000000
 Symmetry turned off by external request.
 Stoichiometry    C3H8O
 Framework group  C1[X(C3H8O)]
 Deg. of freedom    30
 Full point group                 C1      NOp   1
 Rotational constants (GHZ):     16.8314072      2.0524150      1.9202920
 Standard basis: Jun-CC-pVTZ (5D, 7F)
   268 basis functions,   384 primitive gaussians,   300 cartesian basis functions
    17 alpha electrons       17 beta electrons
       nuclear repulsion energy       111.2721892556 Hartrees.
 NAtoms=   12 NActive=   12 NUniq=   12 SFac= 1.00D+00 NAtFMM=   60 NAOKFM=F Big=F
 Integral buffers will be    131072 words long.
 Raffenetti 2 integral format.
 Two-electron integral symmetry is turned off.
 Nuclear repulsion after empirical dispersion term =      111.2687307714 Hartrees.
 One-electron integrals computed using PRISM.
 NBasis=   268 RedAO= T EigKep=  1.05D-04  NBF=   268
 NBsUse=   268 1.00D-06 EigRej= -1.00D+00 NBFU=   268
 ExpMin= 3.57D-02 ExpMax= 1.53D+04 ExpMxC= 5.22D+02 IAcc=3 IRadAn=         5 AccDes= 0.00D+00
 Harris functional with IExCor= 4639 and IRadAn=       5 diagonalized for initial guess.
 HarFok:  IExCor= 4639 AccDes= 0.00D+00 IRadAn=         5 IDoV= 1 UseB2=F ITyADJ=14
 ICtDFT=  3500011 ScaDFX=  1.000000  1.000000  1.000000  1.000000
 FoFCou: FMM=F IPFlag=           0 FMFlag=      100000 FMFlg1=           0
         NFxFlg=           0 DoJE=T BraDBF=F KetDBF=T FulRan=T
         wScrn=  0.000000 ICntrl=     500 IOpCl=  0 I1Cent=   200000004 NGrid=           0
         NMat0=    1 NMatS0=      1 NMatT0=    0 NMatD0=    1 NMtDS0=    0 NMtDT0=    0
 Symmetry not used in FoFCou.
 Mixing orbitals, IMix= 1 IMixAn=  0 NRI=1 NE=   17 Coef=  7.07106781D-01  7.07106781D-01
 Mixing orbitals, IMix= 1 IMixAn=  0 NRI=1 NE=   17 Coef= -7.07106781D-01  7.07106781D-01
 Initial guess <Sx>= 0.0000 <Sy>= 0.0000 <Sz>= 0.0000 <S**2>= 1.0000 S= 0.6180
 Requested convergence on RMS density matrix=1.00D-08 within 128 cycles.
 Requested convergence on MAX density matrix=1.00D-06.
 Requested convergence on             energy=1.00D-06.
 No special actions if energy rises.
 SCF Done:  E(UwB97XD) =  -194.235112186     A.U. after   15 cycles
            NFock= 15  Conv=0.66D-08     -V/T= 2.0066
 <Sx>= 0.0000 <Sy>= 0.0000 <Sz>= 0.0000 <S**2>= 0.8994 S= 0.5721
 <L.S>=  0.00000000000    
 Annihilation of the first spin contaminant:
 S**2 before annihilation     0.8994,   after     0.0508
 DipInt: DoE/N= T T RetVal/Mat= T F Init=T NMatP=  1 IDeriv=0 Min/MaxMlt=  1  1
 Entering OneElI...
 Multipole integrals L=1 to 1 MinM= 0 MaxM= 0.
 Requested accuracy = 0.1000D-12
 PrsmSu:  NPrtUS=   1 ThrOK=F IAlg=1 NPAlg=1 LenDen=           0.
 Prism:   IPart=     0 DynPar=F LinDyn=F Incr=          48.
 PRISM was handed   419024912 working-precision words and  4854 shell-pairs
 IPart=  0 NShTot=        4854 NBatch=          61 AvBLen=        79.6
 PrSmSu:  NxtVal=             49.
 Entering OneElI...
 Calculate overlap and kinetic energy integrals
    NBasis = 300  MinDer = 1  MaxDer = 1
 Requested accuracy = 0.1000D-12
 PrsmSu:  NPrtUS=  32 ThrOK=T IAlg=1 NPAlg=1 LenDen=           0.
 PRISM was handed    12996541 working-precision words and  4992 shell-pairs
 PRISM was handed    12996541 working-precision words and  4992 shell-pairs
 PRISM was handed    12996541 working-precision words and  4992 shell-pairs
 PRISM was handed    12996541 working-precision words and  4992 shell-pairs
 PRISM was handed    12996541 working-precision words and  4992 shell-pairs
 PRISM was handed    12996541 working-precision words and  4992 shell-pairs
 PRISM was handed    12996541 working-precision words and  4992 shell-pairs
 Prism:   IPart=     0 DynPar=F LinDyn=F Incr=           1.
 PRISM was handed    12996541 working-precision words and  4992 shell-pairs
 PRISM was handed    12996541 working-precision words and  4992 shell-pairs
 PRISM was handed    12996541 working-precision words and  4992 shell-pairs
 PRISM was handed    12996541 working-precision words and  4992 shell-pairs
 PRISM was handed    12996541 working-precision words and  4992 shell-pairs
 PRISM was handed    12996541 working-precision words and  4992 shell-pairs
 PRISM was handed    12996541 working-precision words and  4992 shell-pairs
 PRISM was handed    12996541 working-precision words and  4992 shell-pairs
 PRISM was handed    12996541 working-precision words and  4992 shell-pairs
 PRISM was handed    12996541 working-precision words and  4992 shell-pairs
 PRISM was handed    12996541 working-precision words and  4992 shell-pairs
 PRISM was handed    12996541 working-precision words and  4992 shell-pairs
 PRISM was handed    12996541 working-precision words and  4992 shell-pairs
 PRISM was handed    12996541 working-precision words and  4992 shell-pairs
 PRISM was handed    12996541 working-precision words and  4992 shell-pairs
 PRISM was handed    12996541 working-precision words and  4992 shell-pairs
 PRISM was handed    12996541 working-precision words and  4992 shell-pairs
 PRISM was handed    12996541 working-precision words and  4992 shell-pairs
 PRISM was handed    12996541 working-precision words and  4992 shell-pairs
 PRISM was handed    12996541 working-precision words and  4992 shell-pairs
 PRISM was handed    12996541 working-precision words and  4992 shell-pairs
 PRISM was handed    12996541 working-precision words and  4992 shell-pairs
 PRISM was handed    12996541 working-precision words and  4992 shell-pairs
 PRISM was handed    12996541 working-precision words and  4992 shell-pairs
 PRISM was handed    12996541 working-precision words and  4992 shell-pairs
 IPart= 22 NShTot=         144 NBatch=          21 AvBLen=         6.9
 IPart= 20 NShTot=         145 NBatch=          21 AvBLen=         6.9
 IPart= 13 NShTot=         157 NBatch=          26 AvBLen=         6.0
 IPart= 17 NShTot=         146 NBatch=          21 AvBLen=         7.0
 IPart= 23 NShTot=         144 NBatch=          21 AvBLen=         6.9
 IPart= 14 NShTot=         152 NBatch=          22 AvBLen=         6.9
 IPart= 31 NShTot=         140 NBatch=          20 AvBLen=         7.0
 IPart=  8 NShTot=         161 NBatch=          29 AvBLen=         5.6
 IPart=  1 NShTot=         189 NBatch=          50 AvBLen=         3.8
 IPart= 28 NShTot=         142 NBatch=          20 AvBLen=         7.1
 IPart=  2 NShTot=         184 NBatch=          45 AvBLen=         4.1
 IPart= 10 NShTot=         157 NBatch=          26 AvBLen=         6.0
 IPart=  0 NShTot=         197 NBatch=          58 AvBLen=         3.4
 IPart=  6 NShTot=         173 NBatch=          36 AvBLen=         4.8
 IPart= 21 NShTot=         145 NBatch=          21 AvBLen=         6.9
 IPart=  3 NShTot=         183 NBatch=          44 AvBLen=         4.2
 IPart= 18 NShTot=         145 NBatch=          21 AvBLen=         6.9
 IPart= 29 NShTot=         141 NBatch=          20 AvBLen=         7.0
 IPart= 25 NShTot=         143 NBatch=          21 AvBLen=         6.8
 IPart=  4 NShTot=         175 NBatch=          36 AvBLen=         4.9
 IPart= 12 NShTot=         157 NBatch=          26 AvBLen=         6.0
 IPart=  9 NShTot=         159 NBatch=          27 AvBLen=         5.9
 IPart= 30 NShTot=         141 NBatch=          20 AvBLen=         7.0
 IPart= 16 NShTot=         146 NBatch=          21 AvBLen=         7.0
 IPart= 11 NShTot=         157 NBatch=          26 AvBLen=         6.0
 IPart=  7 NShTot=         173 NBatch=          36 AvBLen=         4.8
 IPart= 19 NShTot=         145 NBatch=          21 AvBLen=         6.9
 IPart= 24 NShTot=         143 NBatch=          21 AvBLen=         6.8
 IPart= 27 NShTot=         142 NBatch=          20 AvBLen=         7.1
 IPart=  5 NShTot=         173 NBatch=          36 AvBLen=         4.8
 IPart= 26 NShTot=         142 NBatch=          20 AvBLen=         7.1
 IPart= 15 NShTot=         151 NBatch=          22 AvBLen=         6.9
 PrSmSu:  NxtVal=             33.
 Entering OneElI...
 Calculate potential energy integrals
    NBasis = 300  MinDer = 1  MaxDer = 1
 Requested accuracy = 0.1000D-12
 PrsmSu:  NPrtUS=  32 ThrOK=T IAlg=1 NPAlg=1 LenDen=           0.
 PRISM was handed    13013561 working-precision words and  4632 shell-pairs
 PRISM was handed    13013561 working-precision words and  4632 shell-pairs
 PRISM was handed    13013561 working-precision words and  4632 shell-pairs
 PRISM was handed    13013561 working-precision words and  4632 shell-pairs
 PRISM was handed    13013561 working-precision words and  4632 shell-pairs
 PRISM was handed    13013561 working-precision words and  4632 shell-pairs
 PRISM was handed    13013561 working-precision words and  4632 shell-pairs
 PRISM was handed    13013561 working-precision words and  4632 shell-pairs
 PRISM was handed    13013561 working-precision words and  4632 shell-pairs
 PRISM was handed    13013561 working-precision words and  4632 shell-pairs
 PRISM was handed    13013561 working-precision words and  4632 shell-pairs
 PRISM was handed    13013561 working-precision words and  4632 shell-pairs
 PRISM was handed    13013561 working-precision words and  4632 shell-pairs
 PRISM was handed    13013561 working-precision words and  4632 shell-pairs
 PRISM was handed    13013561 working-precision words and  4632 shell-pairs
 PRISM was handed    13013561 working-precision words and  4632 shell-pairs
 PRISM was handed    13013561 working-precision words and  4632 shell-pairs
 PRISM was handed    13013561 working-precision words and  4632 shell-pairs
 PRISM was handed    13013561 working-precision words and  4632 shell-pairs
 PRISM was handed    13013561 working-precision words and  4632 shell-pairs
 PRISM was handed    13013561 working-precision words and  4632 shell-pairs
 PRISM was handed    13013561 working-precision words and  4632 shell-pairs
 PRISM was handed    13013561 working-precision words and  4632 shell-pairs
 PRISM was handed    13013561 working-precision words and  4632 shell-pairs
 PRISM was handed    13013561 working-precision words and  4632 shell-pairs
 PRISM was handed    13013561 working-precision words and  4632 shell-pairs
 Prism:   IPart=     0 DynPar=F LinDyn=F Incr=          17.
 PRISM was handed    13013561 working-precision words and  4632 shell-pairs
 PRISM was handed    13013561 working-precision words and  4632 shell-pairs
 PRISM was handed    13013561 working-precision words and  4632 shell-pairs
 PRISM was handed    13013561 working-precision words and  4632 shell-pairs
 PRISM was handed    13013561 working-precision words and  4632 shell-pairs
 PRISM was handed    13013561 working-precision words and  4632 shell-pairs
 IPart= 29 NShTot=        1548 NBatch=         129 AvBLen=        12.0
 IPart= 20 NShTot=        1644 NBatch=         137 AvBLen=        12.0
 IPart= 24 NShTot=        1572 NBatch=         131 AvBLen=        12.0
 IPart=  2 NShTot=        2064 NBatch=         172 AvBLen=        12.0
 IPart= 17 NShTot=        1644 NBatch=         137 AvBLen=        12.0
 IPart= 16 NShTot=        1656 NBatch=         138 AvBLen=        12.0
 IPart= 22 NShTot=        1596 NBatch=         133 AvBLen=        12.0
 IPart= 26 NShTot=        1572 NBatch=         131 AvBLen=        12.0
 IPart= 21 NShTot=        1620 NBatch=         135 AvBLen=        12.0
 IPart= 27 NShTot=        1560 NBatch=         130 AvBLen=        12.0
 IPart= 14 NShTot=        1692 NBatch=         141 AvBLen=        12.0
 IPart=  7 NShTot=        1872 NBatch=         156 AvBLen=        12.0
 IPart= 12 NShTot=        1728 NBatch=         144 AvBLen=        12.0
 IPart= 11 NShTot=        1740 NBatch=         145 AvBLen=        12.0
 IPart= 30 NShTot=        1548 NBatch=         129 AvBLen=        12.0
 IPart= 31 NShTot=        1548 NBatch=         129 AvBLen=        12.0
 IPart=  9 NShTot=        1776 NBatch=         148 AvBLen=        12.0
 IPart=  0 NShTot=        2280 NBatch=         190 AvBLen=        12.0
 IPart= 28 NShTot=        1548 NBatch=         129 AvBLen=        12.0
 IPart=  5 NShTot=        1920 NBatch=         160 AvBLen=        12.0
 IPart=  8 NShTot=        1812 NBatch=         151 AvBLen=        12.0
 IPart= 10 NShTot=        1740 NBatch=         145 AvBLen=        12.0
 IPart= 15 NShTot=        1692 NBatch=         141 AvBLen=        12.0
 IPart=  3 NShTot=        2028 NBatch=         169 AvBLen=        12.0
 IPart=  6 NShTot=        1920 NBatch=         160 AvBLen=        12.0
 IPart=  1 NShTot=        2184 NBatch=         182 AvBLen=        12.0
 IPart= 18 NShTot=        1644 NBatch=         137 AvBLen=        12.0
 IPart= 13 NShTot=        1704 NBatch=         142 AvBLen=        12.0
 IPart= 25 NShTot=        1572 NBatch=         131 AvBLen=        12.0
 IPart= 23 NShTot=        1584 NBatch=         132 AvBLen=        12.0
 IPart=  4 NShTot=        1932 NBatch=         161 AvBLen=        12.0
 IPart= 19 NShTot=        1644 NBatch=         137 AvBLen=        12.0
 PrSmSu:  NxtVal=            545.
 l701 out
 I=    0 X=  -4.876943899980D-01 Y=   2.158330916942D-01 Z=  -9.420019692326D-02
 I=    1 X=   4.458116062929D-01 Y=   8.171970781604D-01 Z=  -4.239743049544D+00
 I=    2 X=   2.834296120647D+00 Y=   1.043287252290D+00 Z=   8.344426152969D+00
 I=    3 X=   3.169819914532D+00 Y=   1.638888714052D-01 Z=  -1.604795446293D+00
 I=    4 X=  -2.669045282965D+00 Y=   1.561952271234D+00 Z=  -1.823093627773D+00
 I=    5 X=  -3.094181267429D+00 Y=   4.331356291801D-01 Z=   2.492627217566D+00
 I=    6 X=  -1.464950733063D+00 Y=  -2.019570424450D+00 Z=   7.023198831651D-01
 I=    7 X=   9.426280391576D-01 Y=  -8.960208333239D-01 Z=  -3.240421365763D+00
 I=    8 X=  -3.408443491787D+00 Y=   2.842762216372D-01 Z=   6.148131361784D-01
 I=    9 X=   1.415251751551D+00 Y=  -1.700139439053D+00 Z=   2.715785766370D+00
 I=   10 X=   3.166591994893D+00 Y=   5.028685585114D-01 Z=  -5.764671267857D-02
 I=   11 X=  -1.423078682826D-01 Y=  -2.446730609736D+00 Z=  -1.952663305701D+00
 I=   12 X=  -1.195470783548D+00 Y=   2.255855424144D+00 Z=  -1.951608648495D+00
 ICntrl=      2127.
 Calling FoFJK, ICntrl=      2127 FMM=F ISym2X=0 I1Cent= 0 IOpClX= 1 NMat=1 NMatS=1 NMatT=0.
 FoFJK:  IHMeth= 1 ICntrl=    2127 DoSepK=T KAlg= 0 I1Cent=   0 FoldK=F
 IRaf=         1 NMat=   1 IRICut=       1 DoRegI=T DoRafI=F ISym2E= 0.
 FoFCou: FMM=F IPFlag=           0 FMFlag=      100000 FMFlg1=         800
         NFxFlg=           0 DoJE=F BraDBF=F KetDBF=F FulRan=T
         wScrn=  0.000000 ICntrl=    2527 IOpCl=  0 I1Cent=           0 NGrid=           0
         NMat0=    1 NMatS0=      1 NMatT0=    0 NMatD0=    1 NMtDS0=    0 NMtDT0=    0
 Symmetry not used in FoFCou.
 FoFCou:  KetSym=F NOpSet=  1 NOpAb=1 NOp=  1.
 FoFCou:  CnvScl= 1.00D+00 Thresh= 1.00D-10 IAcrcy=      10.
 PrismS was handed   418932497 working-precision words and  4803 shell-pairs
 FoFCou: LinMIO=F DoNuc=F BraDBF=F KetDBF=F HaveP=T PDBF=F HaveZ=T HaveW=F
         NIJTC =      10 NIJTAt=       0 NIJTCD=       0 NIJTT =      10
         IJTBeg=       1 IJTEnd=      10 KLTBeg=       1 KLTEnd=      10
         IPTBeg=       1 IPTEnd=      10 IPTBCv=       1 IPTECv=      10
         IZTBeg=       1 IZTEnd=      10 IZTBCv=       1 IZTECv=      10
         IWTBeg=      11 IWTEnd=      10 IWTBCv=      11 IWTECv=      10
         INTBeg=       1 INTEnd=       0 IFTBCv=       1 IFTECv=      10
 NCel replicated for PrismC:     1
 CoulSu:  IncDef=  1024 NBBP=       11536806 NTPThr=   100 NPartT=   32 Incr=        1024 LDynOK=F.
 CoulSu:  NPrtUS=  32 ThrOK=T IAlg=1 NPAlg=1 LenDen=           0 LWGrdD=           0 DoCopy=F.
 Enter PrismC: JobTyp=21 DoJE=F Cont=F.
 Enter PrismC: JobTyp=21 DoJE=F Cont=F.
 Enter PrismC: JobTyp=21 DoJE=F Cont=F.
 Enter PrismC: JobTyp=21 DoJE=F Cont=F.
 PrismC was handed    13006619 working-precision words and  4803 shell-pairs
 Enter PrismC: JobTyp=21 DoJE=F Cont=F.
 PrismC was handed    13006619 working-precision words and  4803 shell-pairs
 Enter PrismC: JobTyp=21 DoJE=F Cont=F.
 PrismC was handed    13006619 working-precision words and  4803 shell-pairs
 Enter PrismC: JobTyp=21 DoJE=F Cont=F.
 PrismC was handed    13006619 working-precision words and  4803 shell-pairs
 Enter PrismC: JobTyp=21 DoJE=F Cont=F.
 PrismC was handed    13006619 working-precision words and  4803 shell-pairs
 Enter PrismC: JobTyp=21 DoJE=F Cont=F.
 PrismC was handed    13006619 working-precision words and  4803 shell-pairs
 Enter PrismC: JobTyp=21 DoJE=F Cont=F.
 PrismC was handed    13006619 working-precision words and  4803 shell-pairs
 Enter PrismC: JobTyp=21 DoJE=F Cont=F.
 PrismC was handed    13006619 working-precision words and  4803 shell-pairs
 Enter PrismC: JobTyp=21 DoJE=F Cont=F.
 PrismC:  IPart=     0 DynPar=T LinDyn=F Incr=        1024 UseFst=F UseS4=T IGathr=2.
 PrismC was handed    13006619 working-precision words and  4803 shell-pairs
 Enter PrismC: JobTyp=21 DoJE=F Cont=F.
 Enter PrismC: JobTyp=21 DoJE=F Cont=F.
 PrismC was handed    13006619 working-precision words and  4803 shell-pairs
 Enter PrismC: JobTyp=21 DoJE=F Cont=F.
 Enter PrismC: JobTyp=21 DoJE=F Cont=F.
 PrismC was handed    13006619 working-precision words and  4803 shell-pairs
 Enter PrismC: JobTyp=21 DoJE=F Cont=F.
 Enter PrismC: JobTyp=21 DoJE=F Cont=F.
 Enter PrismC: JobTyp=21 DoJE=F Cont=F.
 Enter PrismC: JobTyp=21 DoJE=F Cont=F.
 Enter PrismC: JobTyp=21 DoJE=F Cont=F.
 Enter PrismC: JobTyp=21 DoJE=F Cont=F.
 PrismC was handed    13006619 working-precision words and  4803 shell-pairs
 Enter PrismC: JobTyp=21 DoJE=F Cont=F.
 Enter PrismC: JobTyp=21 DoJE=F Cont=F.
 PrismC was handed    13006619 working-precision words and  4803 shell-pairs
 PrismC was handed    13006619 working-precision words and  4803 shell-pairs
 PrismC was handed    13006619 working-precision words and  4803 shell-pairs
 Enter PrismC: JobTyp=21 DoJE=F Cont=F.
 Enter PrismC: JobTyp=21 DoJE=F Cont=F.
 Enter PrismC: JobTyp=21 DoJE=F Cont=F.
 PrismC was handed    13006619 working-precision words and  4803 shell-pairs
 Enter PrismC: JobTyp=21 DoJE=F Cont=F.
 Enter PrismC: JobTyp=21 DoJE=F Cont=F.
 Enter PrismC: JobTyp=21 DoJE=F Cont=F.
 PrismC was handed    13006619 working-precision words and  4803 shell-pairs
 PrismC was handed    13006619 working-precision words and  4803 shell-pairs
 Enter PrismC: JobTyp=21 DoJE=F Cont=F.
 PrismC was handed    13006619 working-precision words and  4803 shell-pairs
 PrismC was handed    13006619 working-precision words and  4803 shell-pairs
 PrismC was handed    13006619 working-precision words and  4803 shell-pairs
 PrismC was handed    13006619 working-precision words and  4803 shell-pairs
 PrismC was handed    13006619 working-precision words and  4803 shell-pairs
 PrismC was handed    13006619 working-precision words and  4803 shell-pairs
 Enter PrismC: JobTyp=21 DoJE=F Cont=F.
 PrismC was handed    13006619 working-precision words and  4803 shell-pairs
 PrismC was handed    13006619 working-precision words and  4803 shell-pairs
 PrismC was handed    13006619 working-precision words and  4803 shell-pairs
 PrismC was handed    13006619 working-precision words and  4803 shell-pairs
 PrismC was handed    13006619 working-precision words and  4803 shell-pairs
 PrismC was handed    13006619 working-precision words and  4803 shell-pairs
 PrismC was handed    13006619 working-precision words and  4803 shell-pairs
 PrismC was handed    13006619 working-precision words and  4803 shell-pairs
 IPart=  5 NShTot=      350719 NShNF=      350719 NShFF=           0 NBatch=        2090 AvBLen=       167.8
 IPart= 25 NShTot=      285395 NShNF=      285395 NShFF=           0 NBatch=        2145 AvBLen=       133.1
 IPart= 19 NShTot=      242946 NShNF=      242946 NShFF=           0 NBatch=        1510 AvBLen=       160.9
 IPart= 15 NShTot=      211978 NShNF=      211978 NShFF=           0 NBatch=        1741 AvBLen=       121.8
 IPart= 20 NShTot=      285519 NShNF=      285519 NShFF=           0 NBatch=        2030 AvBLen=       140.6
 IPart= 27 NShTot=      304113 NShNF=      304113 NShFF=           0 NBatch=        2287 AvBLen=       133.0
 IPart= 26 NShTot=      272337 NShNF=      272337 NShFF=           0 NBatch=        1922 AvBLen=       141.7
 IPart= 18 NShTot=      195643 NShNF=      195643 NShFF=           0 NBatch=        1601 AvBLen=       122.2
 IPart= 16 NShTot=      193459 NShNF=      193459 NShFF=           0 NBatch=        1483 AvBLen=       130.5
 IPart= 11 NShTot=      195436 NShNF=      195436 NShFF=           0 NBatch=        1897 AvBLen=       103.0
 IPart= 24 NShTot=      269762 NShNF=      269762 NShFF=           0 NBatch=        2123 AvBLen=       127.1
 IPart=  6 NShTot=      262193 NShNF=      262193 NShFF=           0 NBatch=        1775 AvBLen=       147.7
 IPart=  7 NShTot=      495348 NShNF=      495348 NShFF=           0 NBatch=        2418 AvBLen=       204.9
 IPart= 21 NShTot=      298036 NShNF=      298036 NShFF=           0 NBatch=        2073 AvBLen=       143.8
 IPart= 14 NShTot=      268950 NShNF=      268950 NShFF=           0 NBatch=        1845 AvBLen=       145.8
 IPart= 13 NShTot=      278567 NShNF=      278567 NShFF=           0 NBatch=        2471 AvBLen=       112.7
 IPart= 12 NShTot=      276804 NShNF=      276804 NShFF=           0 NBatch=        2020 AvBLen=       137.0
 IPart=  9 NShTot=      232497 NShNF=      232497 NShFF=           0 NBatch=        1820 AvBLen=       127.7
 IPart=  3 NShTot=      291968 NShNF=      291968 NShFF=           0 NBatch=        2083 AvBLen=       140.2
 IPart=  4 NShTot=      398681 NShNF=      398681 NShFF=           0 NBatch=        2867 AvBLen=       139.1
 IPart= 31 NShTot=      216956 NShNF=      216956 NShFF=           0 NBatch=        1575 AvBLen=       137.7
 IPart= 29 NShTot=      309726 NShNF=      309726 NShFF=           0 NBatch=        1831 AvBLen=       169.2
 IPart= 17 NShTot=      257945 NShNF=      257945 NShFF=           0 NBatch=        1664 AvBLen=       155.0
 IPart= 30 NShTot=      223730 NShNF=      223730 NShFF=           0 NBatch=        1596 AvBLen=       140.2
 IPart= 22 NShTot=      232977 NShNF=      232977 NShFF=           0 NBatch=        1852 AvBLen=       125.8
 IPart= 23 NShTot=      222559 NShNF=      222559 NShFF=           0 NBatch=        1766 AvBLen=       126.0
 IPart=  0 NShTot=      259869 NShNF=      259869 NShFF=           0 NBatch=        1947 AvBLen=       133.5
 IPart=  2 NShTot=      273483 NShNF=      273483 NShFF=           0 NBatch=        2029 AvBLen=       134.8
 IPart=  1 NShTot=      235694 NShNF=      235694 NShFF=           0 NBatch=        1629 AvBLen=       144.7
 IPart=  8 NShTot=      215648 NShNF=      215648 NShFF=           0 NBatch=        1675 AvBLen=       128.7
 IPart= 10 NShTot=      217430 NShNF=      217430 NShFF=           0 NBatch=        1642 AvBLen=       132.4
 IPart= 28 NShTot=      272411 NShNF=      272411 NShFF=           0 NBatch=        1943 AvBLen=       140.2
 CoulSu:  NxtVal=       12548097.
 FoFCou: FMM=F IPFlag=           0 FMFlag=      100000 FMFlg1=         800
         NFxFlg=           0 DoJE=F BraDBF=F KetDBF=F FulRan=T
         wScrn=  0.000000 ICntrl=    2127 IOpCl=  1 I1Cent=           0 NGrid=           0
         NMat0=    1 NMatS0=      0 NMatT0=    1 NMatD0=    1 NMtDS0=    0 NMtDT0=    0
         CW=    0.222036    0.777964
         WU=    0.000000   12.500000
 Symmetry not used in FoFCou.
 FoFCou:  KetSym=F NOpSet=  1 NOpAb=1 NOp=  1.
 FoFCou:  CnvScl= 1.00D+00 Thresh= 1.00D-10 IAcrcy=      10.
 PrismS was handed   418927531 working-precision words and  4803 shell-pairs
 FoFCou: LinMIO=F DoNuc=F BraDBF=F KetDBF=F HaveP=T PDBF=F HaveZ=T HaveW=F
         NIJTC =      10 NIJTAt=       0 NIJTCD=       0 NIJTT =      10
         IJTBeg=       1 IJTEnd=      10 KLTBeg=       1 KLTEnd=      10
         IPTBeg=       1 IPTEnd=      10 IPTBCv=       1 IPTECv=      10
         IZTBeg=       1 IZTEnd=      10 IZTBCv=       1 IZTECv=      10
         IWTBeg=      11 IWTEnd=      10 IWTBCv=      11 IWTECv=      10
         INTBeg=       1 INTEnd=       0 IFTBCv=       1 IFTECv=      10
 NCel replicated for PrismC:     1
 CoulSu:  IncDef=  1024 NBBP=       11536806 NTPThr=   100 NPartT=   32 Incr=        1024 LDynOK=F.
 CoulSu:  NPrtUS=  32 ThrOK=T IAlg=1 NPAlg=1 LenDen=           0 LWGrdD=           0 DoCopy=F.
 Enter PrismC: JobTyp=21 DoJE=F Cont=F.
 Enter PrismC: JobTyp=21 DoJE=F Cont=F.
 Linear combination for Coulomb/exchange, wScrn=  0.000000
 Enter PrismC: JobTyp=21 DoJE=F Cont=F.
 Linear combination for Coulomb/exchange, wScrn=  0.000000
 CW=    0.222036    0.777964
 WU=    0.000000   12.500000
 Enter PrismC: JobTyp=21 DoJE=F Cont=F.
 PrismC was handed    13006464 working-precision words and  4803 shell-pairs
 Enter PrismC: JobTyp=21 DoJE=F Cont=F.
 CW=    0.222036    0.777964
 WU=    0.000000   12.500000
 Enter PrismC: JobTyp=21 DoJE=F Cont=F.
 Enter PrismC: JobTyp=21 DoJE=F Cont=F.
 Enter PrismC: JobTyp=21 DoJE=F Cont=F.
 Enter PrismC: JobTyp=21 DoJE=F Cont=F.
 Linear combination for Coulomb/exchange, wScrn=  0.000000
 CW=    0.222036    0.777964
 Enter PrismC: JobTyp=21 DoJE=F Cont=F.
 Enter PrismC: JobTyp=21 DoJE=F Cont=F.
 Linear combination for Coulomb/exchange, wScrn=  0.000000
 CW=    0.222036    0.777964
 WU=    0.000000   12.500000
 Linear combination for Coulomb/exchange, wScrn=  0.000000
 CW=    0.222036    0.777964
 WU=    0.000000   12.500000
 Enter PrismC: JobTyp=21 DoJE=F Cont=F.
 PrismC was handed    13006464 working-precision words and  4803 shell-pairs
 Enter PrismC: JobTyp=21 DoJE=F Cont=F.
 Linear combination for Coulomb/exchange, wScrn=  0.000000
 CW=    0.222036    0.777964
 WU=    0.000000   12.500000
 Enter PrismC: JobTyp=21 DoJE=F Cont=F.
 PrismC was handed    13006464 working-precision words and  4803 shell-pairs
 Enter PrismC: JobTyp=21 DoJE=F Cont=F.
 Linear combination for Coulomb/exchange, wScrn=  0.000000
 CW=    0.222036    0.777964
 WU=    0.000000   12.500000
 Enter PrismC: JobTyp=21 DoJE=F Cont=F.
 Linear combination for Coulomb/exchange, wScrn=  0.000000
 CW=    0.222036    0.777964
 WU=    0.000000   12.500000
 Enter PrismC: JobTyp=21 DoJE=F Cont=F.
 Linear combination for Coulomb/exchange, wScrn=  0.000000
 CW=    0.222036    0.777964
 WU=    0.000000   12.500000
 WU=    0.000000   12.500000
 Enter PrismC: JobTyp=21 DoJE=F Cont=F.
 Linear combination for Coulomb/exchange, wScrn=  0.000000
 CW=    0.222036    0.777964
 WU=    0.000000   12.500000
 PrismC was handed    13006464 working-precision words and  4803 shell-pairs
 Enter PrismC: JobTyp=21 DoJE=F Cont=F.
 Enter PrismC: JobTyp=21 DoJE=F Cont=F.
 Linear combination for Coulomb/exchange, wScrn=  0.000000
 CW=    0.222036    0.777964
 WU=    0.000000   12.500000
 PrismC was handed    13006464 working-precision words and  4803 shell-pairs
 Linear combination for Coulomb/exchange, wScrn=  0.000000
 CW=    0.222036    0.777964
 WU=    0.000000   12.500000
 Enter PrismC: JobTyp=21 DoJE=F Cont=F.
 Linear combination for Coulomb/exchange, wScrn=  0.000000
 CW=    0.222036    0.777964
 WU=    0.000000   12.500000
 Linear combination for Coulomb/exchange, wScrn=  0.000000
 CW=    0.222036    0.777964
 WU=    0.000000   12.500000
 PrismC was handed    13006464 working-precision words and  4803 shell-pairs
 Enter PrismC: JobTyp=21 DoJE=F Cont=F.
 Linear combination for Coulomb/exchange, wScrn=  0.000000
 CW=    0.222036    0.777964
 WU=    0.000000   12.500000
 PrismC was handed    13006464 working-precision words and  4803 shell-pairs
 Enter PrismC: JobTyp=21 DoJE=F Cont=F.
 Linear combination for Coulomb/exchange, wScrn=  0.000000
 CW=    0.222036    0.777964
 WU=    0.000000   12.500000
 Enter PrismC: JobTyp=21 DoJE=F Cont=F.
 Linear combination for Coulomb/exchange, wScrn=  0.000000
 CW=    0.222036    0.777964
 PrismC was handed    13006464 working-precision words and  4803 shell-pairs
 Enter PrismC: JobTyp=21 DoJE=F Cont=F.
 Linear combination for Coulomb/exchange, wScrn=  0.000000
 CW=    0.222036    0.777964
 WU=    0.000000   12.500000
 PrismC was handed    13006464 working-precision words and  4803 shell-pairs
 PrismC was handed    13006464 working-precision words and  4803 shell-pairs
 Linear combination for Coulomb/exchange, wScrn=  0.000000
 CW=    0.222036    0.777964
 WU=    0.000000   12.500000
 PrismC was handed    13006464 working-precision words and  4803 shell-pairs
 Linear combination for Coulomb/exchange, wScrn=  0.000000
 CW=    0.222036    0.777964
 WU=    0.000000   12.500000
 PrismC:  IPart=     0 DynPar=T LinDyn=F Incr=        1024 UseFst=F UseS4=T IGathr=2.
 PrismC was handed    13006464 working-precision words and  4803 shell-pairs
 Linear combination for Coulomb/exchange, wScrn=  0.000000
 CW=    0.222036    0.777964
 WU=    0.000000   12.500000
 PrismC was handed    13006464 working-precision words and  4803 shell-pairs
 Enter PrismC: JobTyp=21 DoJE=F Cont=F.
 Linear combination for Coulomb/exchange, wScrn=  0.000000
 CW=    0.222036    0.777964
 WU=    0.000000   12.500000
 PrismC was handed    13006464 working-precision words and  4803 shell-pairs
 PrismC was handed    13006464 working-precision words and  4803 shell-pairs
 PrismC was handed    13006464 working-precision words and  4803 shell-pairs
 Enter PrismC: JobTyp=21 DoJE=F Cont=F.
 Linear combination for Coulomb/exchange, wScrn=  0.000000
 CW=    0.222036    0.777964
 WU=    0.000000   12.500000
 PrismC was handed    13006464 working-precision words and  4803 shell-pairs
 Enter PrismC: JobTyp=21 DoJE=F Cont=F.
 Linear combination for Coulomb/exchange, wScrn=  0.000000
 CW=    0.222036    0.777964
 WU=    0.000000   12.500000
 PrismC was handed    13006464 working-precision words and  4803 shell-pairs
 Linear combination for Coulomb/exchange, wScrn=  0.000000
 CW=    0.222036    0.777964
 WU=    0.000000   12.500000
 PrismC was handed    13006464 working-precision words and  4803 shell-pairs
 PrismC was handed    13006464 working-precision words and  4803 shell-pairs
 Enter PrismC: JobTyp=21 DoJE=F Cont=F.
 Linear combination for Coulomb/exchange, wScrn=  0.000000
 CW=    0.222036    0.777964
 WU=    0.000000   12.500000
 PrismC was handed    13006464 working-precision words and  4803 shell-pairs
 Linear combination for Coulomb/exchange, wScrn=  0.000000
 CW=    0.222036    0.777964
 WU=    0.000000   12.500000
 PrismC was handed    13006464 working-precision words and  4803 shell-pairs
 WU=    0.000000   12.500000
 Enter PrismC: JobTyp=21 DoJE=F Cont=F.
 PrismC was handed    13006464 working-precision words and  4803 shell-pairs
 Linear combination for Coulomb/exchange, wScrn=  0.000000
 CW=    0.222036    0.777964
 WU=    0.000000   12.500000
 PrismC was handed    13006464 working-precision words and  4803 shell-pairs
 PrismC was handed    13006464 working-precision words and  4803 shell-pairs
 Enter PrismC: JobTyp=21 DoJE=F Cont=F.
 Linear combination for Coulomb/exchange, wScrn=  0.000000
 CW=    0.222036    0.777964
 WU=    0.000000   12.500000
 PrismC was handed    13006464 working-precision words and  4803 shell-pairs
 PrismC was handed    13006464 working-precision words and  4803 shell-pairs
 Linear combination for Coulomb/exchange, wScrn=  0.000000
 CW=    0.222036    0.777964
 WU=    0.000000   12.500000
 PrismC was handed    13006464 working-precision words and  4803 shell-pairs
 PrismC was handed    13006464 working-precision words and  4803 shell-pairs
 PrismC was handed    13006464 working-precision words and  4803 shell-pairs
 Linear combination for Coulomb/exchange, wScrn=  0.000000
 CW=    0.222036    0.777964
 WU=    0.000000   12.500000
 PrismC was handed    13006464 working-precision words and  4803 shell-pairs
 Enter PrismC: JobTyp=21 DoJE=F Cont=F.
 Linear combination for Coulomb/exchange, wScrn=  0.000000
 CW=    0.222036    0.777964
 WU=    0.000000   12.500000
 PrismC was handed    13006464 working-precision words and  4803 shell-pairs
 IPart= 25 NShTot=      194893 NShNF=      194893 NShFF=           0 NBatch=        1903 AvBLen=       102.4
 IPart= 24 NShTot=      307666 NShNF=      307666 NShFF=           0 NBatch=        2822 AvBLen=       109.0
 IPart= 17 NShTot=      244021 NShNF=      244021 NShFF=           0 NBatch=        2294 AvBLen=       106.4
 IPart= 20 NShTot=      255391 NShNF=      255391 NShFF=           0 NBatch=        1961 AvBLen=       130.2
 IPart= 30 NShTot=      331607 NShNF=      331607 NShFF=           0 NBatch=        2957 AvBLen=       112.1
 IPart= 12 NShTot=      221595 NShNF=      221595 NShFF=           0 NBatch=        2158 AvBLen=       102.7
 IPart=  0 NShTot=      306570 NShNF=      306570 NShFF=           0 NBatch=        2869 AvBLen=       106.9
 IPart= 31 NShTot=      265955 NShNF=      265955 NShFF=           0 NBatch=        2517 AvBLen=       105.7
 IPart= 23 NShTot=      299222 NShNF=      299222 NShFF=           0 NBatch=        3105 AvBLen=        96.4
 IPart=  6 NShTot=      261676 NShNF=      261676 NShFF=           0 NBatch=        2460 AvBLen=       106.4
 IPart= 22 NShTot=      260304 NShNF=      260304 NShFF=           0 NBatch=        2583 AvBLen=       100.8
 IPart=  3 NShTot=      281234 NShNF=      281234 NShFF=           0 NBatch=        2533 AvBLen=       111.0
 IPart=  8 NShTot=      426135 NShNF=      426135 NShFF=           0 NBatch=        2648 AvBLen=       160.9
 IPart= 19 NShTot=      281136 NShNF=      281136 NShFF=           0 NBatch=        2458 AvBLen=       114.4
 IPart= 29 NShTot=      234693 NShNF=      234693 NShFF=           0 NBatch=        2097 AvBLen=       111.9
 IPart=  1 NShTot=      240755 NShNF=      240755 NShFF=           0 NBatch=        2001 AvBLen=       120.3
 IPart= 11 NShTot=      229592 NShNF=      229592 NShFF=           0 NBatch=        2346 AvBLen=        97.9
 IPart= 14 NShTot=      314768 NShNF=      314768 NShFF=           0 NBatch=        2156 AvBLen=       146.0
 IPart= 15 NShTot=      243312 NShNF=      243312 NShFF=           0 NBatch=        2311 AvBLen=       105.3
 IPart= 10 NShTot=      308447 NShNF=      308447 NShFF=           0 NBatch=        2614 AvBLen=       118.0
 IPart= 13 NShTot=      223238 NShNF=      223238 NShFF=           0 NBatch=        1919 AvBLen=       116.3
 IPart= 21 NShTot=      282373 NShNF=      282373 NShFF=           0 NBatch=        2482 AvBLen=       113.8
 IPart= 27 NShTot=      222544 NShNF=      222544 NShFF=           0 NBatch=        2363 AvBLen=        94.2
 IPart= 26 NShTot=      269226 NShNF=      269226 NShFF=           0 NBatch=        2475 AvBLen=       108.8
 IPart= 16 NShTot=      193749 NShNF=      193749 NShFF=           0 NBatch=        2111 AvBLen=        91.8
 IPart=  2 NShTot=      231327 NShNF=      231327 NShFF=           0 NBatch=        2067 AvBLen=       111.9
 IPart= 28 NShTot=      283818 NShNF=      283818 NShFF=           0 NBatch=        2325 AvBLen=       122.1
 IPart=  5 NShTot=      222156 NShNF=      222156 NShFF=           0 NBatch=        2117 AvBLen=       104.9
 IPart=  9 NShTot=      192738 NShNF=      192738 NShFF=           0 NBatch=        1994 AvBLen=        96.7
 IPart=  7 NShTot=      395933 NShNF=      395933 NShFF=           0 NBatch=        3047 AvBLen=       129.9
 IPart=  4 NShTot=      312848 NShNF=      312848 NShFF=           0 NBatch=        2690 AvBLen=       116.3
 IPart= 18 NShTot=      261342 NShNF=      261342 NShFF=           0 NBatch=        2050 AvBLen=       127.5
 CoulSu:  NxtVal=       12548097.
 ReadGW:  IGet=0 IStart=           1 Next=           1 LGW=           0.
 Remaining memory in FofDFT      399.83 Mw
 CkSvGd:  ISavGI=        -1 IRadAn=       5 IRASav=       5 ISavGd=        -1.
 CalDSu:  NPrtUS=  32 ThrOK=T IAlg=1 NPAlg=2 DoDPD=T LenP=       45150 LenD1P=             0.
 IPart=  0 IRanGd=          0 ScrnBf=T ScrnGd=T RCrit=4.00D+00 DoMicB=T.
 IPart= 28         9028 of        10714 points in      17 batches and       62 microbatches, Max-NSigAt=      12 Max-NSgAt2=      12
 IPart=  6         7769 of         9100 points in      15 batches and       85 microbatches, Max-NSigAt=      12 Max-NSgAt2=      12
 IPart= 15         6401 of         7118 points in      11 batches and       42 microbatches, Max-NSigAt=      12 Max-NSgAt2=      12
 IPart= 29         6931 of         7536 points in      13 batches and       44 microbatches, Max-NSigAt=      12 Max-NSgAt2=      12
 IPart= 30         7465 of         8136 points in      11 batches and       34 microbatches, Max-NSigAt=      12 Max-NSgAt2=      12
 IPart= 26         5195 of         5366 points in       8 batches and       25 microbatches, Max-NSigAt=      12 Max-NSgAt2=      12
 IPart= 14         6165 of         6874 points in      11 batches and       29 microbatches, Max-NSigAt=      12 Max-NSgAt2=      12
 IPart= 16        10697 of        12682 points in      19 batches and       76 microbatches, Max-NSigAt=      12 Max-NSgAt2=      12
 IPart= 23         9709 of        11594 points in      17 batches and       89 microbatches, Max-NSigAt=      12 Max-NSgAt2=      12
 IPart= 11        13344 of        15820 points in      24 batches and       60 microbatches, Max-NSigAt=      12 Max-NSgAt2=      12
 IPart= 31         4879 of         5314 points in       8 batches and       43 microbatches, Max-NSigAt=      12 Max-NSgAt2=      12
 IPart= 25         6475 of         7466 points in      12 batches and       59 microbatches, Max-NSigAt=      12 Max-NSgAt2=      12
 IPart=  3         9513 of        10300 points in      15 batches and       51 microbatches, Max-NSigAt=      12 Max-NSgAt2=      12
 IPart= 18         6170 of         6760 points in      10 batches and       48 microbatches, Max-NSigAt=      12 Max-NSgAt2=      12
 IPart=  0         5380 of         6240 points in      10 batches and       43 microbatches, Max-NSigAt=      12 Max-NSgAt2=      12
 IPart=  7        10408 of        11204 points in      18 batches and       56 microbatches, Max-NSigAt=      12 Max-NSgAt2=      12
 IPart= 21         7726 of         8472 points in      14 batches and       57 microbatches, Max-NSigAt=      12 Max-NSgAt2=      12
 IPart= 24         9397 of        10538 points in      16 batches and       33 microbatches, Max-NSigAt=      12 Max-NSgAt2=      12
 IPart=  1         8740 of        10682 points in      17 batches and       67 microbatches, Max-NSigAt=      12 Max-NSgAt2=      12
 IPart= 12         8941 of         9682 points in      16 batches and       70 microbatches, Max-NSigAt=      12 Max-NSgAt2=      12
 IPart= 27         6502 of         6548 points in       9 batches and       21 microbatches, Max-NSigAt=      12 Max-NSgAt2=      12
 IPart=  8         7205 of         7752 points in      13 batches and       31 microbatches, Max-NSigAt=      12 Max-NSgAt2=      12
 IPart=  2         6535 of         7268 points in      11 batches and       46 microbatches, Max-NSigAt=      12 Max-NSgAt2=      12
 IPart= 17         6423 of         7460 points in      12 batches and       34 microbatches, Max-NSigAt=      12 Max-NSgAt2=      12
 IPart= 20         6927 of         7754 points in      12 batches and       45 microbatches, Max-NSigAt=      12 Max-NSgAt2=      12
 IPart= 13         7317 of         7766 points in      12 batches and       31 microbatches, Max-NSigAt=      12 Max-NSgAt2=      12
 IPart=  9        11156 of        14878 points in      23 batches and       56 microbatches, Max-NSigAt=      12 Max-NSgAt2=      12
 IPart=  5         5781 of         6574 points in      10 batches and       34 microbatches, Max-NSigAt=      12 Max-NSgAt2=      12
 IPart= 10         7536 of         8314 points in      12 batches and       56 microbatches, Max-NSigAt=      12 Max-NSgAt2=      12
 IPart= 19         5654 of         6574 points in      11 batches and       67 microbatches, Max-NSigAt=      12 Max-NSgAt2=      12
 IPart= 22         5781 of         6554 points in      10 batches and       38 microbatches, Max-NSigAt=      12 Max-NSgAt2=      12
 IPart=  4         5855 of         6614 points in      10 batches and       37 microbatches, Max-NSigAt=      12 Max-NSgAt2=      12
 Forces at end of L703
 I=    0 X=  -4.876943899980D-01 Y=   2.158330916942D-01 Z=  -9.420019692326D-02
 I=    1 X=   2.079032757015D-03 Y=   5.465977085038D-03 Z=   1.346279489712D-03
 I=    2 X=  -1.761901510942D-04 Y=  -4.915249267399D-04 Z=   5.788307258321D-04
 I=    3 X=   3.071119105682D-04 Y=  -1.418780424431D-04 Z=   1.012543487426D-04
 I=    4 X=  -8.048821529325D-04 Y=  -3.542778068972D-04 Z=  -1.176793411914D-04
 I=    5 X=  -8.932958669261D-05 Y=   2.230902428364D-04 Z=   2.115119871093D-04
 I=    6 X=  -1.747706768666D-03 Y=  -6.689676528396D-03 Z=  -4.391800184853D-03
 I=    7 X=  -1.254014096368D-04 Y=   9.408389877852D-04 Z=   1.348119248850D-03
 I=    8 X=  -1.072635441668D-05 Y=   8.477597070272D-04 Z=   3.732764256142D-04
 I=    9 X=   5.036475128848D-04 Y=   5.483821710968D-04 Z=   5.709612015705D-04
 I=   10 X=   2.233124653128D-04 Y=  -1.530362314058D-04 Z=  -1.324834295415D-04
 I=   11 X=   1.926881386949D-06 Y=  -6.476592513494D-05 Z=   1.476686780404D-04
 I=   12 X=  -1.607951037332D-04 Y=  -1.308887327527D-04 Z=  -3.593914986033D-05
 FrcOut:
 IF    =    61 IFX   =    97 IFXYZ =   133
 IFFX  =   169 IFFFX =   169 IFLen =    36
 IFFLen=     0 IFFFLn=     0 IEDerv=   169
 LEDerv=  1781 IFroze=  2356 ICStrt=146681
 -------------------------------------------------------------------
 Center     Atomic                   Forces (Hartrees/Bohr)
 Number     Number              X              Y              Z
 -------------------------------------------------------------------
      1        6          -0.002079033   -0.005465977   -0.001346279
      2        8           0.000176190    0.000491525   -0.000578831
      3        1          -0.000307112    0.000141878   -0.000101254
      4        1           0.000804882    0.000354278    0.000117679
      5        1           0.000089330   -0.000223090   -0.000211512
      6        6           0.001747707    0.006689677    0.004391800
      7        6           0.000125401   -0.000940839   -0.001348119
      8        1           0.000010726   -0.000847760   -0.000373276
      9        1          -0.000503648   -0.000548382   -0.000570961
     10        1          -0.000223312    0.000153036    0.000132483
     11        1          -0.000001927    0.000064766   -0.000147669
     12        1           0.000160795    0.000130889    0.000035939
 -------------------------------------------------------------------
 Cartesian Forces:  Max     0.006689677 RMS     0.001742810
 From PutF, contents of force:
   1   -0.2765917779D-04
   2   -0.4484847020D-04
   3    0.3367730411D-04
   4   -0.5527518891D-03
   5    0.9868843327D-04
   6    0.3563742074D-03
   7   -0.2935462286D-03
   8    0.1195183779D-02
   9    0.3654140655D-03
  10    0.1129499148D-02
  11   -0.1982992257D-03
  12   -0.4583980114D-03
  13   -0.1771660888D-03
  14    0.3207746279D-04
  15    0.1263641989D-04
  16   -0.2951407734D-03
  17    0.4850183501D-04
  18   -0.2887270183D-03
  19    0.2838266056D-03
  20    0.1132586368D-03
  21   -0.1433589547D-02
  22    0.1530257923D-03
  23    0.3881353097D-03
  24    0.1590755560D-03
  25    0.4425862063D-03
  26   -0.1732638243D-03
  27   -0.5563302770D-03
  28   -0.2394982266D-03
  29   -0.7903427129D-03
  30   -0.5321491355D-02
 -----------------------------------------------------------------------------------------------
                       Internal Coordinate Forces (Hartree/Bohr or radian)
  Cent   Atom   N1       Length/X         N2         Alpha/Y        N3         Beta/Z          J
 -----------------------------------------------------------------------------------------------
      1  C 
      2  O        1  -0.000790(     1)
      3  H        1  -0.000239(     2)      2   0.000443(    12)
      4  H        1  -0.000556(     3)      2   0.000356(    13)      3   0.001195(    22)     0
      5  H        2  -0.000173(     4)      1  -0.000294(    14)      3   0.000365(    23)     0
      6  C        1  -0.005321(     5)      2   0.000099(    15)      3  -0.000553(    24)     0
      7  C        6   0.001129(     6)      1   0.000034(    16)      2  -0.000045(    25)     0
      8  H        6  -0.000198(     7)      7  -0.000295(    17)      1  -0.000028(    26)     0
      9  H        6  -0.000458(     8)      7   0.000049(    18)      8  -0.001434(    27)     0
     10  H        7  -0.000177(     9)      6  -0.000289(    19)      8   0.000159(    28)     0
     11  H        7   0.000032(    10)      6   0.000284(    20)     10   0.000153(    29)     0
     12  H        7   0.000013(    11)      6   0.000113(    21)     10   0.000388(    30)     0
 -----------------------------------------------------------------------------------------------
 Internal  Forces:  Max     0.005321491 RMS     0.001091002
 Final forces over variables, Energy=-1.94235112D+02:
 -2.76591778D-05-4.48484702D-05 3.36773041D-05-5.52751889D-04
  9.86884333D-05 3.56374207D-04-2.93546229D-04 1.19518378D-03
  3.65414066D-04 1.12949915D-03-1.98299226D-04-4.58398011D-04
 -1.77166089D-04 3.20774628D-05 1.26364199D-05-2.95140773D-04
  4.85018350D-05-2.88727018D-04 2.83826606D-04 1.13258637D-04
 -1.43358955D-03 1.53025792D-04 3.88135310D-04 1.59075556D-04
  4.42586206D-04-1.73263824D-04-5.56330277D-04-2.39498227D-04
 -7.90342713D-04-5.32149135D-03

 GradGradGradGradGradGradGradGradGradGradGradGradGradGradGradGradGradGrad
 Berny optimization.
 Search for a local minimum.
 Step number   6 out of a maximum of   50
 All quantities printed in internal units (Hartrees-Bohrs-Radians)
 Update second derivatives using D2CorN and points    2    5    6
 DE= -7.24D-06 DEPred=-6.70D-06 R= 1.08D+00
 TightC=F SS=  1.41D+00  RLast= 3.76D-02 DXNew= 5.0454D-01 1.1275D-01
 Trust test= 1.08D+00 RLast= 3.76D-02 DXMaxT set to 3.00D-01
 ITU=  1  1  1  1  1  0
     Eigenvalues ---    0.00928   0.10740   0.331331000.000001000.00000
     Eigenvalues --- 1000.000001000.000001000.000001000.000001000.00000
     Eigenvalues --- 1000.000001000.000001000.000001000.000001000.00000
     Eigenvalues --- 1000.000001000.000001000.000001000.000001000.00000
     Eigenvalues --- 1000.000001000.000001000.000001000.000001000.00000
     Eigenvalues --- 1000.000001000.000001000.000001000.000001000.00000
 RFO step:  Lambda=-2.99707943D-08 EMin= 9.28237690D-03
 Quartic linear search produced a step of -0.00157.
 Variable       Old X    -DE/DX   Delta X   Delta X   Delta X     New X
                                 (Linear)    (Quad)   (Total)
  BABS3       1.68613  -0.00003   0.00005   0.00021   0.00026   1.68639
  BABS2       3.54928  -0.00004  -0.00002  -0.00065  -0.00067   3.54862
  AABS2       1.71256   0.00003   0.00002   0.00021   0.00022   1.71279
  BABS1       1.82238  -0.00055   0.00000   0.00000   0.00000   1.82238
  AABS1       1.98419   0.00010   0.00000   0.00000   0.00000   1.98419
    A3        2.07773   0.00036   0.00000   0.00000   0.00000   2.07773
    A4        1.91774  -0.00029   0.00000   0.00000   0.00000   1.91774
    D3        3.59107   0.00120   0.00000   0.00000   0.00000   3.59107
    D4        3.05743   0.00037   0.00000   0.00000   0.00000   3.05743
   R21        2.80039   0.00113   0.00000   0.00000   0.00000   2.80039
   R22        2.04166  -0.00020   0.00000   0.00000   0.00000   2.04166
   R23        2.04147  -0.00046   0.00000   0.00000   0.00000   2.04147
   R24        2.06150  -0.00018   0.00000   0.00000   0.00000   2.06150
   R25        2.07624   0.00003   0.00000   0.00000   0.00000   2.07624
   R26        2.06169   0.00001   0.00000   0.00000   0.00000   2.06169
   A22        2.10998  -0.00030   0.00000   0.00000   0.00000   2.10998
   A23        2.11001   0.00005   0.00000   0.00000   0.00000   2.11001
   A24        1.95093  -0.00029   0.00000   0.00000   0.00000   1.95093
   A25        1.94864   0.00028   0.00000   0.00000   0.00000   1.94864
   A26        1.95094   0.00011   0.00000   0.00000   0.00000   1.95094
   D23        3.00207  -0.00143   0.00000   0.00000   0.00000   3.00207
   D25        2.08059   0.00015   0.00000   0.00000   0.00000   2.08059
   D26        4.16079   0.00039   0.00000   0.00000   0.00000   4.16079
   D24        2.70779   0.00016   0.00000   0.00000   0.00000   2.70779
    A2        1.98912   0.00044   0.00000   0.00000   0.00000   1.98912
    R4        1.80903  -0.00017   0.00000   0.00000   0.00000   1.80903
    R3        2.04412  -0.00056   0.00000   0.00000   0.00000   2.04412
    R2        2.03694  -0.00024   0.00000   0.00000   0.00000   2.03694
    R1        2.56549  -0.00079   0.00000   0.00000   0.00000   2.56549
   RTS        6.04712  -0.00532   0.00000   0.00000   0.00000   6.04712
         Item               Value     Threshold  Converged?
 Maximum Force            0.000045     0.000450     YES
 RMS     Force            0.000036     0.000300     YES
 Maximum Displacement     0.000667     0.001800     YES
 RMS     Displacement     0.000137     0.001200     YES
 Predicted change in Energy=-1.517689D-08
 Optimization completed.
    -- Stationary point found.
                       ----------------------------
                       !   Optimized Parameters   !
                       ! (Angstroms and Degrees)  !
 ----------------------                            ----------------------
 !      Name          Value   Derivative information (Atomic Units)     !
 ------------------------------------------------------------------------
 !      BABS3       96.6079   -DE/DX =    0.0                           !
 !      BABS2      203.3589   -DE/DX =    0.0                           !
 !      AABS2       98.1227   -DE/DX =    0.0                           !
 !      BABS1      104.4145   -DE/DX =   -0.0006                        !
 !      AABS1      113.6859   -DE/DX =    0.0001                        !
 !       A3        119.0449   -DE/DX =    0.0004                        !
 !       A4        109.8782   -DE/DX =   -0.0003                        !
 !       D3        205.7529   -DE/DX =    0.0012                        !
 !       D4        175.1781   -DE/DX =    0.0004                        !
 !       R21         1.4819   -DE/DX =    0.0011                        !
 !       R22         1.0804   -DE/DX =   -0.0002                        !
 !       R23         1.0803   -DE/DX =   -0.0005                        !
 !       R24         1.0909   -DE/DX =   -0.0002                        !
 !       R25         1.0987   -DE/DX =    0.0                           !
 !       R26         1.091    -DE/DX =    0.0                           !
 !       A22       120.8932   -DE/DX =   -0.0003                        !
 !       A23       120.8944   -DE/DX =    0.0                           !
 !       A24       111.7803   -DE/DX =   -0.0003                        !
 !       A25       111.6488   -DE/DX =    0.0003                        !
 !       A26       111.7809   -DE/DX =    0.0001                        !
 !       D23       172.0059   -DE/DX =   -0.0014                        !
 !       D25       119.209    -DE/DX =    0.0002                        !
 !       D26       238.3959   -DE/DX =    0.0004                        !
 !       D24       155.1449   -DE/DX =    0.0002                        !
 !       A2        113.968    -DE/DX =    0.0004                        !
 !       R4          0.9573   -DE/DX =   -0.0002                        !
 !       R3          1.0817   -DE/DX =   -0.0006                        !
 !       R2          1.0779   -DE/DX =   -0.0002                        !
 !       R1          1.3576   -DE/DX =   -0.0008                        !
 !       RTS         3.2      -DE/DX =   -0.0053                        !
 ------------------------------------------------------------------------
 GradGradGradGradGradGradGradGradGradGradGradGradGradGradGradGradGradGrad

 ---------------------------------------------------------------------------------------------------
                            Z-MATRIX (ANGSTROMS AND DEGREES)
   CD    Cent   Atom    N1       Length/X        N2       Alpha/Y        N3        Beta/Z          J
 ---------------------------------------------------------------------------------------------------
      1      1  C 
      2      2  O        1   1.357600(     1)
      3      3  H        1   1.077900(     2)      2  113.968(    12)
      4      4  H        1   1.081700(     3)      2  119.045(    13)      3  205.753(    22)      0
      5      5  H        2   0.957300(     4)      1  109.878(    14)      3  175.178(    23)      0
      6      6  C        1   3.200000(     5)      2  113.686(    15)      3  104.415(    24)      0
      7      7  C        6   1.481900(     6)      1   98.123(    16)      2  203.359(    25)      0
      8      8  H        6   1.080400(     7)      7  120.893(    17)      1   96.608(    26)      0
      9      9  H        6   1.080300(     8)      7  120.894(    18)      8  172.006(    27)      0
     10     10  H        7   1.090900(     9)      6  111.780(    19)      8  155.145(    28)      0
     11     11  H        7   1.098700(    10)      6  111.649(    20)     10  119.209(    29)      0
     12     12  H        7   1.091000(    11)      6  111.781(    21)     10  238.396(    30)      0
 ---------------------------------------------------------------------------------------------------
                         Z-Matrix orientation:                         
 ---------------------------------------------------------------------
 Center     Atomic      Atomic             Coordinates (Angstroms)
 Number     Number       Type             X           Y           Z
 ---------------------------------------------------------------------
      1          6           0        0.000000    0.000000    0.000000
      2          8           0        0.000000    0.000000    1.357600
      3          1           0        0.984955    0.000000   -0.437871
      4          1           0       -0.851738    0.410883   -0.525160
      5          1           0       -0.897076    0.075675    1.683103
      6          6           0       -0.729488   -2.838187   -1.285512
      7          6           0       -0.079184   -2.644687   -2.602967
      8          1           0       -1.786512   -2.655652   -1.156496
      9          1           0       -0.192207   -3.285882   -0.462137
     10          1           0        0.987351   -2.439033   -2.501614
     11          1           0       -0.166080   -3.540360   -3.233332
     12          1           0       -0.534406   -1.826396   -3.162837
 ---------------------------------------------------------------------
                    Distance matrix (angstroms):
                    1          2          3          4          5
     1  C    0.000000
     2  O    1.357600   0.000000
     3  H    1.077900   2.047890   0.000000
     4  H    1.081700   2.106909   1.884114   0.000000
     5  H    1.908745   0.957300   2.836600   2.234020   0.000000
     6  C    3.200000   3.946327   3.422443   3.339092   4.163094
     7  C    3.711614   4.763059   3.579721   3.775001   5.141956
     8  H    3.403175   4.069987   3.905117   3.267419   4.039129
     9  H    3.323784   3.761038   3.490462   3.755666   4.049563
    10  H    3.630678   4.670897   3.194984   3.925639   5.233228
    11  H    4.797517   5.799861   4.655495   4.839075   6.146658
    12  H    3.691185   4.904657   3.615193   3.473249   5.218480
                    6          7          8          9         10
     6  C    0.000000
     7  C    1.481900   0.000000
     8  H    1.080400   2.237716   0.000000
     9  H    1.080300   2.237646   1.849631   0.000000
    10  H    2.141441   1.090900   3.090402   2.503593   0.000000
    11  H    2.145806   1.098700   2.778805   2.782978   1.754633
    12  H    2.141525   1.091000   2.506160   3.088848   1.768695
                   11         12
    11  H    0.000000
    12  H    1.754510   0.000000
 Symmetry turned off by external request.
 Stoichiometry    C3H8O
 Framework group  C1[X(C3H8O)]
 Deg. of freedom    30
 Full point group                 C1      NOp   1
 Rotational constants (GHZ):     16.8314072      2.0524150      1.9202920

 **********************************************************************

            Population analysis using the SCF density.

 **********************************************************************

 Alpha  occ. eigenvalues --  -19.28596 -10.32196 -10.28473 -10.27509  -1.15540
 Alpha  occ. eigenvalues --   -0.85301  -0.74511  -0.69878  -0.61282  -0.53667
 Alpha  occ. eigenvalues --   -0.53370  -0.49587  -0.47307  -0.45390  -0.43555
 Alpha  occ. eigenvalues --   -0.43487  -0.27403
 Alpha virt. eigenvalues --    0.04417   0.05205   0.06139   0.07364   0.07661
 Alpha virt. eigenvalues --    0.08916   0.10155   0.10963   0.11101   0.12757
 Alpha virt. eigenvalues --    0.13624   0.15396   0.17233   0.17616   0.18944
 Alpha virt. eigenvalues --    0.20586   0.21792   0.23736   0.24761   0.25470
 Alpha virt. eigenvalues --    0.26478   0.27060   0.28323   0.29008   0.29154
 Alpha virt. eigenvalues --    0.30007   0.31261   0.31624   0.31703   0.33272
 Alpha virt. eigenvalues --    0.33926   0.34621   0.37026   0.37661   0.38822
 Alpha virt. eigenvalues --    0.39741   0.41588   0.44342   0.46098   0.47514
 Alpha virt. eigenvalues --    0.47760   0.51125   0.54093   0.55055   0.56955
 Alpha virt. eigenvalues --    0.59221   0.60112   0.61340   0.62844   0.63967
 Alpha virt. eigenvalues --    0.65139   0.65602   0.67159   0.67442   0.68718
 Alpha virt. eigenvalues --    0.71423   0.72404   0.73558   0.75807   0.76277
 Alpha virt. eigenvalues --    0.77093   0.80485   0.81454   0.85085   0.86419
 Alpha virt. eigenvalues --    0.88695   0.89865   0.91738   0.92852   0.94527
 Alpha virt. eigenvalues --    0.97229   0.98996   0.99611   1.00775   1.03434
 Alpha virt. eigenvalues --    1.05111   1.09861   1.13948   1.16229   1.16729
 Alpha virt. eigenvalues --    1.16942   1.18291   1.19665   1.20370   1.24600
 Alpha virt. eigenvalues --    1.26617   1.27818   1.30782   1.31754   1.35526
 Alpha virt. eigenvalues --    1.36118   1.38728   1.41071   1.41339   1.43275
 Alpha virt. eigenvalues --    1.44103   1.45105   1.48778   1.51815   1.52588
 Alpha virt. eigenvalues --    1.52954   1.58598   1.60404   1.61228   1.64327
 Alpha virt. eigenvalues --    1.68960   1.71974   1.75199   1.82454   1.88932
 Alpha virt. eigenvalues --    1.99199   2.09125   2.11800   2.26399   2.35377
 Alpha virt. eigenvalues --    2.39206   2.42037   2.46691   2.51012   2.52394
 Alpha virt. eigenvalues --    2.58188   2.59969   2.61560   2.64298   2.67785
 Alpha virt. eigenvalues --    2.68562   2.74933   2.77256   2.80143   2.83139
 Alpha virt. eigenvalues --    2.89558   2.90973   2.92155   2.94032   2.95644
 Alpha virt. eigenvalues --    2.97823   3.00530   3.02135   3.03592   3.04524
 Alpha virt. eigenvalues --    3.07480   3.10915   3.12304   3.12978   3.13841
 Alpha virt. eigenvalues --    3.14083   3.16119   3.18570   3.19533   3.22597
 Alpha virt. eigenvalues --    3.23609   3.25029   3.25766   3.26729   3.33793
 Alpha virt. eigenvalues --    3.37926   3.40526   3.43323   3.44803   3.45543
 Alpha virt. eigenvalues --    3.50250   3.52045   3.52247   3.54503   3.54805
 Alpha virt. eigenvalues --    3.56447   3.57257   3.58300   3.61414   3.70372
 Alpha virt. eigenvalues --    3.73520   3.76470   3.80069   3.85363   3.86613
 Alpha virt. eigenvalues --    3.89974   3.93309   3.94980   3.96987   3.97340
 Alpha virt. eigenvalues --    4.00128   4.01953   4.02485   4.03057   4.07592
 Alpha virt. eigenvalues --    4.08602   4.09533   4.10697   4.12723   4.15449
 Alpha virt. eigenvalues --    4.17062   4.19410   4.22294   4.27668   4.31601
 Alpha virt. eigenvalues --    4.33820   4.35084   4.35614   4.36799   4.39466
 Alpha virt. eigenvalues --    4.42627   4.46678   4.59474   4.62920   4.74717
 Alpha virt. eigenvalues --    4.75640   4.81317   4.84928   4.88623   4.88795
 Alpha virt. eigenvalues --    4.92397   4.94700   4.96870   5.01253   5.01772
 Alpha virt. eigenvalues --    5.03609   5.07149   5.16072   5.18427   5.22060
 Alpha virt. eigenvalues --    5.27940   5.29554   5.35446   5.41037   5.43710
 Alpha virt. eigenvalues --    5.47437   5.49218   5.49453   5.64736   5.70373
 Alpha virt. eigenvalues --    5.71459   5.79763   5.89627   6.02228   6.05903
 Alpha virt. eigenvalues --    6.16885   6.17379   6.25417   6.56918   6.66227
 Alpha virt. eigenvalues --    6.74668   6.83349   6.92660   6.95425   7.17437
 Alpha virt. eigenvalues --    7.35166   7.63254  12.54528  12.85654  12.97948
 Alpha virt. eigenvalues --   13.67302
  Beta  occ. eigenvalues --  -19.29022 -10.33210 -10.27582 -10.27409  -1.16749
  Beta  occ. eigenvalues --   -0.83548  -0.77275  -0.67270  -0.62450  -0.54516
  Beta  occ. eigenvalues --   -0.52799  -0.49429  -0.47942  -0.46326  -0.44559
  Beta  occ. eigenvalues --   -0.43026  -0.25611
  Beta virt. eigenvalues --    0.03048   0.05257   0.06094   0.07576   0.07627
  Beta virt. eigenvalues --    0.08674   0.10065   0.10689   0.11402   0.12000
  Beta virt. eigenvalues --    0.14776   0.15372   0.17304   0.17639   0.18941
  Beta virt. eigenvalues --    0.20562   0.21345   0.23436   0.24798   0.25053
  Beta virt. eigenvalues --    0.26613   0.26850   0.28126   0.29031   0.29250
  Beta virt. eigenvalues --    0.30150   0.31402   0.31570   0.31899   0.33230
  Beta virt. eigenvalues --    0.33936   0.34633   0.37006   0.37951   0.38690
  Beta virt. eigenvalues --    0.40058   0.41918   0.43805   0.46370   0.47588
  Beta virt. eigenvalues --    0.47727   0.50961   0.54026   0.55130   0.56480
  Beta virt. eigenvalues --    0.59070   0.60080   0.61434   0.62407   0.63958
  Beta virt. eigenvalues --    0.64875   0.65956   0.67145   0.67557   0.69104
  Beta virt. eigenvalues --    0.71461   0.72445   0.73773   0.76024   0.76427
  Beta virt. eigenvalues --    0.77132   0.80735   0.81064   0.85217   0.86911
  Beta virt. eigenvalues --    0.88364   0.89698   0.91758   0.92410   0.95744
  Beta virt. eigenvalues --    0.97448   0.99179   1.00071   1.00874   1.03086
  Beta virt. eigenvalues --    1.04820   1.09156   1.13466   1.16235   1.16828
  Beta virt. eigenvalues --    1.17134   1.19279   1.19421   1.20804   1.24516
  Beta virt. eigenvalues --    1.26548   1.27476   1.30614   1.31606   1.35703
  Beta virt. eigenvalues --    1.36352   1.38998   1.40855   1.41371   1.43503
  Beta virt. eigenvalues --    1.44161   1.45309   1.49121   1.51704   1.52325
  Beta virt. eigenvalues --    1.52889   1.58445   1.60819   1.61236   1.64808
  Beta virt. eigenvalues --    1.69463   1.71334   1.75418   1.83158   1.88483
  Beta virt. eigenvalues --    1.98427   2.07931   2.11282   2.25921   2.31829
  Beta virt. eigenvalues --    2.37795   2.45430   2.47289   2.51694   2.53473
  Beta virt. eigenvalues --    2.57501   2.59946   2.64883   2.65871   2.66720
  Beta virt. eigenvalues --    2.67856   2.74868   2.78003   2.80942   2.83722
  Beta virt. eigenvalues --    2.88630   2.89488   2.91762   2.95609   2.96036
  Beta virt. eigenvalues --    2.96912   3.00818   3.04356   3.04953   3.05733
  Beta virt. eigenvalues --    3.07990   3.10113   3.10881   3.11081   3.13325
  Beta virt. eigenvalues --    3.14219   3.15297   3.17362   3.19963   3.23632
  Beta virt. eigenvalues --    3.24480   3.25240   3.26257   3.26851   3.33277
  Beta virt. eigenvalues --    3.36713   3.40711   3.43678   3.44250   3.44900
  Beta virt. eigenvalues --    3.49634   3.52262   3.52703   3.53877   3.55704
  Beta virt. eigenvalues --    3.56771   3.57934   3.58461   3.61680   3.71086
  Beta virt. eigenvalues --    3.72352   3.77406   3.79656   3.84799   3.86666
  Beta virt. eigenvalues --    3.90183   3.93755   3.95119   3.96877   3.97259
  Beta virt. eigenvalues --    4.00579   4.01684   4.02314   4.03059   4.07499
  Beta virt. eigenvalues --    4.08913   4.09582   4.10940   4.12655   4.16093
  Beta virt. eigenvalues --    4.17516   4.19610   4.22665   4.27739   4.31858
  Beta virt. eigenvalues --    4.33896   4.35172   4.35955   4.36777   4.39667
  Beta virt. eigenvalues --    4.41382   4.47115   4.59740   4.64139   4.74182
  Beta virt. eigenvalues --    4.76257   4.80408   4.86359   4.87689   4.89327
  Beta virt. eigenvalues --    4.92823   4.95622   4.96613   5.00984   5.02146
  Beta virt. eigenvalues --    5.03623   5.06313   5.16334   5.17904   5.22545
  Beta virt. eigenvalues --    5.27784   5.29469   5.35970   5.41800   5.42957
  Beta virt. eigenvalues --    5.46687   5.49451   5.49645   5.65301   5.69532
  Beta virt. eigenvalues --    5.72100   5.80117   5.89074   6.00798   6.06511
  Beta virt. eigenvalues --    6.17131   6.17571   6.24573   6.55925   6.64981
  Beta virt. eigenvalues --    6.73543   6.82845   6.91885   6.94077   7.16790
  Beta virt. eigenvalues --    7.34685   7.62753  12.55362  12.84369  12.97782
  Beta virt. eigenvalues --   13.67488
          Condensed to atoms (all electrons):
               1          2          3          4          5          6
     1  C    5.241397   0.137518   0.419793   0.416802   0.012030   0.055899
     2  O    0.137518   7.960886  -0.048241  -0.024309   0.212272  -0.006643
     3  H    0.419793  -0.048241   0.491803  -0.024425   0.006581  -0.005276
     4  H    0.416802  -0.024309  -0.024425   0.481871  -0.014554  -0.005486
     5  H    0.012030   0.212272   0.006581  -0.014554   0.614554  -0.001448
     6  C    0.055899  -0.006643  -0.005276  -0.005486  -0.001448   5.465161
     7  C   -0.026782   0.001742   0.002724   0.001896   0.000566   0.258956
     8  H   -0.003465   0.000623   0.000226  -0.000241   0.000116   0.420443
     9  H   -0.003367  -0.000193   0.000062   0.000193   0.000128   0.424892
    10  H   -0.002404   0.000180  -0.000172   0.000087  -0.000004  -0.031162
    11  H    0.002347  -0.000088  -0.000038  -0.000044  -0.000002  -0.040246
    12  H   -0.001505  -0.000024   0.000017   0.000008   0.000004  -0.027020
               7          8          9         10         11         12
     1  C   -0.026782  -0.003465  -0.003367  -0.002404   0.002347  -0.001505
     2  O    0.001742   0.000623  -0.000193   0.000180  -0.000088  -0.000024
     3  H    0.002724   0.000226   0.000062  -0.000172  -0.000038   0.000017
     4  H    0.001896  -0.000241   0.000193   0.000087  -0.000044   0.000008
     5  H    0.000566   0.000116   0.000128  -0.000004  -0.000002   0.000004
     6  C    0.258956   0.420443   0.424892  -0.031162  -0.040246  -0.027020
     7  C    4.970388  -0.024384  -0.025257   0.413440   0.391636   0.409206
     8  H   -0.024384   0.457181  -0.025874   0.003482  -0.001994  -0.006033
     9  H   -0.025257  -0.025874   0.448772  -0.005846  -0.001461   0.003173
    10  H    0.413440   0.003482  -0.005846   0.494561  -0.016625  -0.018966
    11  H    0.391636  -0.001994  -0.001461  -0.016625   0.501758  -0.015114
    12  H    0.409206  -0.006033   0.003173  -0.018966  -0.015114   0.494978
          Atomic-Atomic Spin Densities.
               1          2          3          4          5          6
     1  C   -1.010876   0.155936  -0.002979  -0.002458   0.004970  -0.017457
     2  O    0.155936  -0.265888  -0.001766   0.000450  -0.004008   0.001367
     3  H   -0.002979  -0.001766   0.024523  -0.006486   0.000326  -0.001211
     4  H   -0.002458   0.000450  -0.006486   0.025182  -0.001521  -0.002992
     5  H    0.004970  -0.004008   0.000326  -0.001521   0.005342  -0.000322
     6  C   -0.017457   0.001367  -0.001211  -0.002992  -0.000322   1.018913
     7  C    0.016755  -0.002183  -0.000540  -0.000293  -0.000106  -0.048118
     8  H    0.003941  -0.000571  -0.000031  -0.000090  -0.000028   0.007845
     9  H    0.003416  -0.000721  -0.000078  -0.000051  -0.000022   0.007790
    10  H   -0.000325   0.000047   0.000087   0.000073   0.000002  -0.006529
    11  H    0.000086   0.000007  -0.000013  -0.000022  -0.000000  -0.033194
    12  H   -0.001190   0.000060   0.000094   0.000125   0.000004  -0.006731
               7          8          9         10         11         12
     1  C    0.016755   0.003941   0.003416  -0.000325   0.000086  -0.001190
     2  O   -0.002183  -0.000571  -0.000721   0.000047   0.000007   0.000060
     3  H   -0.000540  -0.000031  -0.000078   0.000087  -0.000013   0.000094
     4  H   -0.000293  -0.000090  -0.000051   0.000073  -0.000022   0.000125
     5  H   -0.000106  -0.000028  -0.000022   0.000002  -0.000000   0.000004
     6  C   -0.048118   0.007845   0.007790  -0.006529  -0.033194  -0.006731
     7  C   -0.038508   0.002356   0.002496   0.007167   0.023457   0.008557
     8  H    0.002356  -0.034490   0.005387  -0.000057  -0.000622   0.000824
     9  H    0.002496   0.005387  -0.033927   0.000582  -0.000351  -0.000077
    10  H    0.007167  -0.000057   0.000582   0.016805  -0.007151   0.001320
    11  H    0.023457  -0.000622  -0.000351  -0.007151   0.080029  -0.006568
    12  H    0.008557   0.000824  -0.000077   0.001320  -0.006568   0.015556
 Mulliken charges and spin densities:
               1          2
     1  C   -0.248262  -0.850179
     2  O   -0.233722  -0.117269
     3  H    0.156949   0.011926
     4  H    0.168201   0.011917
     5  H    0.169759   0.004638
     6  C   -0.508071   0.919362
     7  C   -0.374130  -0.028961
     8  H    0.179921  -0.015535
     9  H    0.184778  -0.015556
    10  H    0.163430   0.012023
    11  H    0.179870   0.055658
    12  H    0.161276   0.011975
 Sum of Mulliken charges =  -0.00000   0.00000
 Mulliken charges and spin densities with hydrogens summed into heavy atoms:
               1          2
     1  C    0.076888  -0.826336
     2  O   -0.063963  -0.112631
     6  C   -0.143372   0.888272
     7  C    0.130446   0.050695
 Electronic spatial extent (au):  <R**2>=            906.8803
 Charge=             -0.0000 electrons
 Dipole moment (field-independent basis, Debye):
    X=             -1.2396    Y=              0.5486    Z=             -0.2394  Tot=              1.3765
 Quadrupole moment (field-independent basis, Debye-Ang):
   XX=            -24.5171   YY=            -29.3708   ZZ=            -26.2490
   XY=             -1.3691   XZ=             -3.0204   YZ=              0.0937
 Traceless Quadrupole moment (field-independent basis, Debye-Ang):
   XX=              2.1952   YY=             -2.6585   ZZ=              0.4633
   XY=             -1.3691   XZ=             -3.0204   YZ=              0.0937
 Octapole moment (field-independent basis, Debye-Ang**2):
  XXX=             16.2228  YYY=            123.3144  ZZZ=             63.3299  XYY=              9.6901
  XXY=             39.5635  XXZ=             22.8210  XZZ=              0.0209  YZZ=             38.4397
  YYZ=             21.6377  XYZ=              0.5988
 Hexadecapole moment (field-independent basis, Debye-Ang**3):
 XXXX=            -68.7483 YYYY=           -726.4213 ZZZZ=           -489.5904 XXXY=            -46.6120
 XXXZ=            -23.6788 YYYX=            -63.9187 YYYZ=           -235.7472 ZZZX=            -27.4496
 ZZZY=           -225.6977 XXYY=           -131.6596 XXZZ=            -90.2710 YYZZ=           -194.4585
 XXYZ=            -77.1659 YYXZ=            -10.3217 ZZXY=            -16.4721
 N-N= 1.112687307714D+02 E-N=-6.753820952037D+02  KE= 1.929561407162D+02
                          Isotropic Fermi Contact Couplings
        Atom                 a.u.       MegaHertz       Gauss      10(-4) cm-1
     1  C(13)             -0.06055     -34.03440     -12.14432     -11.35265
     2  O(17)             -0.02112       6.40070       2.28393       2.13504
     3  H(1)               0.01061      23.70695       8.45923       7.90779
     4  H(1)               0.00957      21.37961       7.62878       7.13147
     5  H(1)               0.00218       4.86312       1.73528       1.62216
     6  C(13)              0.01732       9.73808       3.47479       3.24827
     7  C(13)             -0.02702     -15.18555      -5.41858      -5.06536
     8  H(1)              -0.01350     -30.17929     -10.76872     -10.06673
     9  H(1)              -0.01367     -30.55973     -10.90447     -10.19363
    10  H(1)               0.00707      15.80702       5.64034       5.27265
    11  H(1)               0.02934      65.57152      23.39755      21.87230
    12  H(1)               0.00735      16.42225       5.85987       5.47787
 --------------------------------------------------------
       Center         ----  Spin Dipole Couplings  ----
                      3XX-RR        3YY-RR        3ZZ-RR
 --------------------------------------------------------
     1   Atom        0.423657     -0.911074      0.487417
     2   Atom        0.359994     -0.774314      0.414320
     3   Atom       -0.046320      0.004404      0.041917
     4   Atom       -0.028589     -0.003860      0.032449
     5   Atom       -0.022630      0.014850      0.007780
     6   Atom       -0.442212      0.832575     -0.390363
     7   Atom       -0.007877      0.002054      0.005822
     8   Atom        0.067952     -0.006579     -0.061372
     9   Atom       -0.027280      0.007065      0.020215
    10   Atom        0.009422     -0.007510     -0.001912
    11   Atom       -0.006209     -0.005052      0.011260
    12   Atom       -0.004583     -0.003126      0.007709
 --------------------------------------------------------
                        XY            XZ            YZ
 --------------------------------------------------------
     1   Atom       -0.306222     -0.035106     -0.163349
     2   Atom       -0.201912     -0.012882     -0.149711
     3   Atom       -0.000861      0.047882     -0.006929
     4   Atom        0.016630     -0.053056      0.016440
     5   Atom        0.006392      0.028602     -0.004375
     6   Atom        0.347395      0.115480      0.444743
     7   Atom        0.005324     -0.008808      0.000726
     8   Atom       -0.013522     -0.012820      0.020666
     9   Atom       -0.014125      0.059647     -0.025520
    10   Atom        0.003790     -0.009632     -0.006686
    11   Atom       -0.000771     -0.006786      0.005126
    12   Atom        0.001030     -0.002331     -0.012878
 --------------------------------------------------------


 ---------------------------------------------------------------------------------
              Anisotropic Spin Dipole Couplings in Principal Axis System
 ---------------------------------------------------------------------------------

       Atom             a.u.   MegaHertz   Gauss  10(-4) cm-1        Axes

              Baa    -0.9968  -133.759   -47.728   -44.617  0.2121  0.9708  0.1119
     1 C(13)  Bbb     0.4905    65.826    23.488    21.957  0.9772 -0.2093 -0.0358
              Bcc     0.5062    67.933    24.240    22.660  0.0113 -0.1169  0.9931
 
              Baa    -0.8272    59.859    21.359    19.967  0.1677  0.9785  0.1197
     2 O(17)  Bbb     0.3910   -28.291   -10.095    -9.437  0.9483 -0.1270 -0.2908
              Bcc     0.4363   -31.568   -11.264   -10.530  0.2694 -0.1623  0.9493
 
              Baa    -0.0674   -35.943   -12.825   -11.989  0.9149 -0.0279 -0.4026
     3 H(1)   Bbb     0.0037     1.976     0.705     0.659  0.0706  0.9933  0.0916
              Bcc     0.0637    33.967    12.120    11.330  0.3974 -0.1123  0.9108
 
              Baa    -0.0674   -35.946   -12.827   -11.990  0.8073 -0.3368  0.4846
     4 H(1)   Bbb     0.0037     1.966     0.701     0.656  0.3381  0.9370  0.0881
              Bcc     0.0637    33.981    12.125    11.335 -0.4837  0.0927  0.8703
 
              Baa    -0.0409   -21.817    -7.785    -7.277  0.8485 -0.1374 -0.5110
     5 H(1)   Bbb     0.0159     8.483     3.027     2.830  0.1434  0.9893 -0.0279
              Bcc     0.0250    13.334     4.758     4.448  0.5094 -0.0495  0.8591
 
              Baa    -0.5361   -71.935   -25.668   -23.995 -0.4081 -0.1868  0.8936
     6 C(13)  Bbb    -0.5300   -71.120   -25.377   -23.723  0.8819 -0.3336  0.3331
              Bcc     1.0661   143.055    51.046    47.718  0.2359  0.9240  0.3009
 
              Baa    -0.0138    -1.857    -0.662    -0.619  0.8640 -0.3077  0.3985
     7 C(13)  Bbb     0.0033     0.445     0.159     0.148  0.1728  0.9246  0.3394
              Bcc     0.0105     1.412     0.504     0.471 -0.4729 -0.2244  0.8521
 
              Baa    -0.0688   -36.687   -13.091   -12.237  0.0592 -0.3032  0.9511
     8 H(1)   Bbb    -0.0036    -1.918    -0.684    -0.640  0.2268  0.9319  0.2830
              Bcc     0.0724    38.605    13.775    12.877  0.9721 -0.1990 -0.1239
 
              Baa    -0.0678   -36.193   -12.915   -12.073  0.8221 -0.0385 -0.5681
     9 H(1)   Bbb    -0.0056    -2.969    -1.059    -0.990  0.2574  0.9151  0.3104
              Bcc     0.0734    39.162    13.974    13.063  0.5079 -0.4014  0.7622
 
              Baa    -0.0123    -6.553    -2.338    -2.186  0.1451  0.7647  0.6279
    10 H(1)   Bbb    -0.0045    -2.399    -0.856    -0.800 -0.5630  0.5857 -0.5831
              Bcc     0.0168     8.952     3.194     2.986  0.8136  0.2689 -0.5155
 
              Baa    -0.0089    -4.729    -1.687    -1.577  0.8655 -0.3307  0.3761
    11 H(1)   Bbb    -0.0060    -3.217    -1.148    -1.073  0.3974  0.9105 -0.1140
              Bcc     0.0149     7.946     2.835     2.650 -0.3048  0.2481  0.9195
 
              Baa    -0.0117    -6.246    -2.229    -2.084  0.0625  0.8282  0.5569
    12 H(1)   Bbb    -0.0049    -2.590    -0.924    -0.864  0.9910 -0.1174  0.0635
              Bcc     0.0166     8.836     3.153     2.947 -0.1180 -0.5479  0.8282
 

 ---------------------------------------------------------------------------------


 Test job not archived.
 1\1\GINC-NODE-5-9\POpt\UwB97XD\Jun-CC-pVTZ\C3H8O1\ROOT\18-Jun-2024\1\\
 # uwb97xd/jun-cc-pvtz opt=(noeig,intern,maxcyc=50) # int=ultrafine nos
 ym iop(7/33=1) guess=(mix,always)\\geom 0\\0,1\C\O,1,R1\H,1,R2,2,A2\H,
 1,R3,2,A3,3,D3,0\H,2,R4,1,A4,3,D4,0\C,1,RTS,2,AABS1,3,BABS1,0\C,6,R21,
 1,AABS2,2,BABS2,0\H,6,R22,7,A22,1,BABS3,0\H,6,R23,7,A23,8,D23,0\H,7,R2
 4,6,A24,8,D24,0\H,7,R25,6,A25,10,D25,0\H,7,R26,6,A26,10,D26,0\\BABS3=9
 6.6079492\BABS2=203.35894249\AABS2=98.12270313\BABS1=104.4145\AABS1=11
 3.6859\A3=119.0449\A4=109.8782\D3=205.7529\D4=175.1781\R21=1.4819\R22=
 1.0804\R23=1.0803\R24=1.0909\R25=1.0987\R26=1.091\A22=120.8932\A23=120
 .8944\A24=111.7803\A25=111.6488\A26=111.7809\D23=172.0059\D25=119.209\
 D26=238.3959\D24=155.1449\A2=113.968\R4=0.9573\R3=1.0817\R2=1.0779\R1=
 1.3576\RTS=3.2\\Version=EM64L-G09RevD.01\HF=-194.2351122\S2=0.899435\S
 2-1=0.\S2A=0.050832\RMSD=6.592e-09\RMSF=1.743e-03\Dipole=-0.4876944,0.
 2158331,-0.0942002\Quadrupole=1.6320726,-1.9765523,0.3444797,-1.017920
 4,-2.245563,0.0696612\PG=C01 [X(C3H8O1)]\\@


 ERWIN WITH HIS PSI CAN DO
 CALCULATIONS QUITE A FEW.
 BUT ONE THING HAS NOT BEEN SEEN
 JUST WHAT DOES PSI REALLY MEAN.
 -- WALTER HUCKEL, TRANS. BY FELIX BLOCH
 Job cpu time:       0 days  1 hours 37 minutes 19.0 seconds.
 File lengths (MBytes):  RWF=    113 Int=      0 D2E=      0 Chk=     10 Scr=      1
 Normal termination of Gaussian 09 at Tue Jun 18 11:11:09 2024.
