 Entering Gaussian System, Link 0=g09
 Input=geom.com
 Output=geom.log
 Initial command:
 /software/cinetica/g09d1/g09d01/d01/build-node-6-2-59348/src/main/l1.exe "/scratch/mdt/206306/Gau-24625.inp" -scrdir="/scratch/mdt/206306/"
 Entering Link 1 = /software/cinetica/g09d1/g09d01/d01/build-node-6-2-59348/src/main/l1.exe PID=     24626.
  
 Copyright (c) 1988,1990,1992,1993,1995,1998,2003,2009,2013,
            Gaussian, Inc.  All Rights Reserved.
  
 This is part of the Gaussian(R) 09 program.  It is based on
 the Gaussian(R) 03 system (copyright 2003, Gaussian, Inc.),
 the Gaussian(R) 98 system (copyright 1998, Gaussian, Inc.),
 the Gaussian(R) 94 system (copyright 1995, Gaussian, Inc.),
 the Gaussian 92(TM) system (copyright 1992, Gaussian, Inc.),
 the Gaussian 90(TM) system (copyright 1990, Gaussian, Inc.),
 the Gaussian 88(TM) system (copyright 1988, Gaussian, Inc.),
 the Gaussian 86(TM) system (copyright 1986, Carnegie Mellon
 University), and the Gaussian 82(TM) system (copyright 1983,
 Carnegie Mellon University). Gaussian is a federally registered
 trademark of Gaussian, Inc.
  
 This software contains proprietary and confidential information,
 including trade secrets, belonging to Gaussian, Inc.
  
 This software is provided under written license and may be
 used, copied, transmitted, or stored only in accord with that
 written license.
  
 The following legend is applicable only to US Government
 contracts under FAR:
  
                    RESTRICTED RIGHTS LEGEND
  
 Use, reproduction and disclosure by the US Government is
 subject to restrictions as set forth in subparagraphs (a)
 and (c) of the Commercial Computer Software - Restricted
 Rights clause in FAR 52.227-19.
  
 Gaussian, Inc.
 340 Quinnipiac St., Bldg. 40, Wallingford CT 06492
  
  
 ---------------------------------------------------------------
 Warning -- This program may not be used in any manner that
 competes with the business of Gaussian, Inc. or will provide
 assistance to any competitor of Gaussian, Inc.  The licensee
 of this program is prohibited from giving any competitor of
 Gaussian, Inc. access to this program.  By using this program,
 the user acknowledges that Gaussian, Inc. is engaged in the
 business of creating and licensing software in the field of
 computational chemistry and represents and warrants to the
 licensee that it is not a competitor of Gaussian, Inc. and that
 it will not use this program in any manner prohibited above.
 ---------------------------------------------------------------
  

 Cite this work as:
 Gaussian 09, Revision D.01,
 M. J. Frisch, G. W. Trucks, H. B. Schlegel, G. E. Scuseria, 
 M. A. Robb, J. R. Cheeseman, G. Scalmani, V. Barone, B. Mennucci, 
 G. A. Petersson, H. Nakatsuji, M. Caricato, X. Li, H. P. Hratchian, 
 A. F. Izmaylov, J. Bloino, G. Zheng, J. L. Sonnenberg, M. Hada, 
 M. Ehara, K. Toyota, R. Fukuda, J. Hasegawa, M. Ishida, T. Nakajima, 
 Y. Honda, O. Kitao, H. Nakai, T. Vreven, J. A. Montgomery, Jr., 
 J. E. Peralta, F. Ogliaro, M. Bearpark, J. J. Heyd, E. Brothers, 
 K. N. Kudin, V. N. Staroverov, T. Keith, R. Kobayashi, J. Normand, 
 K. Raghavachari, A. Rendell, J. C. Burant, S. S. Iyengar, J. Tomasi, 
 M. Cossi, N. Rega, J. M. Millam, M. Klene, J. E. Knox, J. B. Cross, 
 V. Bakken, C. Adamo, J. Jaramillo, R. Gomperts, R. E. Stratmann, 
 O. Yazyev, A. J. Austin, R. Cammi, C. Pomelli, J. W. Ochterski, 
 R. L. Martin, K. Morokuma, V. G. Zakrzewski, G. A. Voth, 
 P. Salvador, J. J. Dannenberg, S. Dapprich, A. D. Daniels, 
 O. Farkas, J. B. Foresman, J. V. Ortiz, J. Cioslowski, 
 and D. J. Fox, Gaussian, Inc., Wallingford CT, 2013.
 
 ******************************************
 Gaussian 09:  EM64L-G09RevD.01 24-Apr-2013
                18-Jun-2024 
 ******************************************
 %mem=400MW
 %chk=tmp
 %NProcShared= 32
 Will use up to   32 processors via shared memory.
 ----------------------------------------------------------------------
 # uwb97xd/jun-cc-pvtz opt=(calcall,modredundant,maxcyc=20) # int=ultra
 fine nosym iop(7/33=1) guess(checkpoint) scf=qc
 ----------------------------------------------------------------------
 1/6=20,10=4,14=-1,18=120,19=15,26=4,38=1/1,3;
 2/9=110,12=2,15=1,17=6,18=5,40=1/2;
 3/5=16,6=1,7=60,11=2,16=1,25=1,30=1,71=2,74=-58,75=-5,116=2,140=1/1,2,3;
 4/5=1/1;
 5/5=2,8=3,38=6/8;
 8/6=4,10=90,11=11/1;
 11/6=1,8=1,9=11,15=111,16=1,31=1/1,2,10;
 10/6=1,31=1/2;
 6/7=2,8=2,9=2,10=2,18=1,28=1/1;
 7/10=1,25=1,30=1,33=1/1,2,3,16;
 1/6=20,10=4,14=-1,18=20,19=15,26=4/3(3);
 2/9=110,15=1/2;
 7/8=1,9=1,25=1,30=1,33=1,44=-1/16;
 99//99;
 2/9=110,15=1/2;
 3/5=16,6=1,7=60,11=2,16=1,25=1,30=1,71=2,74=-58,75=-5,116=2,140=1/1,2,3;
 4/5=5,16=3,69=1/1;
 5/5=2,8=3,38=5/8;
 8/6=4,10=90,11=11/1;
 11/6=1,8=1,9=11,15=111,16=1,31=1/1,2,10;
 10/6=1,31=1/2;
 7/10=1,25=1,30=1,33=1/1,2,3,16;
 1/6=20,10=4,14=-1,18=20,19=15,26=4/3(-8);
 2/9=110,15=1/2;
 6/7=2,8=2,9=2,10=2,18=1,19=2,28=1/1;
 7/8=1,9=1,25=1,30=1,33=1,44=-1/16;
 99//99;
 ------
 geom 0
 ------
 Symbolic Z-matrix:
 Charge =  0 Multiplicity = 1
 C1
 O2                   C1   R1
 H3                   C1   R2       O2   A2
 H4                   C1   R3       O2   A3       H3   D3       0
 H5                   O2   R4       C1   A4       H3   D4       0
 C21                  1    rts      2    aabs1    3    babs1    0
 C22                  C21  R21      1    aabs2    2    babs2    0
 H23                  C21  R22      C22  A22      1    babs3    0
 H24                  C21  R23      C22  A23      H23  D23      0
 H25                  C22  R24      C21  A24      H23  D24      0
 H26                  C22  R25      C21  A25      H25  D25      0
 H27                  C22  R26      C21  A26      H25  D26      0
       Variables:
  BABS3               108.07294                  
  BABS2               -57.07237                  
  AABS2                79.60645                  
  BABS1               104.41503                  
  AABS1               113.68556                  
  A3                  119.0449                   
  A4                  109.8782                   
  D3                  205.7529                   
  D4                  175.1781                   
  R21                   1.4819                   
  R22                   1.0804                   
  R23                   1.0803                   
  R24                   1.0909                   
  R25                   1.0987                   
  R26                   1.091                    
  A22                 120.8932                   
  A23                 120.8944                   
  A24                 111.7803                   
  A25                 111.6488                   
  A26                 111.7809                   
  D23                 172.0059                   
  D25                 119.209                    
  D26                 238.3959                   
  D24                 155.1449                   
  A2                  113.968                    
  R4                    0.9573                   
  R3                    1.0817                   
  R2                    1.0779                   
  R1                    1.3576                   
  RTS                   4.                       
 
 Add virtual bond connecting atoms H10        and C1         Dist= 6.66D+00.
 Add virtual bond connecting atoms H10        and H3         Dist= 6.93D+00.
 Add virtual bond connecting atoms H12        and H3         Dist= 6.94D+00.
 The following ModRedundant input section has been read:
 B       1       6 F                                                           
 B       1       2 F                                                           
 B       1       3 F                                                           
 B       1       4 F                                                           
 B       2       5 F                                                           
 A       2       1       3 F                                                   
 D       8       6       7      10 F                                           
 D      10       6       7      12 F                                           
 D      10       6       7      11 F                                           
 D       9       6       7       8 F                                           
 A       6       7      12 F                                                   
 A       6       7      11 F                                                   
 A       6       7      10 F                                                   
 A       7       6       9 F                                                   
 A       7       6       8 F                                                   
 B       7      12 F                                                           
 B       7      11 F                                                           
 B       7      10 F                                                           
 B       6       9 F                                                           
 B       6       8 F                                                           
 B       6       7 F                                                           
 D       3       1       2       5 F                                           
 D       4       1       2       3 F                                           
 A       1       2       5 F                                                   
 A       2       1       4 F                                                   
 A       2       1       6 F                                                   
 D       6       1       2       3 F                                           
 

 GradGradGradGradGradGradGradGradGradGradGradGradGradGradGradGradGradGrad
 Berny optimization.
 Initialization pass.
                           ----------------------------
                           !    Initial Parameters    !
                           ! (Angstroms and Degrees)  !
 --------------------------                            --------------------------
 ! Name  Definition              Value          Derivative Info.                !
 --------------------------------------------------------------------------------
 ! R1    R(1,2)                  1.3576         frozen, calculate D2E/DX2 analyt!
 ! R2    R(1,3)                  1.0779         frozen, calculate D2E/DX2 analyt!
 ! R3    R(1,4)                  1.0817         frozen, calculate D2E/DX2 analyt!
 ! R4    R(1,6)                  4.0            frozen, calculate D2E/DX2 analyt!
 ! R5    R(1,10)                 3.5262         calculate D2E/DX2 analytically  !
 ! R6    R(2,5)                  0.9573         frozen, calculate D2E/DX2 analyt!
 ! R7    R(3,10)                 3.6667         calculate D2E/DX2 analytically  !
 ! R8    R(3,12)                 3.6722         calculate D2E/DX2 analytically  !
 ! R9    R(6,7)                  1.4819         frozen, calculate D2E/DX2 analyt!
 ! R10   R(6,8)                  1.0804         frozen, calculate D2E/DX2 analyt!
 ! R11   R(6,9)                  1.0803         frozen, calculate D2E/DX2 analyt!
 ! R12   R(7,10)                 1.0909         frozen, calculate D2E/DX2 analyt!
 ! R13   R(7,11)                 1.0987         frozen, calculate D2E/DX2 analyt!
 ! R14   R(7,12)                 1.091          frozen, calculate D2E/DX2 analyt!
 ! A1    A(2,1,3)              113.968          frozen, calculate D2E/DX2 analyt!
 ! A2    A(2,1,4)              119.0449         frozen, calculate D2E/DX2 analyt!
 ! A3    A(2,1,6)              113.6856         frozen, calculate D2E/DX2 analyt!
 ! A4    A(2,1,10)              86.188          calculate D2E/DX2 analytically  !
 ! A5    A(3,1,4)              121.486          calculate D2E/DX2 analytically  !
 ! A6    A(4,1,10)             116.8197         calculate D2E/DX2 analytically  !
 ! A7    A(1,2,5)              109.8782         frozen, calculate D2E/DX2 analyt!
 ! A8    A(1,3,12)              97.9137         calculate D2E/DX2 analytically  !
 ! A9    A(10,3,12)             27.8914         calculate D2E/DX2 analytically  !
 ! A10   A(7,6,8)              120.8932         frozen, calculate D2E/DX2 analyt!
 ! A11   A(7,6,9)              120.8944         frozen, calculate D2E/DX2 analyt!
 ! A12   A(8,6,9)              117.7481         calculate D2E/DX2 analytically  !
 ! A13   A(6,7,10)             111.7803         frozen, calculate D2E/DX2 analyt!
 ! A14   A(6,7,11)             111.6488         frozen, calculate D2E/DX2 analyt!
 ! A15   A(6,7,12)             111.7809         frozen, calculate D2E/DX2 analyt!
 ! A16   A(10,7,11)            106.5176         calculate D2E/DX2 analytically  !
 ! A17   A(10,7,12)            108.3134         calculate D2E/DX2 analytically  !
 ! A18   A(11,7,12)            106.4999         calculate D2E/DX2 analytically  !
 ! A19   A(1,10,7)             108.4395         calculate D2E/DX2 analytically  !
 ! A20   A(3,10,7)             100.115          calculate D2E/DX2 analytically  !
 ! A21   A(3,12,7)              99.8021         calculate D2E/DX2 analytically  !
 ! D1    D(3,1,2,5)            175.1781         frozen, calculate D2E/DX2 analyt!
 ! D2    D(4,1,2,3)           -154.2471         frozen, calculate D2E/DX2 analyt!
 ! D3    D(4,1,2,5)             20.931          calculate D2E/DX2 analytically  !
 ! D4    D(6,1,2,3)            104.415          frozen, calculate D2E/DX2 analyt!
 ! D5    D(10,1,2,5)           -97.7694         calculate D2E/DX2 analytically  !
 ! D6    D(2,1,3,12)            99.8947         calculate D2E/DX2 analytically  !
 ! D7    D(4,1,3,12)          -106.5562         calculate D2E/DX2 analytically  !
 ! D8    D(2,1,10,7)          -177.0839         calculate D2E/DX2 analytically  !
 ! D9    D(4,1,10,7)            62.15           calculate D2E/DX2 analytically  !
 ! D10   D(12,3,10,7)          -26.9381         calculate D2E/DX2 analytically  !
 ! D11   D(1,3,12,7)            -4.2402         calculate D2E/DX2 analytically  !
 ! D12   D(10,3,12,7)           26.9075         calculate D2E/DX2 analytically  !
 ! D13   D(8,6,7,10)           155.1449         frozen, calculate D2E/DX2 analyt!
 ! D14   D(8,6,7,11)           -85.6461         calculate D2E/DX2 analytically  !
 ! D15   D(8,6,7,12)            33.5408         calculate D2E/DX2 analytically  !
 ! D16   D(9,6,7,8)            172.0059         frozen, calculate D2E/DX2 analyt!
 ! D17   D(9,6,7,10)           -32.8492         calculate D2E/DX2 analytically  !
 ! D18   D(9,6,7,11)            86.3598         calculate D2E/DX2 analytically  !
 ! D19   D(9,6,7,12)          -154.4533         calculate D2E/DX2 analytically  !
 ! D20   D(10,6,7,11)          119.209          frozen, calculate D2E/DX2 analyt!
 ! D21   D(10,6,7,12)         -121.6041         frozen, calculate D2E/DX2 analyt!
 ! D22   D(6,7,10,1)           -59.4505         calculate D2E/DX2 analytically  !
 ! D23   D(6,7,10,3)           -74.8737         calculate D2E/DX2 analytically  !
 ! D24   D(11,7,10,1)          178.3499         calculate D2E/DX2 analytically  !
 ! D25   D(11,7,10,3)          162.9268         calculate D2E/DX2 analytically  !
 ! D26   D(12,7,10,1)           64.1329         calculate D2E/DX2 analytically  !
 ! D27   D(12,7,10,3)           48.7098         calculate D2E/DX2 analytically  !
 ! D28   D(6,7,12,3)            75.0339         calculate D2E/DX2 analytically  !
 ! D29   D(10,7,12,3)          -48.5492         calculate D2E/DX2 analytically  !
 ! D30   D(11,7,12,3)         -162.7779         calculate D2E/DX2 analytically  !
 --------------------------------------------------------------------------------
 Trust Radius=3.00D-01 FncErr=1.00D-07 GrdErr=1.00D-06
 Number of steps in this run=     20 maximum allowed number of steps=    100.
 GradGradGradGradGradGradGradGradGradGradGradGradGradGradGradGradGradGrad

                          Input orientation:                          
 ---------------------------------------------------------------------
 Center     Atomic      Atomic             Coordinates (Angstroms)
 Number     Number       Type             X           Y           Z
 ---------------------------------------------------------------------
      1          6           0        0.000000    0.000000    0.000000
      2          8           0        0.000000    0.000000    1.357600
      3          1           0        0.984955    0.000000   -0.437871
      4          1           0       -0.851738    0.410883   -0.525160
      5          1           0       -0.897076    0.075675    1.683103
      6          6           0       -0.911896   -3.547735   -1.606868
      7          6           0        0.254736   -3.923447   -0.773899
      8          1           0       -0.835735   -3.511261   -2.683963
      9          1           0       -1.891528   -3.427824   -1.167561
     10          1           0        0.180920   -3.513697    0.234426
     11          1           0        0.339312   -5.013239   -0.662804
     12          1           0        1.193057   -3.583139   -1.214380
 ---------------------------------------------------------------------
                    Distance matrix (angstroms):
                    1          2          3          4          5
     1  C    0.000000
     2  O    1.357600   0.000000
     3  H    1.077900   2.047890   0.000000
     4  H    1.081700   2.106909   1.884114   0.000000
     5  H    1.908745   0.957300   2.836600   2.234020   0.000000
     6  C    4.000000   4.712329   4.189394   4.104189   4.894203
     7  C    4.007150   4.472317   4.004944   4.480243   4.832857
     8  H    4.497895   5.418638   4.548493   4.477041   5.651649
     9  H    4.085468   4.658787   4.533936   4.028587   4.624903
    10  H    3.526153   3.693280   3.666678   4.128641   4.018001
    11  H    5.068235   5.415693   5.059646   5.555056   5.738378
    12  H    3.966987   4.569174   3.672214   4.539650   5.113803
                    6          7          8          9         10
     6  C    0.000000
     7  C    1.481900   0.000000
     8  H    1.080400   2.237716   0.000000
     9  H    1.080300   2.237646   1.849631   0.000000
    10  H    2.141441   1.090900   3.090402   2.503593   0.000000
    11  H    2.145806   1.098700   2.778805   2.782978   1.754633
    12  H    2.141525   1.091000   2.506160   3.088848   1.768695
                   11         12
    11  H    0.000000
    12  H    1.754510   0.000000
 Symmetry turned off by external request.
 Stoichiometry    C3H8O
 Framework group  C1[X(C3H8O)]
 Deg. of freedom    30
 Full point group                 C1      NOp   1
 Rotational constants (GHZ):     12.8268847      1.7754285      1.6811279
 Standard basis: Jun-CC-pVTZ (5D, 7F)
   268 basis functions,   384 primitive gaussians,   300 cartesian basis functions
    17 alpha electrons       17 beta electrons
       nuclear repulsion energy       107.5487975144 Hartrees.
 NAtoms=   12 NActive=   12 NUniq=   12 SFac= 1.00D+00 NAtFMM=   60 NAOKFM=F Big=F
 Integral buffers will be    131072 words long.
 Raffenetti 2 integral format.
 Two-electron integral symmetry is turned off.
 Nuclear repulsion after empirical dispersion term =      107.5460923983 Hartrees.
 One-electron integrals computed using PRISM.
 NBasis=   268 RedAO= T EigKep=  1.09D-04  NBF=   268
 NBsUse=   268 1.00D-06 EigRej= -1.00D+00 NBFU=   268
 Initial guess from the checkpoint file:  "tmp.chk"
 B after Tr=    -0.152969    0.049841   -0.044501
         Rot=    0.999279    0.007283    0.037252    0.000866 Ang=   4.35 deg.
 Initial guess <Sx>= 0.0000 <Sy>= 0.0000 <Sz>= 0.0000 <S**2>= 0.9994 S= 0.6178
 Gradient too large for Newton-Raphson -- use scaled steepest descent instead.
     Accept linear search using points  3 and  4.
 Gradient too large for Newton-Raphson -- use scaled steepest descent instead.
     Minimum is close to point  3 DX= -6.24D-03 DF= -8.90D-06 DXR=  7.86D-03 DFR=  6.10D-05 which will be used.
 Gradient too large for Newton-Raphson -- use scaled steepest descent instead.
     Accept linear search using points  1 and  2.
 Gradient too large for Newton-Raphson -- use scaled steepest descent instead.
     Accept linear search using points  2 and  3.
 Gradient too large for Newton-Raphson -- use scaled steepest descent instead.
     Accept linear search using points  1 and  2.
 Gradient too large for Newton-Raphson -- use scaled steepest descent instead.
     Minimum is close to point  3 DX=  1.06D-01 DF= -5.05D-04 DXR=  8.11D-02 DFR=  6.65D-03 which will be used.
 Gradient too large for Newton-Raphson -- use scaled steepest descent instead.
     Accept linear search using points  1 and  2.
 Gradient too large for Newton-Raphson -- use scaled steepest descent instead.
 Restarting incremental Fock formation.
 Gradient too large for Newton-Raphson -- use scaled steepest descent instead.
     Accept linear search using points  1 and  2.
 Gradient too large for Newton-Raphson -- use scaled steepest descent instead.
 Gradient too large for Newton-Raphson -- use scaled steepest descent instead.
     Minimum is close to point  3 DX= -1.46D-03 DF= -7.05D-07 DXR=  4.89D-03 DFR=  2.39D-05 which will be used.
 Gradient too large for Newton-Raphson -- use scaled steepest descent instead.
     Accept linear search using points  1 and  2.
     Minimum is close to point  2 DX= -5.94D-02 DF= -6.12D-05 DXR=  3.85D-02 DFR=  2.98D-03 which will be used.
 Gradient too large for Newton-Raphson -- use scaled steepest descent instead.
     Minimum is close to point  3 DX= -1.09D-02 DF= -2.68D-05 DXR=  3.77D-02 DFR=  1.42D-03 which will be used.
 Gradient too large for Newton-Raphson -- use scaled steepest descent instead.
     Accept linear search using points  1 and  2.
 Gradient too large for Newton-Raphson -- use scaled steepest descent instead.
     Minimum is close to point  3 DX= -4.23D-03 DF= -1.88D-06 DXR=  1.43D-02 DFR=  2.05D-04 which will be used.
 Gradient too large for Newton-Raphson -- use scaled steepest descent instead.
     Accept linear search using points  1 and  2.
     Minimum is close to point  2 DX= -3.02D-02 DF= -5.23D-06 DXR=  2.38D-02 DFR=  8.67D-04 which will be used.
 Gradient too large for Newton-Raphson -- use scaled steepest descent instead.
 Restarting incremental Fock formation.
     Minimum is close to point  3 DX= -3.64D-03 DF= -7.61D-07 DXR=  1.23D-02 DFR=  1.51D-04 which will be used.
 Gradient too large for Newton-Raphson -- use scaled steepest descent instead.
     Accept linear search using points  1 and  2.
     Minimum is close to point  2 DX= -6.76D-02 DF= -1.54D-05 DXR=  5.49D-02 DFR=  4.49D-03 which will be used.
 Gradient too large for Newton-Raphson -- use scaled steepest descent instead.
     Minimum is close to point  3 DX= -1.11D-02 DF= -4.71D-06 DXR=  3.85D-02 DFR=  1.49D-03 which will be used.
 Gradient too large for Newton-Raphson -- use scaled steepest descent instead.
     Accept linear search using points  1 and  2.
 Gradient too large for Newton-Raphson -- use scaled steepest descent instead.
     Accept linear search using points  1 and  2.
 Gradient too large for Newton-Raphson -- use scaled steepest descent instead.
     Minimum is close to point  3 DX=  5.24D-02 DF= -2.75D-06 DXR=  4.54D-02 DFR=  2.07D-03 which will be used.
 Gradient too large for Newton-Raphson -- use scaled steepest descent instead.
     Accept linear search using points  1 and  2.
 Gradient too large for Newton-Raphson -- use scaled steepest descent instead.
     Accept linear search using points  2 and  3.
 Gradient too large for Newton-Raphson -- use scaled steepest descent instead.
     Accept linear search using points  1 and  2.
 Gradient too large for Newton-Raphson -- use scaled steepest descent instead.
 Restarting incremental Fock formation.
     Minimum is close to point  3 DX=  3.75D-02 DF= -6.18D-07 DXR=  3.30D-02 DFR=  1.09D-03 which will be used.
 Gradient too large for Newton-Raphson -- use scaled steepest descent instead.
     Accept linear search using points  1 and  2.
 Gradient too large for Newton-Raphson -- use scaled steepest descent instead.
     Accept linear search using points  2 and  3.
 Gradient too large for Newton-Raphson -- use scaled steepest descent instead.
     Accept linear search using points  1 and  2.
 Gradient too large for Newton-Raphson -- use scaled steepest descent instead.
 Gradient too large for Newton-Raphson -- use scaled steepest descent instead.
 Gradient too large for Newton-Raphson -- use scaled steepest descent instead.
 Gradient too large for Newton-Raphson -- use scaled steepest descent instead.
 Restarting incremental Fock formation.
 LinEq1:  Iter=  0 NonCon=     1 RMS=1.16D-04 Max=2.99D-03 NDo=     1
 AX will form     1 AO Fock derivatives at one time.
 LinEq1:  Iter=  1 NonCon=     1 RMS=2.26D-05 Max=7.03D-04 NDo=     1
 LinEq1:  Iter=  2 NonCon=     1 RMS=1.62D-05 Max=6.59D-04 NDo=     1
 LinEq1:  Iter=  3 NonCon=     1 RMS=5.16D-06 Max=1.92D-04 NDo=     1
 LinEq1:  Iter=  4 NonCon=     1 RMS=2.52D-06 Max=8.66D-05 NDo=     1
 LinEq1:  Iter=  5 NonCon=     1 RMS=6.36D-07 Max=1.02D-05 NDo=     1
 LinEq1:  Iter=  6 NonCon=     1 RMS=1.67D-07 Max=3.41D-06 NDo=     1
 LinEq1:  Iter=  7 NonCon=     1 RMS=3.92D-08 Max=1.14D-06 NDo=     1
 LinEq1:  Iter=  8 NonCon=     1 RMS=1.03D-08 Max=2.67D-07 NDo=     1
 LinEq1:  Iter=  9 NonCon=     0 RMS=2.96D-09 Max=5.11D-08 NDo=     1
 Linear equations converged to 9.238D-09 9.238D-08 after     9 iterations.
     Accept linear search using points  1 and  2.
     Minimum is close to point  2 DX= -8.45D-04 DF= -8.32D-11 DXR=  8.46D-04 DFR=  7.17D-07 which will be used.
 LinEq1:  Iter=  0 NonCon=     1 RMS=8.31D-07 Max=1.35D-05 NDo=     1
 LinEq1:  Iter=  1 NonCon=     1 RMS=3.57D-07 Max=1.02D-05 NDo=     1
 LinEq1:  Iter=  2 NonCon=     1 RMS=1.61D-07 Max=5.29D-06 NDo=     1
 LinEq1:  Iter=  3 NonCon=     1 RMS=6.67D-08 Max=2.47D-06 NDo=     1
 LinEq1:  Iter=  4 NonCon=     1 RMS=2.15D-08 Max=6.75D-07 NDo=     1
 LinEq1:  Iter=  5 NonCon=     1 RMS=5.13D-09 Max=1.02D-07 NDo=     1
 LinEq1:  Iter=  6 NonCon=     1 RMS=1.09D-09 Max=2.47D-08 NDo=     1
 LinEq1:  Iter=  7 NonCon=     0 RMS=3.05D-10 Max=5.28D-09 NDo=     1
 Linear equations converged to 9.231D-10 9.231D-09 after     7 iterations.
 SCF Done:  E(UwB97XD) =  -194.230859243     a.u. after   36 cycles
            Convg  =    0.3545D-07                   100 Fock formations.
              S**2 =  0.9988                  -V/T =  2.0065
 <Sx>= 0.0000 <Sy>= 0.0000 <Sz>= 0.0000 <S**2>= 0.9988 S= 0.6175
 <L.S>=  0.00000000000    
 Annihilation of the first spin contaminant:
 S**2 before annihilation     0.9988,   after     0.0684
 DoSCS=F DFT=T ScalE2(SS,OS)=  1.000000  1.000000
 Range of M.O.s used for correlation:     1   268
 NBasis=   268 NAE=    17 NBE=    17 NFC=     0 NFV=     0
 NROrb=    268 NOA=    17 NOB=    17 NVA=   251 NVB=   251

 **** Warning!!: The largest alpha MO coefficient is  0.21048098D+02


 **** Warning!!: The largest beta MO coefficient is  0.19022190D+02

 Symmetrizing basis deriv contribution to polar:
 IMax=3 JMax=2 DiffMx= 0.00D+00
 G2DrvN: will do    13 centers at a time, making    1 passes.
 Calling FoFCou, ICntrl=  3107 FMM=F I1Cent=   0 AccDes= 0.00D+00.
 End of G2Drv F.D. properties file   721 does not exist.
 End of G2Drv F.D. properties file   722 does not exist.
 End of G2Drv F.D. properties file   788 does not exist.
          IDoAtm=111111111111
          Differentiating once with respect to electric field.
                with respect to dipole field.
          Differentiating once with respect to nuclear coordinates.
          There are    39 degrees of freedom in the 1st order CPHF.  IDoFFX=6 NUNeed=     3.
     36 vectors produced by pass  0 Test12= 2.19D-14 2.56D-09 XBig12= 3.48D+01 1.54D+00.
 AX will form    36 AO Fock derivatives at one time.
     36 vectors produced by pass  1 Test12= 2.19D-14 2.56D-09 XBig12= 2.66D+00 4.92D-01.
     36 vectors produced by pass  2 Test12= 2.19D-14 2.56D-09 XBig12= 8.18D-02 5.66D-02.
     36 vectors produced by pass  3 Test12= 2.19D-14 2.56D-09 XBig12= 1.63D-03 7.87D-03.
     36 vectors produced by pass  4 Test12= 2.19D-14 2.56D-09 XBig12= 1.69D-05 5.28D-04.
     36 vectors produced by pass  5 Test12= 2.19D-14 2.56D-09 XBig12= 2.04D-07 5.69D-05.
     35 vectors produced by pass  6 Test12= 2.19D-14 2.56D-09 XBig12= 1.92D-09 5.30D-06.
     19 vectors produced by pass  7 Test12= 2.19D-14 2.56D-09 XBig12= 1.68D-11 4.12D-07.
      3 vectors produced by pass  8 Test12= 2.19D-14 2.56D-09 XBig12= 1.38D-13 4.63D-08.
      2 vectors produced by pass  9 Test12= 2.19D-14 2.56D-09 XBig12= 1.11D-15 3.25D-09.
 InvSVY:  IOpt=1 It=  1 EMax= 6.22D-15
 Solved reduced A of dimension   275 with    39 vectors.
 Isotropic polarizability for W=    0.000000       49.90 Bohr**3.
 End of Minotr F.D. properties file   721 does not exist.
 End of Minotr F.D. properties file   722 does not exist.
 End of Minotr F.D. properties file   788 does not exist.

 **********************************************************************

            Population analysis using the SCF density.

 **********************************************************************

 Alpha  occ. eigenvalues --  -19.28774 -10.31845 -10.28594 -10.27405  -1.15635
 Alpha  occ. eigenvalues --   -0.85372  -0.74480  -0.70041  -0.61292  -0.53641
 Alpha  occ. eigenvalues --   -0.53494  -0.49600  -0.47375  -0.45422  -0.43636
 Alpha  occ. eigenvalues --   -0.43491  -0.27805
 Alpha virt. eigenvalues --    0.03694   0.05482   0.05874   0.06781   0.08075
 Alpha virt. eigenvalues --    0.09428   0.09591   0.11017   0.11139   0.12703
 Alpha virt. eigenvalues --    0.13512   0.14822   0.17099   0.17508   0.18185
 Alpha virt. eigenvalues --    0.19138   0.22563   0.22924   0.23795   0.25419
 Alpha virt. eigenvalues --    0.26131   0.26820   0.27269   0.28947   0.29763
 Alpha virt. eigenvalues --    0.30071   0.30935   0.31477   0.31569   0.33175
 Alpha virt. eigenvalues --    0.33616   0.34759   0.36278   0.37758   0.37894
 Alpha virt. eigenvalues --    0.39272   0.39589   0.40282   0.46117   0.46733
 Alpha virt. eigenvalues --    0.47699   0.48030   0.53386   0.54822   0.55507
 Alpha virt. eigenvalues --    0.58275   0.60303   0.60534   0.61002   0.63041
 Alpha virt. eigenvalues --    0.64152   0.65612   0.66292   0.67299   0.68669
 Alpha virt. eigenvalues --    0.70247   0.70918   0.72168   0.73918   0.74943
 Alpha virt. eigenvalues --    0.76253   0.77817   0.80176   0.81248   0.85722
 Alpha virt. eigenvalues --    0.87354   0.89083   0.91188   0.91588   0.93505
 Alpha virt. eigenvalues --    0.96824   0.99182   0.99449   1.00309   1.01834
 Alpha virt. eigenvalues --    1.03164   1.08081   1.10909   1.12119   1.13798
 Alpha virt. eigenvalues --    1.16675   1.17276   1.18275   1.19449   1.22044
 Alpha virt. eigenvalues --    1.23338   1.26767   1.26872   1.29630   1.31905
 Alpha virt. eigenvalues --    1.34527   1.35954   1.38361   1.40602   1.41322
 Alpha virt. eigenvalues --    1.42071   1.45187   1.48238   1.50001   1.52328
 Alpha virt. eigenvalues --    1.53845   1.56307   1.58119   1.60555   1.62004
 Alpha virt. eigenvalues --    1.68599   1.71134   1.74065   1.82212   1.87671
 Alpha virt. eigenvalues --    1.98316   2.07892   2.09749   2.24823   2.32405
 Alpha virt. eigenvalues --    2.36870   2.37968   2.46399   2.49113   2.51475
 Alpha virt. eigenvalues --    2.52897   2.57996   2.58838   2.60305   2.65152
 Alpha virt. eigenvalues --    2.68283   2.71208   2.76176   2.79331   2.83333
 Alpha virt. eigenvalues --    2.87326   2.89731   2.91005   2.92067   2.93642
 Alpha virt. eigenvalues --    2.98696   2.99728   3.00225   3.03462   3.06017
 Alpha virt. eigenvalues --    3.07545   3.09084   3.11196   3.11808   3.13779
 Alpha virt. eigenvalues --    3.14125   3.16219   3.16760   3.19679   3.20879
 Alpha virt. eigenvalues --    3.22629   3.22905   3.25260   3.26726   3.32298
 Alpha virt. eigenvalues --    3.34151   3.40223   3.42871   3.44128   3.44377
 Alpha virt. eigenvalues --    3.49905   3.51563   3.52530   3.53296   3.54249
 Alpha virt. eigenvalues --    3.55942   3.56569   3.56974   3.61537   3.69047
 Alpha virt. eigenvalues --    3.73039   3.76147   3.79238   3.83871   3.85277
 Alpha virt. eigenvalues --    3.87261   3.92171   3.93015   3.96651   3.96717
 Alpha virt. eigenvalues --    3.99281   4.00235   4.01714   4.02487   4.05494
 Alpha virt. eigenvalues --    4.06971   4.08466   4.09773   4.11943   4.12787
 Alpha virt. eigenvalues --    4.14040   4.18179   4.19180   4.23820   4.31142
 Alpha virt. eigenvalues --    4.33137   4.33820   4.34057   4.36108   4.36613
 Alpha virt. eigenvalues --    4.40673   4.46169   4.59147   4.61245   4.74306
 Alpha virt. eigenvalues --    4.74898   4.81114   4.84116   4.87264   4.88509
 Alpha virt. eigenvalues --    4.92294   4.94333   4.96604   5.00306   5.01118
 Alpha virt. eigenvalues --    5.02737   5.06477   5.14736   5.17564   5.22084
 Alpha virt. eigenvalues --    5.27422   5.28323   5.35238   5.40778   5.42756
 Alpha virt. eigenvalues --    5.46211   5.49481   5.49574   5.63690   5.70007
 Alpha virt. eigenvalues --    5.70708   5.78460   5.87898   6.01046   6.02300
 Alpha virt. eigenvalues --    6.16556   6.17287   6.24978   6.55105   6.66009
 Alpha virt. eigenvalues --    6.74209   6.82687   6.92361   6.94473   7.16646
 Alpha virt. eigenvalues --    7.33802   7.62568  12.58563  12.78477  12.82049
 Alpha virt. eigenvalues --   13.59466
  Beta  occ. eigenvalues --  -19.29231 -10.32910 -10.27498 -10.27467  -1.16922
  Beta  occ. eigenvalues --   -0.83505  -0.77373  -0.67327  -0.62545  -0.54558
  Beta  occ. eigenvalues --   -0.52861  -0.49663  -0.47821  -0.46378  -0.44677
  Beta  occ. eigenvalues --   -0.43057  -0.25815
  Beta virt. eigenvalues --    0.02136   0.05295   0.06309   0.07046   0.07735
  Beta virt. eigenvalues --    0.09373   0.09515   0.10976   0.11521   0.12070
  Beta virt. eigenvalues --    0.14498   0.15157   0.16930   0.17402   0.18563
  Beta virt. eigenvalues --    0.18878   0.22202   0.22767   0.23611   0.25629
  Beta virt. eigenvalues --    0.25787   0.27107   0.27180   0.28986   0.29859
  Beta virt. eigenvalues --    0.30324   0.30809   0.31372   0.31758   0.33202
  Beta virt. eigenvalues --    0.33648   0.34855   0.35882   0.37794   0.38042
  Beta virt. eigenvalues --    0.38858   0.39821   0.41351   0.46564   0.46623
  Beta virt. eigenvalues --    0.47090   0.48042   0.53235   0.54220   0.55535
  Beta virt. eigenvalues --    0.58161   0.60189   0.60552   0.61607   0.62843
  Beta virt. eigenvalues --    0.64529   0.65904   0.66508   0.67211   0.68680
  Beta virt. eigenvalues --    0.70390   0.70809   0.72537   0.74158   0.75036
  Beta virt. eigenvalues --    0.76398   0.77149   0.80291   0.81277   0.86149
  Beta virt. eigenvalues --    0.87191   0.88972   0.91042   0.92148   0.93507
  Beta virt. eigenvalues --    0.96499   0.98929   0.99762   1.00652   1.01926
  Beta virt. eigenvalues --    1.03505   1.08174   1.10612   1.11521   1.13375
  Beta virt. eigenvalues --    1.16509   1.17049   1.18725   1.20498   1.22169
  Beta virt. eigenvalues --    1.23343   1.26419   1.26719   1.29706   1.31706
  Beta virt. eigenvalues --    1.34672   1.36312   1.38472   1.40408   1.41485
  Beta virt. eigenvalues --    1.42028   1.45311   1.48724   1.50252   1.52131
  Beta virt. eigenvalues --    1.53373   1.56820   1.58062   1.60704   1.62333
  Beta virt. eigenvalues --    1.69211   1.70532   1.74301   1.82897   1.87131
  Beta virt. eigenvalues --    1.97489   2.06570   2.09269   2.24622   2.27476
  Beta virt. eigenvalues --    2.36405   2.42210   2.47007   2.50578   2.51747
  Beta virt. eigenvalues --    2.52142   2.57273   2.60109   2.63047   2.65840
  Beta virt. eigenvalues --    2.67436   2.70723   2.77030   2.80196   2.84096
  Beta virt. eigenvalues --    2.85191   2.88536   2.91493   2.93425   2.94517
  Beta virt. eigenvalues --    2.97287   3.00721   3.02589   3.04459   3.06509
  Beta virt. eigenvalues --    3.08176   3.08330   3.09821   3.10340   3.12850
  Beta virt. eigenvalues --    3.14301   3.15048   3.15611   3.20171   3.21473
  Beta virt. eigenvalues --    3.23539   3.24344   3.25451   3.25975   3.29649
  Beta virt. eigenvalues --    3.35310   3.40560   3.42313   3.43196   3.44666
  Beta virt. eigenvalues --    3.49051   3.51943   3.52399   3.53387   3.55514
  Beta virt. eigenvalues --    3.56044   3.56800   3.57471   3.61847   3.69710
  Beta virt. eigenvalues --    3.71789   3.77207   3.78740   3.83483   3.85305
  Beta virt. eigenvalues --    3.87439   3.91578   3.93663   3.96068   3.96917
  Beta virt. eigenvalues --    4.00019   4.00711   4.01383   4.02377   4.05743
  Beta virt. eigenvalues --    4.06862   4.08487   4.09826   4.12047   4.13127
  Beta virt. eigenvalues --    4.14433   4.18397   4.19622   4.24139   4.31480
  Beta virt. eigenvalues --    4.33030   4.33770   4.34603   4.36205   4.36737
  Beta virt. eigenvalues --    4.39530   4.46681   4.59442   4.62578   4.73739
  Beta virt. eigenvalues --    4.75490   4.80159   4.85277   4.86615   4.89115
  Beta virt. eigenvalues --    4.92775   4.95389   4.96117   5.00160   5.00995
  Beta virt. eigenvalues --    5.03217   5.05517   5.15474   5.16570   5.22597
  Beta virt. eigenvalues --    5.26747   5.28760   5.35764   5.41556   5.41954
  Beta virt. eigenvalues --    5.45320   5.49745   5.49844   5.64259   5.69247
  Beta virt. eigenvalues --    5.71260   5.78944   5.87113   5.99955   6.02610
  Beta virt. eigenvalues --    6.16794   6.17537   6.24074   6.54065   6.64669
  Beta virt. eigenvalues --    6.73006   6.82149   6.91516   6.93055   7.15948
  Beta virt. eigenvalues --    7.33301   7.62032  12.60117  12.77104  12.81242
  Beta virt. eigenvalues --   13.59643
          Condensed to atoms (all electrons):
               1          2          3          4          5          6
     1  C    5.279538   0.135479   0.421793   0.418399   0.009539   0.005553
     2  O    0.135479   7.946027  -0.049596  -0.024596   0.215196  -0.000868
     3  H    0.421793  -0.049596   0.494701  -0.025867   0.006752  -0.000725
     4  H    0.418399  -0.024596  -0.025867   0.486979  -0.014677  -0.000810
     5  H    0.009539   0.215196   0.006752  -0.014677   0.612554  -0.000299
     6  C    0.005553  -0.000868  -0.000725  -0.000810  -0.000299   5.456627
     7  C   -0.009816   0.001282   0.000318   0.000614   0.000332   0.267084
     8  H   -0.000364  -0.000007   0.000020   0.000021   0.000001   0.425261
     9  H   -0.001452   0.000089   0.000006   0.000014   0.000017   0.423125
    10  H    0.000248   0.000241  -0.000035   0.000091  -0.000101  -0.028245
    11  H    0.000921  -0.000113  -0.000002  -0.000008  -0.000001  -0.040905
    12  H   -0.001632   0.000333   0.000013   0.000023   0.000004  -0.027225
               7          8          9         10         11         12
     1  C   -0.009816  -0.000364  -0.001452   0.000248   0.000921  -0.001632
     2  O    0.001282  -0.000007   0.000089   0.000241  -0.000113   0.000333
     3  H    0.000318   0.000020   0.000006  -0.000035  -0.000002   0.000013
     4  H    0.000614   0.000021   0.000014   0.000091  -0.000008   0.000023
     5  H    0.000332   0.000001   0.000017  -0.000101  -0.000001   0.000004
     6  C    0.267084   0.425261   0.423125  -0.028245  -0.040905  -0.027225
     7  C    4.960827  -0.028217  -0.027167   0.409669   0.394002   0.410302
     8  H   -0.028217   0.462323  -0.026743   0.003248  -0.001498  -0.006186
     9  H   -0.027167  -0.026743   0.461659  -0.005695  -0.001768   0.003332
    10  H    0.409669   0.003248  -0.005695   0.485316  -0.015458  -0.018663
    11  H    0.394002  -0.001498  -0.001768  -0.015458   0.500712  -0.017338
    12  H    0.410302  -0.006186   0.003332  -0.018663  -0.017338   0.498243
          Atomic-Atomic Spin Densities.
               1          2          3          4          5          6
     1  C   -1.070649   0.167849  -0.003851  -0.002414   0.004844  -0.001438
     2  O    0.167849  -0.284865  -0.002099   0.000102  -0.004358   0.000847
     3  H   -0.003851  -0.002099   0.024786  -0.006962   0.000349  -0.000285
     4  H   -0.002414   0.000102  -0.006962   0.025374  -0.001566  -0.000418
     5  H    0.004844  -0.004358   0.000349  -0.001566   0.005551  -0.000163
     6  C   -0.001438   0.000847  -0.000285  -0.000418  -0.000163   1.067112
     7  C    0.006125  -0.002295  -0.000068  -0.000078   0.000050  -0.056349
     8  H    0.000104  -0.000017  -0.000003  -0.000005   0.000000   0.007158
     9  H    0.000960  -0.000161  -0.000007  -0.000019  -0.000003   0.007634
    10  H   -0.001289   0.000285   0.000046   0.000045   0.000037  -0.008105
    11  H   -0.000088   0.000068  -0.000000  -0.000001  -0.000002  -0.031458
    12  H    0.000667  -0.000112  -0.000029   0.000001   0.000000  -0.008321
               7          8          9         10         11         12
     1  C    0.006125   0.000104   0.000960  -0.001289  -0.000088   0.000667
     2  O   -0.002295  -0.000017  -0.000161   0.000285   0.000068  -0.000112
     3  H   -0.000068  -0.000003  -0.000007   0.000046  -0.000000  -0.000029
     4  H   -0.000078  -0.000005  -0.000019   0.000045  -0.000001   0.000001
     5  H    0.000050   0.000000  -0.000003   0.000037  -0.000002   0.000000
     6  C   -0.056349   0.007158   0.007634  -0.008105  -0.031458  -0.008321
     7  C   -0.029689   0.004312   0.004119   0.009158   0.020392   0.009311
     8  H    0.004312  -0.034586   0.005538   0.000041  -0.001015   0.000800
     9  H    0.004119   0.005538  -0.034888   0.000808  -0.000861   0.000004
    10  H    0.009158   0.000041   0.000808   0.016060  -0.007649   0.001410
    11  H    0.020392  -0.001015  -0.000861  -0.007649   0.090440  -0.007847
    12  H    0.009311   0.000800   0.000004   0.001410  -0.007847   0.017898
 Mulliken charges and spin densities:
               1          2
     1  C   -0.258207  -0.899180
     2  O   -0.223467  -0.124756
     3  H    0.152623   0.011876
     4  H    0.159817   0.014059
     5  H    0.170681   0.004740
     6  C   -0.478573   0.976214
     7  C   -0.379230  -0.035012
     8  H    0.172141  -0.017674
     9  H    0.174583  -0.016876
    10  H    0.169386   0.010847
    11  H    0.181455   0.061980
    12  H    0.158792   0.013783
 Sum of Mulliken charges =   0.00000  -0.00000
 Mulliken charges and spin densities with hydrogens summed into heavy atoms:
               1          2
     1  C    0.054233  -0.873244
     2  O   -0.052786  -0.120016
     6  C   -0.131850   0.941664
     7  C    0.130403   0.051597
 APT charges:
               1
     1  C    0.229895
     2  O   -0.580169
     3  H    0.044988
     4  H    0.027564
     5  H    0.278536
     6  C   -0.046902
     7  C    0.043778
     8  H    0.016005
     9  H    0.013747
    10  H   -0.004099
    11  H   -0.017963
    12  H   -0.005380
 Sum of APT charges =   0.00000
 APT charges with hydrogens summed into heavy atoms:
               1
     1  C    0.302447
     2  O   -0.301633
     6  C   -0.017149
     7  C    0.016335
 Electronic spatial extent (au):  <R**2>=           1144.7089
 Charge=              0.0000 electrons
 Dipole moment (field-independent basis, Debye):
    X=             -1.1566    Y=              0.3862    Z=              0.1004  Tot=              1.2235
 Quadrupole moment (field-independent basis, Debye-Ang):
   XX=            -24.8113   YY=            -28.6438   ZZ=            -26.7962
   XY=             -1.5136   XZ=             -3.7455   YZ=             -0.5250
 Traceless Quadrupole moment (field-independent basis, Debye-Ang):
   XX=              1.9391   YY=             -1.8934   ZZ=             -0.0458
   XY=             -1.5136   XZ=             -3.7455   YZ=             -0.5250
 Octapole moment (field-independent basis, Debye-Ang**2):
  XXX=             12.5706  YYY=            164.5043  ZZZ=             28.1624  XYY=              9.4507
  XXY=             54.6375  XXZ=             12.0205  XZZ=              0.4204  YZZ=             54.2414
  YYZ=             12.3397  XYZ=              2.6015
 Hexadecapole moment (field-independent basis, Debye-Ang**3):
 XXXX=            -87.9467 YYYY=          -1287.2744 ZZZZ=           -235.2217 XXXY=            -42.0884
 XXXZ=            -30.4054 YYYX=            -69.1729 YYYZ=           -206.1299 ZZZX=            -36.3340
 ZZZY=           -179.5434 XXYY=           -232.3285 XXZZ=            -54.0989 YYZZ=           -257.5175
 XXYZ=            -64.2134 YYXZ=            -20.5139 ZZXY=            -19.1907
 N-N= 1.075460923983D+02 E-N=-6.679324805255D+02  KE= 1.929781942447D+02
  Exact polarizability:  47.665  -0.609  50.997   1.645   1.840  51.023
 Approx polarizability:  47.123  -0.791  44.734   0.164   0.078  49.220
                          Isotropic Fermi Contact Couplings
        Atom                 a.u.       MegaHertz       Gauss      10(-4) cm-1
     1  C(13)             -0.06654     -37.40338     -13.34646     -12.47643
     2  O(17)             -0.02215       6.71454       2.39592       2.23973
     3  H(1)               0.01074      23.99874       8.56335       8.00512
     4  H(1)               0.00936      20.91038       7.46134       6.97495
     5  H(1)               0.00233       5.21664       1.86143       1.74008
     6  C(13)              0.02146      12.06379       4.30466       4.02405
     7  C(13)             -0.02839     -15.95579      -5.69342      -5.32228
     8  H(1)              -0.01362     -30.43969     -10.86164     -10.15359
     9  H(1)              -0.01373     -30.68641     -10.94968     -10.23589
    10  H(1)               0.00755      16.87491       6.02139       5.62886
    11  H(1)               0.03154      70.48091      25.14934      23.50990
    12  H(1)               0.00795      17.75788       6.33645       5.92339
 --------------------------------------------------------
       Center         ----  Spin Dipole Couplings  ----
                      3XX-RR        3YY-RR        3ZZ-RR
 --------------------------------------------------------
     1   Atom        0.445067     -0.956006      0.510939
     2   Atom        0.386113     -0.827046      0.440933
     3   Atom       -0.048900      0.003262      0.045638
     4   Atom       -0.028423     -0.007577      0.036000
     5   Atom       -0.023420      0.015676      0.007744
     6   Atom       -0.489434      1.032867     -0.543433
     7   Atom        0.001870      0.005860     -0.007730
     8   Atom       -0.070081     -0.001784      0.071865
     9   Atom        0.048593     -0.001140     -0.047452
    10   Atom        0.002251     -0.016765      0.014514
    11   Atom        0.001251      0.002458     -0.003709
    12   Atom        0.017895     -0.012403     -0.005492
 --------------------------------------------------------
                        XY            XZ            YZ
 --------------------------------------------------------
     1   Atom       -0.321820     -0.037292     -0.171926
     2   Atom       -0.215066     -0.013716     -0.157340
     3   Atom       -0.003332      0.049723     -0.008143
     4   Atom        0.018272     -0.055686      0.016414
     5   Atom        0.006997      0.030605     -0.005919
     6   Atom        0.326542      0.025543      0.138315
     7   Atom       -0.001226      0.012462     -0.005216
     8   Atom        0.015041     -0.011763     -0.002457
     9   Atom       -0.003786     -0.055815      0.012067
    10   Atom        0.001309      0.010627     -0.000583
    11   Atom       -0.009061      0.008005     -0.007785
    12   Atom        0.000335      0.005137     -0.001553
 --------------------------------------------------------


 ---------------------------------------------------------------------------------
              Anisotropic Spin Dipole Couplings in Principal Axis System
 ---------------------------------------------------------------------------------

       Atom             a.u.   MegaHertz   Gauss  10(-4) cm-1        Axes

              Baa    -1.0463  -140.399   -50.098   -46.832  0.2123  0.9707  0.1123
     1 C(13)  Bbb     0.5154    69.168    24.681    23.072  0.9772 -0.2114 -0.0195
              Bcc     0.5308    71.231    25.417    23.760 -0.0049 -0.1138  0.9935
 
              Baa    -0.8828    63.876    22.792    21.307  0.1672  0.9788  0.1181
     2 O(17)  Bbb     0.4189   -30.313   -10.816   -10.111  0.9447 -0.1248 -0.3032
              Bcc     0.4638   -33.563   -11.976   -11.195  0.2821 -0.1622  0.9456
 
              Baa    -0.0702   -37.475   -13.372   -12.500  0.9189 -0.0020 -0.3945
     3 H(1)   Bbb     0.0021     1.104     0.394     0.368  0.0548  0.9909  0.1226
              Bcc     0.0682    36.371    12.978    12.132  0.3906 -0.1343  0.9107
 
              Baa    -0.0698   -37.266   -13.297   -12.430  0.8011 -0.3609  0.4774
     4 H(1)   Bbb     0.0014     0.727     0.259     0.242  0.3481  0.9299  0.1189
              Bcc     0.0685    36.539    13.038    12.188 -0.4869  0.0709  0.8706
 
              Baa    -0.0436   -23.245    -8.294    -7.754  0.8412 -0.1512 -0.5192
     5 H(1)   Bbb     0.0169     8.999     3.211     3.002  0.2017  0.9785  0.0418
              Bcc     0.0267    14.247     5.084     4.752  0.5017 -0.1399  0.8536
 
              Baa    -0.5588   -74.987   -26.757   -25.013  0.7479 -0.2082  0.6304
     6 C(13)  Bbb    -0.5531   -74.219   -26.483   -24.757 -0.6329  0.0630  0.7717
              Bcc     1.1119   149.207    53.241    49.770  0.2004  0.9761  0.0846
 
              Baa    -0.0169    -2.264    -0.808    -0.755 -0.5392  0.1606  0.8267
     7 C(13)  Bbb     0.0040     0.542     0.193     0.181  0.5143  0.8401  0.1722
              Bcc     0.0128     1.722     0.614     0.574  0.6669 -0.5180  0.5356
 
              Baa    -0.0741   -39.525   -14.103   -13.184  0.9768 -0.2007  0.0753
     8 H(1)   Bbb     0.0011     0.566     0.202     0.189  0.1959  0.9784  0.0665
              Bcc     0.0730    38.959    13.902    12.995 -0.0871 -0.0502  0.9949
 
              Baa    -0.0743   -39.629   -14.141   -13.219  0.4069 -0.1282  0.9044
     9 H(1)   Bbb    -0.0009    -0.467    -0.167    -0.156  0.1545  0.9855  0.0701
              Bcc     0.0751    40.096    14.307    13.375  0.9003 -0.1112 -0.4208
 
              Baa    -0.0169    -9.029    -3.222    -3.012 -0.0961  0.9941  0.0509
    10 H(1)   Bbb    -0.0037    -1.990    -0.710    -0.664  0.8605  0.1087 -0.4977
              Bcc     0.0207    11.019     3.932     3.676  0.5003  0.0040  0.8658
 
              Baa    -0.0098    -5.235    -1.868    -1.746 -0.4473  0.2198  0.8670
    11 H(1)   Bbb    -0.0071    -3.813    -1.361    -1.272  0.6553  0.7402  0.1505
              Bcc     0.0170     9.048     3.229     3.018 -0.6087  0.6354 -0.4751
 
              Baa    -0.0128    -6.834    -2.438    -2.279 -0.0510  0.9691  0.2415
    12 H(1)   Bbb    -0.0062    -3.290    -1.174    -1.097 -0.1990 -0.2468  0.9484
              Bcc     0.0190    10.123     3.612     3.377  0.9787  0.0003  0.2055
 

 ---------------------------------------------------------------------------------

 Entering OneElI...
 Calculate overlap and kinetic energy integrals
    NBasis = 300  MinDer = 2  MaxDer = 2
 Requested accuracy = 0.1000D-12
 PrsmSu:  NPrtUS=  32 ThrOK=T IAlg=1 NPAlg=1 LenDen=           0.
 PRISM was handed    12995507 working-precision words and  5005 shell-pairs
 PRISM was handed    12995507 working-precision words and  5005 shell-pairs
 PRISM was handed    12995507 working-precision words and  5005 shell-pairs
 PRISM was handed    12995507 working-precision words and  5005 shell-pairs
 PRISM was handed    12995507 working-precision words and  5005 shell-pairs
 PRISM was handed    12995507 working-precision words and  5005 shell-pairs
 Prism:   IPart=     0 DynPar=F LinDyn=F Incr=           1.
 PRISM was handed    12995507 working-precision words and  5005 shell-pairs
 PRISM was handed    12995507 working-precision words and  5005 shell-pairs
 PRISM was handed    12995507 working-precision words and  5005 shell-pairs
 PRISM was handed    12995507 working-precision words and  5005 shell-pairs
 PRISM was handed    12995507 working-precision words and  5005 shell-pairs
 PRISM was handed    12995507 working-precision words and  5005 shell-pairs
 PRISM was handed    12995507 working-precision words and  5005 shell-pairs
 PRISM was handed    12995507 working-precision words and  5005 shell-pairs
 PRISM was handed    12995507 working-precision words and  5005 shell-pairs
 PRISM was handed    12995507 working-precision words and  5005 shell-pairs
 PRISM was handed    12995507 working-precision words and  5005 shell-pairs
 PRISM was handed    12995507 working-precision words and  5005 shell-pairs
 PRISM was handed    12995507 working-precision words and  5005 shell-pairs
 PRISM was handed    12995507 working-precision words and  5005 shell-pairs
 PRISM was handed    12995507 working-precision words and  5005 shell-pairs
 PRISM was handed    12995507 working-precision words and  5005 shell-pairs
 PRISM was handed    12995507 working-precision words and  5005 shell-pairs
 PRISM was handed    12995507 working-precision words and  5005 shell-pairs
 PRISM was handed    12995507 working-precision words and  5005 shell-pairs
 IPart= 17 NShTot=         146 NBatch=          21 AvBLen=         7.0
 PRISM was handed    12995507 working-precision words and  5005 shell-pairs
 PRISM was handed    12995507 working-precision words and  5005 shell-pairs
 PRISM was handed    12995507 working-precision words and  5005 shell-pairs
 PRISM was handed    12995507 working-precision words and  5005 shell-pairs
 PRISM was handed    12995507 working-precision words and  5005 shell-pairs
 PRISM was handed    12995507 working-precision words and  5005 shell-pairs
 PRISM was handed    12995507 working-precision words and  5005 shell-pairs
 IPart= 13 NShTot=         155 NBatch=          24 AvBLen=         6.5
 IPart= 10 NShTot=         157 NBatch=          25 AvBLen=         6.3
 IPart=  8 NShTot=         160 NBatch=          28 AvBLen=         5.7
 IPart= 12 NShTot=         155 NBatch=          24 AvBLen=         6.5
 IPart= 29 NShTot=         142 NBatch=          20 AvBLen=         7.1
 IPart= 25 NShTot=         143 NBatch=          21 AvBLen=         6.8
 IPart=  0 NShTot=         202 NBatch=          63 AvBLen=         3.2
 IPart= 28 NShTot=         142 NBatch=          20 AvBLen=         7.1
 IPart= 11 NShTot=         157 NBatch=          25 AvBLen=         6.3
 IPart=  3 NShTot=         186 NBatch=          47 AvBLen=         4.0
 IPart= 26 NShTot=         143 NBatch=          21 AvBLen=         6.8
 IPart=  9 NShTot=         159 NBatch=          27 AvBLen=         5.9
 IPart=  2 NShTot=         191 NBatch=          52 AvBLen=         3.7
 IPart= 24 NShTot=         144 NBatch=          21 AvBLen=         6.9
 IPart= 19 NShTot=         146 NBatch=          21 AvBLen=         7.0
 IPart= 14 NShTot=         152 NBatch=          21 AvBLen=         7.2
 IPart=  1 NShTot=         195 NBatch=          56 AvBLen=         3.5
 IPart= 15 NShTot=         152 NBatch=          21 AvBLen=         7.2
 IPart=  6 NShTot=         169 NBatch=          34 AvBLen=         5.0
 IPart= 18 NShTot=         146 NBatch=          21 AvBLen=         7.0
 IPart=  4 NShTot=         174 NBatch=          37 AvBLen=         4.7
 IPart= 20 NShTot=         146 NBatch=          21 AvBLen=         7.0
 IPart=  7 NShTot=         166 NBatch=          32 AvBLen=         5.2
 IPart=  5 NShTot=         173 NBatch=          36 AvBLen=         4.8
 IPart= 23 NShTot=         144 NBatch=          21 AvBLen=         6.9
 IPart= 21 NShTot=         145 NBatch=          21 AvBLen=         6.9
 IPart= 22 NShTot=         144 NBatch=          21 AvBLen=         6.9
 IPart= 27 NShTot=         143 NBatch=          21 AvBLen=         6.8
 IPart= 31 NShTot=         140 NBatch=          20 AvBLen=         7.0
 IPart= 30 NShTot=         140 NBatch=          20 AvBLen=         7.0
 IPart= 16 NShTot=         148 NBatch=          21 AvBLen=         7.0
 PrSmSu:  NxtVal=             33.
 Entering OneElI...
 Calculate potential energy integrals
    NBasis = 300  MinDer = 2  MaxDer = 2
 Requested accuracy = 0.1000D-12
 PrsmSu:  NPrtUS=  32 ThrOK=T IAlg=1 NPAlg=1 LenDen=           0.
 Prism:   IPart=     0 DynPar=F LinDyn=F Incr=          16.
 PRISM was handed    13013835 working-precision words and  4498 shell-pairs
 PRISM was handed    13013835 working-precision words and  4498 shell-pairs
 PRISM was handed    13013835 working-precision words and  4498 shell-pairs
 PRISM was handed    13013835 working-precision words and  4498 shell-pairs
 PRISM was handed    13013835 working-precision words and  4498 shell-pairs
 PRISM was handed    13013835 working-precision words and  4498 shell-pairs
 PRISM was handed    13013835 working-precision words and  4498 shell-pairs
 PRISM was handed    13013835 working-precision words and  4498 shell-pairs
 PRISM was handed    13013835 working-precision words and  4498 shell-pairs
 PRISM was handed    13013835 working-precision words and  4498 shell-pairs
 PRISM was handed    13013835 working-precision words and  4498 shell-pairs
 PRISM was handed    13013835 working-precision words and  4498 shell-pairs
 PRISM was handed    13013835 working-precision words and  4498 shell-pairs
 PRISM was handed    13013835 working-precision words and  4498 shell-pairs
 PRISM was handed    13013835 working-precision words and  4498 shell-pairs
 PRISM was handed    13013835 working-precision words and  4498 shell-pairs
 PRISM was handed    13013835 working-precision words and  4498 shell-pairs
 PRISM was handed    13013835 working-precision words and  4498 shell-pairs
 PRISM was handed    13013835 working-precision words and  4498 shell-pairs
 PRISM was handed    13013835 working-precision words and  4498 shell-pairs
 PRISM was handed    13013835 working-precision words and  4498 shell-pairs
 PRISM was handed    13013835 working-precision words and  4498 shell-pairs
 PRISM was handed    13013835 working-precision words and  4498 shell-pairs
 PRISM was handed    13013835 working-precision words and  4498 shell-pairs
 PRISM was handed    13013835 working-precision words and  4498 shell-pairs
 PRISM was handed    13013835 working-precision words and  4498 shell-pairs
 PRISM was handed    13013835 working-precision words and  4498 shell-pairs
 PRISM was handed    13013835 working-precision words and  4498 shell-pairs
 PRISM was handed    13013835 working-precision words and  4498 shell-pairs
 PRISM was handed    13013835 working-precision words and  4498 shell-pairs
 PRISM was handed    13013835 working-precision words and  4498 shell-pairs
 PRISM was handed    13013835 working-precision words and  4498 shell-pairs
 IPart=  5 NShTot=        1872 NBatch=         156 AvBLen=        12.0
 IPart= 18 NShTot=        1620 NBatch=         135 AvBLen=        12.0
 IPart= 15 NShTot=        1644 NBatch=         137 AvBLen=        12.0
 IPart=  1 NShTot=        2052 NBatch=         171 AvBLen=        12.0
 IPart= 17 NShTot=        1620 NBatch=         135 AvBLen=        12.0
 IPart= 10 NShTot=        1692 NBatch=         141 AvBLen=        12.0
 IPart= 24 NShTot=        1548 NBatch=         129 AvBLen=        12.0
 IPart=  8 NShTot=        1740 NBatch=         145 AvBLen=        12.0
 IPart= 23 NShTot=        1548 NBatch=         129 AvBLen=        12.0
 IPart= 25 NShTot=        1524 NBatch=         127 AvBLen=        12.0
 IPart= 13 NShTot=        1656 NBatch=         138 AvBLen=        12.0
 IPart= 22 NShTot=        1548 NBatch=         129 AvBLen=        12.0
 IPart= 28 NShTot=        1500 NBatch=         125 AvBLen=        12.0
 IPart= 26 NShTot=        1524 NBatch=         127 AvBLen=        12.0
 IPart=  2 NShTot=        2004 NBatch=         167 AvBLen=        12.0
 IPart=  9 NShTot=        1704 NBatch=         142 AvBLen=        12.0
 IPart= 21 NShTot=        1596 NBatch=         133 AvBLen=        12.0
 IPart=  7 NShTot=        1836 NBatch=         153 AvBLen=        12.0
 IPart= 30 NShTot=        1500 NBatch=         125 AvBLen=        12.0
 IPart= 27 NShTot=        1500 NBatch=         125 AvBLen=        12.0
 IPart=  4 NShTot=        1896 NBatch=         158 AvBLen=        12.0
 IPart=  0 NShTot=        2148 NBatch=         179 AvBLen=        12.0
 IPart= 19 NShTot=        1620 NBatch=         135 AvBLen=        12.0
 IPart= 29 NShTot=        1500 NBatch=         125 AvBLen=        12.0
 IPart=  3 NShTot=        1968 NBatch=         164 AvBLen=        12.0
 IPart= 16 NShTot=        1632 NBatch=         136 AvBLen=        12.0
 IPart= 12 NShTot=        1668 NBatch=         139 AvBLen=        12.0
 IPart=  6 NShTot=        1872 NBatch=         156 AvBLen=        12.0
 IPart= 20 NShTot=        1608 NBatch=         134 AvBLen=        12.0
 IPart= 11 NShTot=        1680 NBatch=         140 AvBLen=        12.0
 IPart= 31 NShTot=        1500 NBatch=         125 AvBLen=        12.0
 IPart= 14 NShTot=        1656 NBatch=         138 AvBLen=        12.0
 PrSmSu:  NxtVal=            513.
 Polarizability after L701:
                1             2             3 
      1  0.476652D+02
      2 -0.609079D+00  0.509973D+02
      3  0.164526D+01  0.183983D+01  0.510234D+02
 Dipole Derivatives after L701:
                 1             2             3             4             5 
      1   0.161137D+00 -0.126766D+00 -0.617975D-01 -0.259161D+00  0.252947D-01
      2  -0.139187D+00 -0.325934D+00  0.120442D-01  0.267215D-01 -0.333763D+00
      3  -0.517392D-01 -0.519647D-01  0.854481D+00  0.808062D-01 -0.658798D-01
                 6             7             8             9            10 
      1   0.762057D-01 -0.485485D-01 -0.329629D-03  0.122917D-02 -0.320261D-01
      2  -0.924785D-01  0.172261D-01  0.170932D+00  0.256992D-01  0.867722D-01
      3  -0.114758D+01  0.562652D-01  0.335113D-01  0.125813D-01 -0.496163D-01
                11            12            13            14            15 
      1   0.963166D-01  0.442321D-02  0.185590D+00  0.322215D-02 -0.236883D-01
      2   0.136141D+00  0.348835D-01  0.290341D-02  0.345459D+00  0.121484D-01
      3   0.541711D-01 -0.214230D-01 -0.396427D-01  0.262156D-01  0.304560D+00
                16            17            18            19            20 
      1   0.903429D-01 -0.111526D+00 -0.610630D-02  0.225157D-01  0.629785D-01
      2  -0.105842D+00 -0.347335D+00 -0.374609D-01  0.306110D-01  0.915106D-01
      3  -0.124910D-01 -0.501834D-01  0.116287D+00 -0.752657D-02  0.274408D-01
                21            22            23            24            25 
      1  -0.132202D-01  0.119391D-01  0.285926D-01 -0.255851D-01 -0.956674D-01
      2   0.244655D-01  0.271904D-01  0.143058D+00  0.132980D-01  0.413700D-01
      3   0.173065D-01  0.667489D-02  0.135839D-01 -0.106981D+00  0.173334D-01
                26            27            28            29            30 
      1   0.374962D-01  0.468172D-01  0.311911D-01  0.883698D-05 -0.181795D-01
      2   0.139423D+00  0.690854D-02  0.259075D-01  0.686474D-01 -0.641531D-01
      3   0.131557D-01 -0.251316D-02  0.428778D-02 -0.748469D-01 -0.112136D+00
                31            32            33            34            35 
      1   0.396671D-01  0.551410D-01 -0.372127D-01 -0.106980D+00 -0.704291D-01
      2   0.226126D-01 -0.155688D+00  0.216895D-01 -0.362857D-01  0.675496D-01
      3  -0.357381D-01  0.431725D-01  0.621312D-01  0.313864D-01  0.316240D-01
                36 
      1   0.571142D-01
      2   0.429555D-01
      3   0.232891D-01
 Hessian after L701:
                1             2             3             4             5 
      1  0.102181D+02
      2  0.590645D+00  0.124775D+02
      3  0.290858D+00  0.209819D+00  0.365487D+01
      4 -0.673348D+01  0.636035D-01 -0.121912D+00  0.918787D+01
      5  0.515020D-01 -0.659283D+01  0.744397D-01  0.192539D+00  0.113181D+02
      6 -0.202845D+00  0.733592D-01  0.164417D+01  0.151314D+01 -0.387828D+00
      7 -0.143627D+01 -0.472306D-01 -0.946626D+00  0.133805D+00  0.597644D-02
      8  0.124807D-01 -0.324279D+01 -0.237433D-01 -0.178872D-02  0.229539D-01
      9 -0.993667D+00  0.222053D-01 -0.271920D+01  0.162451D-01 -0.148269D-01
     10 -0.182259D+01 -0.646437D+00  0.918188D+00  0.113321D+00 -0.671487D-01
     11 -0.687267D+00 -0.282961D+01 -0.500225D+00 -0.727682D-01  0.231938D-01
     12  0.961232D+00 -0.482473D+00 -0.246906D+01  0.773855D-01 -0.593266D-01
     13  0.105777D-01 -0.108364D-01 -0.175683D+00 -0.249482D+01 -0.203098D+00
     14 -0.870319D-02 -0.139179D+00  0.105886D-01 -0.221605D+00 -0.499973D+01
     15 -0.858050D-01  0.563750D-02  0.553970D-01 -0.152132D+01  0.111445D+00
     16 -0.107726D+00  0.446201D-01  0.223764D-01 -0.798513D-01  0.142312D-01
     17  0.668368D-01  0.107875D+00  0.127251D+00  0.422393D-01  0.546801D-01
     18  0.314018D-01  0.956530D-01 -0.631842D-01  0.330525D-01  0.968784D-01
     19 -0.974063D-01  0.143117D-02  0.673349D-02 -0.949261D-01  0.155545D-02
     20 -0.254403D-01  0.147653D+00  0.660267D-01 -0.804339D-02  0.115306D+00
     21 -0.264169D-02  0.640002D-01 -0.780243D-01  0.408541D-03  0.135579D+00
     22 -0.868815D-02  0.396458D-02  0.303356D-02 -0.607843D-02  0.231323D-02
     23  0.392509D-02  0.581462D-02  0.139090D-01  0.240638D-02  0.127090D-02
     24  0.677013D-02  0.256355D-01  0.215179D-01  0.955678D-02  0.235619D-01
     25  0.695140D-02  0.281581D-01  0.177223D-01  0.924600D-02  0.291454D-01
     26  0.104440D-01  0.685041D-02  0.786402D-02  0.883138D-02  0.412582D-02
     27 -0.140115D-02 -0.813193D-03 -0.127111D-01  0.216934D-02  0.501346D-02
     28 -0.204184D-01 -0.834529D-03  0.451908D-03 -0.217360D-01  0.811174D-03
     29 -0.426181D-02  0.239828D-01 -0.294352D-02 -0.167007D-02  0.229926D-01
     30  0.307124D-02 -0.304571D-01 -0.228656D-01 -0.198384D-02 -0.147761D-01
     31 -0.733849D-02 -0.270995D-02 -0.782108D-03 -0.683487D-02 -0.254941D-02
     32 -0.305141D-02  0.264052D-01  0.105276D-01  0.169473D-02  0.258111D-01
     33  0.114257D-04  0.109397D-02 -0.754763D-02 -0.790689D-04  0.504336D-02
     34 -0.174283D-02 -0.243731D-01 -0.143599D-01 -0.652523D-02 -0.252777D-01
     35 -0.710982D-02  0.834649D-02  0.648612D-02 -0.543904D-02  0.410527D-02
     36 -0.698415D-02  0.163399D-01 -0.335995D-02 -0.665812D-02  0.247973D-01
                6             7             8             9            10 
      6  0.257141D+01
      7 -0.493089D-01  0.144000D+01
      8  0.693002D-02 -0.893322D-01  0.313617D+01
      9 -0.937266D-01  0.106074D+01  0.433983D-02  0.272322D+01
     10  0.132398D+00 -0.180321D+00  0.573422D-01 -0.204385D-01  0.188262D+01
     11 -0.830874D-01  0.520724D-01  0.527862D-01  0.268093D-03  0.716309D+00
     12  0.155303D-01 -0.989914D-02 -0.249104D-02  0.799706D-01 -0.102842D+01
     13 -0.141800D+01  0.445356D-01 -0.660692D-03 -0.593685D-01  0.250984D-01
     14  0.126103D+00 -0.398236D-02 -0.176980D-01  0.444610D-02 -0.168476D-02
     15 -0.410010D+01 -0.718910D-01  0.107912D-02  0.419484D-01  0.704315D-02
     16  0.150095D-01 -0.162906D-02  0.930850D-02  0.159656D-02 -0.618778D-02
     17  0.982686D-01  0.325853D-01  0.112456D-01 -0.292868D-02 -0.207939D-01
     18 -0.555332D-03  0.569151D-02  0.625725D-02 -0.103689D-01 -0.150782D-02
     19  0.443617D-02 -0.111198D-02  0.937472D-02 -0.381502D-02 -0.838490D-02
     20  0.106764D+00  0.324320D-01  0.264468D-01 -0.937600D-02 -0.249738D-01
     21 -0.261190D-01  0.845808D-02  0.574906D-02 -0.169663D-01 -0.558311D-02
     22  0.244036D-02  0.516779D-03  0.123706D-02  0.202865D-03 -0.124542D-02
     23  0.932295D-02  0.307046D-02  0.107237D-02  0.528424D-03 -0.197803D-02
     24  0.184302D-01  0.108967D-01  0.412478D-02 -0.296875D-02 -0.784301D-02
     25  0.197753D-01  0.109145D-01  0.427691D-02 -0.330014D-02 -0.800548D-02
     26  0.110235D-01  0.285446D-02  0.688855D-03 -0.178427D-03 -0.892752D-03
     27 -0.601329D-02 -0.245479D-02 -0.335807D-03 -0.259655D-03  0.187588D-02
     28  0.654271D-03 -0.320099D-03  0.157082D-02 -0.968317D-03 -0.118718D-02
     29  0.164323D-01  0.204657D-02  0.244354D-02 -0.131833D-02 -0.162070D-02
     30 -0.245859D-01 -0.927879D-02 -0.498634D-02  0.258359D-02  0.742294D-02
     31 -0.717502D-03 -0.960651D-03  0.180609D-03  0.119796D-03  0.219219D-03
     32  0.105824D-01  0.832805D-02  0.381110D-02 -0.348499D-02 -0.665865D-02
     33 -0.453827D-02 -0.407475D-03 -0.631639D-04 -0.670966D-03  0.443060D-03
     34 -0.169846D-01 -0.915997D-02 -0.398981D-02  0.265609D-02  0.666169D-02
     35  0.121296D-01  0.117961D-02  0.286633D-02  0.325593D-03 -0.146236D-02
     36  0.609748D-02  0.408267D-02  0.313962D-02 -0.356643D-02 -0.357380D-02
               11            12            13            14            15 
     11  0.265222D+01
     12  0.552424D+00  0.247371D+01
     13  0.318636D-02 -0.373197D-02  0.242236D+01
     14  0.233080D-01  0.124596D-01  0.242037D+00  0.511494D+01
     15  0.119299D-01 -0.706685D-01  0.167755D+01 -0.178800D+00  0.405538D+01
     16 -0.528444D-02  0.337635D-02 -0.883163D-03 -0.226978D-02 -0.497700D-02
     17  0.323217D-01 -0.544127D-02 -0.986361D-02  0.504572D-02  0.185674D-01
     18  0.930036D-02 -0.115860D-01 -0.548458D-02  0.916278D-02  0.662711D-02
     19 -0.595660D-02  0.122277D-03 -0.491205D-02 -0.333232D-02 -0.100345D-02
     20  0.285819D-01 -0.102990D-01 -0.140499D-01  0.964042D-02  0.197524D-01
     21  0.666562D-02 -0.135601D-01 -0.117255D-01  0.121611D-01  0.851753D-02
     22  0.313908D-04 -0.206341D-04 -0.463184D-03 -0.140731D-04  0.253636D-04
     23  0.286935D-02  0.409368D-03 -0.667176D-03  0.188397D-03  0.145458D-02
     24  0.904844D-02 -0.377090D-02 -0.511565D-02  0.272523D-02  0.691390D-02
     25  0.918162D-02 -0.403438D-02 -0.538059D-02  0.304741D-02  0.696321D-02
     26  0.389894D-02 -0.524853D-03 -0.508448D-03  0.695596D-03  0.207576D-02
     27 -0.152823D-02 -0.477360D-03  0.810348D-03  0.641454D-03 -0.103385D-02
     28 -0.131190D-02  0.374163D-03 -0.577642D-03 -0.509283D-03 -0.356056D-03
     29  0.298278D-02 -0.113374D-02 -0.488881D-03  0.153322D-03  0.781149D-03
     30 -0.767875D-02  0.303262D-02  0.412951D-02 -0.191549D-02 -0.575185D-02
     31 -0.976022D-03  0.415777D-03  0.189028D-03 -0.503171D-03 -0.683799D-03
     32  0.615722D-02 -0.377950D-02 -0.489254D-02  0.261241D-02  0.560057D-02
     33 -0.320171D-03 -0.412346D-03 -0.255102D-03  0.511302D-03 -0.161823D-03
     34 -0.721685D-02  0.320438D-02  0.427551D-02 -0.248074D-02 -0.554157D-02
     35  0.129851D-02  0.175869D-03 -0.157733D-03  0.196571D-04  0.476503D-03
     36  0.320278D-02 -0.270680D-02 -0.312927D-02  0.191601D-02  0.293186D-02
               16            17            18            19            20 
     16  0.608640D+01
     17  0.982404D+00  0.984883D+01
     18 -0.116913D+01  0.370923D+00  0.672807D+01
     19 -0.188250D+01 -0.841075D+00  0.196835D+01  0.943041D+01
     20 -0.888846D+00 -0.428620D+01 -0.639526D+00  0.597615D+00  0.105328D+02
     21  0.195681D+01 -0.602632D+00 -0.323678D+01 -0.112205D+01  0.204071D+00
     22 -0.299137D+01  0.104109D-01 -0.277691D-01 -0.101499D-01  0.244988D-02
     23  0.152391D-01 -0.294846D+01 -0.741081D-01 -0.370736D-02 -0.443385D-02
     24 -0.711864D-01 -0.110559D+00 -0.739522D+00  0.408116D-02 -0.509257D-02
     25 -0.108373D+01 -0.272652D+00 -0.803709D+00  0.466303D-01 -0.766513D-02
     26 -0.215046D+00 -0.297429D+01  0.950643D-01 -0.500918D-02 -0.201086D-02
     27 -0.728396D+00  0.103437D+00 -0.275108D+01 -0.583458D-01  0.895177D-02
     28 -0.160846D-01  0.618488D-03 -0.884464D-02 -0.311537D+01 -0.219752D-01
     29  0.229907D-01 -0.858783D-02  0.718473D-01 -0.307356D-01 -0.284835D+01
     30  0.403895D-01  0.340363D-01  0.100256D+00 -0.117875D+00  0.778100D+00
     31 -0.245866D-01 -0.180148D-01 -0.179001D-01 -0.283497D+01 -0.245464D+00
     32 -0.417809D-01  0.176634D+00 -0.383895D-01 -0.245557D+00 -0.864576D+00
     33 -0.150501D-01 -0.217108D-01 -0.677523D-02  0.308032D-01 -0.261614D+00
     34  0.108155D+00  0.273042D-01 -0.414990D-02 -0.142732D+01  0.603961D+00
     35  0.644337D-01 -0.190931D-01 -0.306305D-02  0.525397D+00 -0.285485D+01
     36 -0.508222D-01 -0.921266D-02 -0.150969D-01 -0.711431D+00 -0.257759D+00
               21            22            23            24            25 
     21  0.100849D+02
     22 -0.316156D-01  0.304016D+01
     23  0.497830D-02 -0.246857D-01  0.288744D+01
     24  0.707314D-01 -0.609887D-01  0.612887D-01  0.651549D+00
     25 -0.190009D-01 -0.384762D-02  0.612206D-02  0.907611D-01  0.973641D+00
     26 -0.379110D-02  0.163604D-02  0.572097D-01 -0.390362D-02  0.206944D+00
     27  0.729932D-02  0.116117D+00 -0.123979D-01 -0.800942D-01  0.698107D+00
     28 -0.838564D-01 -0.833156D-02  0.941032D-03  0.144265D-01 -0.996897D-02
     29  0.679151D+00  0.252784D-02 -0.110329D-01  0.820911D-02  0.854100D-02
     30 -0.123317D+01  0.138534D-01 -0.107463D-02  0.578456D-01  0.564964D-02
     31  0.335344D-01 -0.187164D-02 -0.111189D-02  0.408625D-02  0.383773D-02
     32 -0.277642D+00 -0.255586D-02  0.319253D-02 -0.217858D-01 -0.197483D-01
     33 -0.283174D+01  0.153355D-03 -0.374323D-02  0.572879D-02  0.206657D-02
     34 -0.722736D+00 -0.863306D-02  0.446065D-03  0.455523D-02  0.597118D-01
     35 -0.228292D+00  0.268470D-02  0.487618D-02  0.674714D-02  0.464882D-02
     36 -0.273511D+01 -0.154322D-01 -0.567512D-03 -0.636074D-02 -0.110007D-01
               26            27            28            29            30 
     26  0.290522D+01
     27 -0.108721D+00  0.286135D+01
     28 -0.101898D-02 -0.154958D-01  0.317659D+01
     29  0.423622D-02  0.755306D-03 -0.195968D-02  0.280721D+01
     30 -0.665435D-03 -0.497923D-02  0.166551D-01 -0.725257D+00  0.115943D+01
     31 -0.328199D-02 -0.260534D-02  0.158553D-01  0.853956D-02  0.209487D-02
     32  0.472703D-02  0.498536D-02  0.121457D-02 -0.296271D-01 -0.951112D-02
     33 -0.840955D-04 -0.212543D-02  0.406643D-02 -0.658586D-01  0.714983D-02
     34 -0.495275D-02 -0.103806D-01  0.154741D-02 -0.390895D-02  0.358715D-01
     35 -0.113568D-01  0.120826D-04  0.224534D-01  0.335998D-01 -0.158148D-01
     36  0.184131D-02 -0.987823D-02  0.728929D-01  0.193345D-01 -0.389447D-01
               31            32            33            34            35 
     31  0.284780D+01
     32  0.328115D+00  0.671825D+00
     33 -0.294545D-01  0.312110D+00  0.282842D+01
     34  0.865230D-02 -0.151070D-01  0.770224D-02  0.126438D+01
     35 -0.622240D-01 -0.269730D-01  0.346350D-01 -0.544404D+00  0.285716D+01
     36  0.118923D-01  0.107862D-01  0.126773D-01  0.720163D+00  0.186182D+00
               36 
     36  0.279332D+01
 ICntrl=    100127.
 Calling FoFJK, ICntrl=    100127 FMM=F ISym2X=0 I1Cent= 0 IOpClX= 1 NMat=1 NMatS=1 NMatT=0.
 FoFJK:  IHMeth= 1 ICntrl=  100127 DoSepK=T KAlg= 0 I1Cent=   0 FoldK=F
 IRaf=         1 NMat=   1 IRICut=       1 DoRegI=T DoRafI=F ISym2E= 0.
 FoFCou: FMM=F IPFlag=           0 FMFlag=      100000 FMFlg1=         800
         NFxFlg=           0 DoJE=F BraDBF=F KetDBF=F FulRan=T
         wScrn=  0.000000 ICntrl=  100527 IOpCl=  0 I1Cent=           0 NGrid=           0
         NMat0=    1 NMatS0=      1 NMatT0=    0 NMatD0=    1 NMtDS0=    0 NMtDT0=    0
 Symmetry not used in FoFCou.
 FoFCou:  KetSym=F NOpSet=  1 NOpAb=1 NOp=  1.
 FoFCou:  CnvScl= 1.00D+00 Thresh= 1.00D-10 IAcrcy=      10.
 PrismS was handed   418928519 working-precision words and  4806 shell-pairs
 FoFCou: LinMIO=F DoNuc=F BraDBF=F KetDBF=F HaveP=T PDBF=F HaveZ=T HaveW=F
         NIJTC =      10 NIJTAt=       0 NIJTCD=       0 NIJTT =      10
         IJTBeg=       1 IJTEnd=      10 KLTBeg=       1 KLTEnd=      10
         IPTBeg=       1 IPTEnd=      10 IPTBCv=       1 IPTECv=      10
         IZTBeg=       1 IZTEnd=      10 IZTBCv=       1 IZTECv=      10
         IWTBeg=      11 IWTEnd=      10 IWTBCv=      11 IWTECv=      10
         INTBeg=       1 INTEnd=       0 IFTBCv=       1 IFTECv=      10
 NCel replicated for PrismC:     1
 CoulSu:  IncDef=  1024 NBBP=       11551221 NTPThr=   100 NPartT=   32 Incr=        1024 LDynOK=F.
 CoulSu:  NPrtUS=  32 ThrOK=T IAlg=1 NPAlg=1 LenDen=           0 LWGrdD=           0 DoCopy=F.
 Enter PrismC: JobTyp=22 DoJE=F Cont=F.
 Enter PrismC: JobTyp=22 DoJE=F Cont=F.
 PrismC was handed    13004870 working-precision words and  4806 shell-pairs
 Enter PrismC: JobTyp=22 DoJE=F Cont=F.
 Enter PrismC: JobTyp=22 DoJE=F Cont=F.
 PrismC:  IPart=     0 DynPar=T LinDyn=F Incr=        1024 UseFst=F UseS4=T IGathr=2.
 PrismC was handed    13004870 working-precision words and  4806 shell-pairs
 Enter PrismC: JobTyp=22 DoJE=F Cont=F.
 PrismC was handed    13004870 working-precision words and  4806 shell-pairs
 Enter PrismC: JobTyp=22 DoJE=F Cont=F.
 Enter PrismC: JobTyp=22 DoJE=F Cont=F.
 PrismC was handed    13004870 working-precision words and  4806 shell-pairs
 Enter PrismC: JobTyp=22 DoJE=F Cont=F.
 PrismC was handed    13004870 working-precision words and  4806 shell-pairs
 Enter PrismC: JobTyp=22 DoJE=F Cont=F.
 PrismC was handed    13004870 working-precision words and  4806 shell-pairs
 Enter PrismC: JobTyp=22 DoJE=F Cont=F.
 Enter PrismC: JobTyp=22 DoJE=F Cont=F.
 PrismC was handed    13004870 working-precision words and  4806 shell-pairs
 Enter PrismC: JobTyp=22 DoJE=F Cont=F.
 Enter PrismC: JobTyp=22 DoJE=F Cont=F.
 Enter PrismC: JobTyp=22 DoJE=F Cont=F.
 PrismC was handed    13004870 working-precision words and  4806 shell-pairs
 Enter PrismC: JobTyp=22 DoJE=F Cont=F.
 PrismC was handed    13004870 working-precision words and  4806 shell-pairs
 Enter PrismC: JobTyp=22 DoJE=F Cont=F.
 PrismC was handed    13004870 working-precision words and  4806 shell-pairs
 Enter PrismC: JobTyp=22 DoJE=F Cont=F.
 Enter PrismC: JobTyp=22 DoJE=F Cont=F.
 PrismC was handed    13004870 working-precision words and  4806 shell-pairs
 Enter PrismC: JobTyp=22 DoJE=F Cont=F.
 PrismC was handed    13004870 working-precision words and  4806 shell-pairs
 Enter PrismC: JobTyp=22 DoJE=F Cont=F.
 PrismC was handed    13004870 working-precision words and  4806 shell-pairs
 Enter PrismC: JobTyp=22 DoJE=F Cont=F.
 PrismC was handed    13004870 working-precision words and  4806 shell-pairs
 PrismC was handed    13004870 working-precision words and  4806 shell-pairs
 PrismC was handed    13004870 working-precision words and  4806 shell-pairs
 Enter PrismC: JobTyp=22 DoJE=F Cont=F.
 PrismC was handed    13004870 working-precision words and  4806 shell-pairs
 PrismC was handed    13004870 working-precision words and  4806 shell-pairs
 Enter PrismC: JobTyp=22 DoJE=F Cont=F.
 Enter PrismC: JobTyp=22 DoJE=F Cont=F.
 Enter PrismC: JobTyp=22 DoJE=F Cont=F.
 PrismC was handed    13004870 working-precision words and  4806 shell-pairs
 PrismC was handed    13004870 working-precision words and  4806 shell-pairs
 PrismC was handed    13004870 working-precision words and  4806 shell-pairs
 PrismC was handed    13004870 working-precision words and  4806 shell-pairs
 Enter PrismC: JobTyp=22 DoJE=F Cont=F.
 Enter PrismC: JobTyp=22 DoJE=F Cont=F.
 PrismC was handed    13004870 working-precision words and  4806 shell-pairs
 Enter PrismC: JobTyp=22 DoJE=F Cont=F.
 Enter PrismC: JobTyp=22 DoJE=F Cont=F.
 Enter PrismC: JobTyp=22 DoJE=F Cont=F.
 Enter PrismC: JobTyp=22 DoJE=F Cont=F.
 PrismC was handed    13004870 working-precision words and  4806 shell-pairs
 PrismC was handed    13004870 working-precision words and  4806 shell-pairs
 PrismC was handed    13004870 working-precision words and  4806 shell-pairs
 Enter PrismC: JobTyp=22 DoJE=F Cont=F.
 PrismC was handed    13004870 working-precision words and  4806 shell-pairs
 PrismC was handed    13004870 working-precision words and  4806 shell-pairs
 PrismC was handed    13004870 working-precision words and  4806 shell-pairs
 PrismC was handed    13004870 working-precision words and  4806 shell-pairs
 PrismC was handed    13004870 working-precision words and  4806 shell-pairs
 PrismC was handed    13004870 working-precision words and  4806 shell-pairs
 IPart= 16 NShTot=      250123 NShNF=      250123 NShFF=           0 NBatch=        5170 AvBLen=        48.4
 IPart= 23 NShTot=      231508 NShNF=      231508 NShFF=           0 NBatch=        4694 AvBLen=        49.3
 IPart= 31 NShTot=      231762 NShNF=      231762 NShFF=           0 NBatch=        4751 AvBLen=        48.8
 IPart=  4 NShTot=      246171 NShNF=      246171 NShFF=           0 NBatch=        5147 AvBLen=        47.8
 IPart=  8 NShTot=      244251 NShNF=      244251 NShFF=           0 NBatch=        5311 AvBLen=        46.0
 IPart= 22 NShTot=      267776 NShNF=      267776 NShFF=           0 NBatch=        5473 AvBLen=        48.9
 IPart= 13 NShTot=      223363 NShNF=      223363 NShFF=           0 NBatch=        4021 AvBLen=        55.5
 IPart=  6 NShTot=      246654 NShNF=      246654 NShFF=           0 NBatch=        4702 AvBLen=        52.5
 IPart=  1 NShTot=      242133 NShNF=      242133 NShFF=           0 NBatch=        4888 AvBLen=        49.5
 IPart= 17 NShTot=      240572 NShNF=      240572 NShFF=           0 NBatch=        5174 AvBLen=        46.5
 IPart=  9 NShTot=      240974 NShNF=      240974 NShFF=           0 NBatch=        4791 AvBLen=        50.3
 IPart= 15 NShTot=      231231 NShNF=      231231 NShFF=           0 NBatch=        4802 AvBLen=        48.2
 IPart= 30 NShTot=      261903 NShNF=      261903 NShFF=           0 NBatch=        5607 AvBLen=        46.7
 IPart= 26 NShTot=      247688 NShNF=      247688 NShFF=           0 NBatch=        5028 AvBLen=        49.3
 IPart= 12 NShTot=      249113 NShNF=      249113 NShFF=           0 NBatch=        4888 AvBLen=        51.0
 IPart=  3 NShTot=      242274 NShNF=      242274 NShFF=           0 NBatch=        4614 AvBLen=        52.5
 IPart= 25 NShTot=      234186 NShNF=      234186 NShFF=           0 NBatch=        4758 AvBLen=        49.2
 IPart= 20 NShTot=      253400 NShNF=      253400 NShFF=           0 NBatch=        5315 AvBLen=        47.7
 IPart= 10 NShTot=      252836 NShNF=      252836 NShFF=           0 NBatch=        4750 AvBLen=        53.2
 IPart= 21 NShTot=      248991 NShNF=      248991 NShFF=           0 NBatch=        5016 AvBLen=        49.6
 IPart= 18 NShTot=      253712 NShNF=      253712 NShFF=           0 NBatch=        5191 AvBLen=        48.9
 IPart= 11 NShTot=      219381 NShNF=      219381 NShFF=           0 NBatch=        4093 AvBLen=        53.6
 IPart=  2 NShTot=      233332 NShNF=      233332 NShFF=           0 NBatch=        4631 AvBLen=        50.4
 IPart= 19 NShTot=      226965 NShNF=      226965 NShFF=           0 NBatch=        5032 AvBLen=        45.1
 IPart= 24 NShTot=      241532 NShNF=      241532 NShFF=           0 NBatch=        4701 AvBLen=        51.4
 IPart=  0 NShTot=      254784 NShNF=      254784 NShFF=           0 NBatch=        5000 AvBLen=        51.0
 IPart=  5 NShTot=      222951 NShNF=      222951 NShFF=           0 NBatch=        4569 AvBLen=        48.8
 IPart= 27 NShTot=      252523 NShNF=      252523 NShFF=           0 NBatch=        5275 AvBLen=        47.9
 IPart= 28 NShTot=      234614 NShNF=      234614 NShFF=           0 NBatch=        5237 AvBLen=        44.8
 IPart= 29 NShTot=      243508 NShNF=      243508 NShFF=           0 NBatch=        5014 AvBLen=        48.6
 IPart= 14 NShTot=      278983 NShNF=      278983 NShFF=           0 NBatch=        5596 AvBLen=        49.9
 IPart=  7 NShTot=      228836 NShNF=      228836 NShFF=           0 NBatch=        4666 AvBLen=        49.0
 CoulSu:  NxtVal=       12558337.
 FoFCou: FMM=F IPFlag=           0 FMFlag=      100000 FMFlg1=         800
         NFxFlg=           0 DoJE=F BraDBF=F KetDBF=F FulRan=T
         wScrn=  0.000000 ICntrl=  100127 IOpCl=  1 I1Cent=           0 NGrid=           0
         NMat0=    1 NMatS0=      0 NMatT0=    1 NMatD0=    1 NMtDS0=    0 NMtDT0=    0
         CW=    0.222036    0.777964
         WU=    0.000000   12.500000
 Symmetry not used in FoFCou.
 FoFCou:  KetSym=F NOpSet=  1 NOpAb=1 NOp=  1.
 FoFCou:  CnvScl= 1.00D+00 Thresh= 1.00D-10 IAcrcy=      10.
 PrismS was handed   418923553 working-precision words and  4806 shell-pairs
 FoFCou: LinMIO=F DoNuc=F BraDBF=F KetDBF=F HaveP=T PDBF=F HaveZ=T HaveW=F
         NIJTC =      10 NIJTAt=       0 NIJTCD=       0 NIJTT =      10
         IJTBeg=       1 IJTEnd=      10 KLTBeg=       1 KLTEnd=      10
         IPTBeg=       1 IPTEnd=      10 IPTBCv=       1 IPTECv=      10
         IZTBeg=       1 IZTEnd=      10 IZTBCv=       1 IZTECv=      10
         IWTBeg=      11 IWTEnd=      10 IWTBCv=      11 IWTECv=      10
         INTBeg=       1 INTEnd=       0 IFTBCv=       1 IFTECv=      10
 NCel replicated for PrismC:     1
 CoulSu:  IncDef=  1024 NBBP=       11551221 NTPThr=   100 NPartT=   32 Incr=        1024 LDynOK=F.
 CoulSu:  NPrtUS=  32 ThrOK=T IAlg=1 NPAlg=1 LenDen=           0 LWGrdD=           0 DoCopy=F.
 Enter PrismC: JobTyp=22 DoJE=F Cont=F.
 Enter PrismC: JobTyp=22 DoJE=F Cont=F.
 Enter PrismC: JobTyp=22 DoJE=F Cont=F.
 Enter PrismC: JobTyp=22 DoJE=F Cont=F.
 Enter PrismC: JobTyp=22 DoJE=F Cont=F.
 Enter PrismC: JobTyp=22 DoJE=F Cont=F.
 Enter PrismC: JobTyp=22 DoJE=F Cont=F.
 Linear combination for Coulomb/exchange, wScrn=  0.000000
 CW=    0.222036    0.777964
 Enter PrismC: JobTyp=22 DoJE=F Cont=F.
 Linear combination for Coulomb/exchange, wScrn=  0.000000
 CW=    0.222036    0.777964
 Enter PrismC: JobTyp=22 DoJE=F Cont=F.
 Enter PrismC: JobTyp=22 DoJE=F Cont=F.
 Linear combination for Coulomb/exchange, wScrn=  0.000000
 CW=    0.222036    0.777964
 WU=    0.000000   12.500000
 Enter PrismC: JobTyp=22 DoJE=F Cont=F.
 Linear combination for Coulomb/exchange, wScrn=  0.000000
 CW=    0.222036    0.777964
 WU=    0.000000   12.500000
 Enter PrismC: JobTyp=22 DoJE=F Cont=F.
 Enter PrismC: JobTyp=22 DoJE=F Cont=F.
 Linear combination for Coulomb/exchange, wScrn=  0.000000
 CW=    0.222036    0.777964
 WU=    0.000000   12.500000
 Linear combination for Coulomb/exchange, wScrn=  0.000000
 CW=    0.222036    0.777964
 WU=    0.000000   12.500000
 Enter PrismC: JobTyp=22 DoJE=F Cont=F.
 Linear combination for Coulomb/exchange, wScrn=  0.000000
 CW=    0.222036    0.777964
 WU=    0.000000   12.500000
 Enter PrismC: JobTyp=22 DoJE=F Cont=F.
 Linear combination for Coulomb/exchange, wScrn=  0.000000
 CW=    0.222036    0.777964
 WU=    0.000000   12.500000
 PrismC was handed    13004715 working-precision words and  4806 shell-pairs
 Enter PrismC: JobTyp=22 DoJE=F Cont=F.
 Linear combination for Coulomb/exchange, wScrn=  0.000000
 CW=    0.222036    0.777964
 WU=    0.000000   12.500000
 WU=    0.000000   12.500000
 PrismC was handed    13004715 working-precision words and  4806 shell-pairs
 Enter PrismC: JobTyp=22 DoJE=F Cont=F.
 Linear combination for Coulomb/exchange, wScrn=  0.000000
 CW=    0.222036    0.777964
 WU=    0.000000   12.500000
 Enter PrismC: JobTyp=22 DoJE=F Cont=F.
 Linear combination for Coulomb/exchange, wScrn=  0.000000
 CW=    0.222036    0.777964
 WU=    0.000000   12.500000
 Enter PrismC: JobTyp=22 DoJE=F Cont=F.
 Linear combination for Coulomb/exchange, wScrn=  0.000000
 CW=    0.222036    0.777964
 WU=    0.000000   12.500000
 PrismC was handed    13004715 working-precision words and  4806 shell-pairs
 Linear combination for Coulomb/exchange, wScrn=  0.000000
 CW=    0.222036    0.777964
 WU=    0.000000   12.500000
 PrismC was handed    13004715 working-precision words and  4806 shell-pairs
 PrismC was handed    13004715 working-precision words and  4806 shell-pairs
 Enter PrismC: JobTyp=22 DoJE=F Cont=F.
 Enter PrismC: JobTyp=22 DoJE=F Cont=F.
 Linear combination for Coulomb/exchange, wScrn=  0.000000
 CW=    0.222036    0.777964
 WU=    0.000000   12.500000
 PrismC was handed    13004715 working-precision words and  4806 shell-pairs
 PrismC was handed    13004715 working-precision words and  4806 shell-pairs
 WU=    0.000000   12.500000
 PrismC was handed    13004715 working-precision words and  4806 shell-pairs
 PrismC was handed    13004715 working-precision words and  4806 shell-pairs
 Enter PrismC: JobTyp=22 DoJE=F Cont=F.
 Linear combination for Coulomb/exchange, wScrn=  0.000000
 CW=    0.222036    0.777964
 WU=    0.000000   12.500000
 PrismC was handed    13004715 working-precision words and  4806 shell-pairs
 Enter PrismC: JobTyp=22 DoJE=F Cont=F.
 Linear combination for Coulomb/exchange, wScrn=  0.000000
 CW=    0.222036    0.777964
 WU=    0.000000   12.500000
 Linear combination for Coulomb/exchange, wScrn=  0.000000
 CW=    0.222036    0.777964
 WU=    0.000000   12.500000
 PrismC was handed    13004715 working-precision words and  4806 shell-pairs
 PrismC was handed    13004715 working-precision words and  4806 shell-pairs
 Linear combination for Coulomb/exchange, wScrn=  0.000000
 CW=    0.222036    0.777964
 WU=    0.000000   12.500000
 PrismC was handed    13004715 working-precision words and  4806 shell-pairs
 Linear combination for Coulomb/exchange, wScrn=  0.000000
 CW=    0.222036    0.777964
 WU=    0.000000   12.500000
 PrismC was handed    13004715 working-precision words and  4806 shell-pairs
 Enter PrismC: JobTyp=22 DoJE=F Cont=F.
 Linear combination for Coulomb/exchange, wScrn=  0.000000
 CW=    0.222036    0.777964
 WU=    0.000000   12.500000
 PrismC was handed    13004715 working-precision words and  4806 shell-pairs
 Linear combination for Coulomb/exchange, wScrn=  0.000000
 CW=    0.222036    0.777964
 WU=    0.000000   12.500000
 PrismC was handed    13004715 working-precision words and  4806 shell-pairs
 PrismC:  IPart=     0 DynPar=T LinDyn=F Incr=        1024 UseFst=F UseS4=T IGathr=2.
 PrismC was handed    13004715 working-precision words and  4806 shell-pairs
 Enter PrismC: JobTyp=22 DoJE=F Cont=F.
 Linear combination for Coulomb/exchange, wScrn=  0.000000
 CW=    0.222036    0.777964
 WU=    0.000000   12.500000
 Linear combination for Coulomb/exchange, wScrn=  0.000000
 CW=    0.222036    0.777964
 WU=    0.000000   12.500000
 Enter PrismC: JobTyp=22 DoJE=F Cont=F.
 Linear combination for Coulomb/exchange, wScrn=  0.000000
 CW=    0.222036    0.777964
 WU=    0.000000   12.500000
 PrismC was handed    13004715 working-precision words and  4806 shell-pairs
 PrismC was handed    13004715 working-precision words and  4806 shell-pairs
 Enter PrismC: JobTyp=22 DoJE=F Cont=F.
 Linear combination for Coulomb/exchange, wScrn=  0.000000
 Enter PrismC: JobTyp=22 DoJE=F Cont=F.
 Linear combination for Coulomb/exchange, wScrn=  0.000000
 CW=    0.222036    0.777964
 WU=    0.000000   12.500000
 PrismC was handed    13004715 working-precision words and  4806 shell-pairs
 PrismC was handed    13004715 working-precision words and  4806 shell-pairs
 Enter PrismC: JobTyp=22 DoJE=F Cont=F.
 Linear combination for Coulomb/exchange, wScrn=  0.000000
 CW=    0.222036    0.777964
 WU=    0.000000   12.500000
 PrismC was handed    13004715 working-precision words and  4806 shell-pairs
 PrismC was handed    13004715 working-precision words and  4806 shell-pairs
 Enter PrismC: JobTyp=22 DoJE=F Cont=F.
 PrismC was handed    13004715 working-precision words and  4806 shell-pairs
 Enter PrismC: JobTyp=22 DoJE=F Cont=F.
 Linear combination for Coulomb/exchange, wScrn=  0.000000
 CW=    0.222036    0.777964
 WU=    0.000000   12.500000
 PrismC was handed    13004715 working-precision words and  4806 shell-pairs
 PrismC was handed    13004715 working-precision words and  4806 shell-pairs
 Linear combination for Coulomb/exchange, wScrn=  0.000000
 CW=    0.222036    0.777964
 WU=    0.000000   12.500000
 PrismC was handed    13004715 working-precision words and  4806 shell-pairs
 CW=    0.222036    0.777964
 WU=    0.000000   12.500000
 PrismC was handed    13004715 working-precision words and  4806 shell-pairs
 Linear combination for Coulomb/exchange, wScrn=  0.000000
 CW=    0.222036    0.777964
 WU=    0.000000   12.500000
 Linear combination for Coulomb/exchange, wScrn=  0.000000
 CW=    0.222036    0.777964
 WU=    0.000000   12.500000
 PrismC was handed    13004715 working-precision words and  4806 shell-pairs
 PrismC was handed    13004715 working-precision words and  4806 shell-pairs
 Enter PrismC: JobTyp=22 DoJE=F Cont=F.
 PrismC was handed    13004715 working-precision words and  4806 shell-pairs
 Linear combination for Coulomb/exchange, wScrn=  0.000000
 CW=    0.222036    0.777964
 WU=    0.000000   12.500000
 PrismC was handed    13004715 working-precision words and  4806 shell-pairs
 IPart= 26 NShTot=      235888 NShNF=      235888 NShFF=           0 NBatch=        5923 AvBLen=        39.8
 IPart= 19 NShTot=      289340 NShNF=      289340 NShFF=           0 NBatch=        5667 AvBLen=        51.1
 IPart= 16 NShTot=      243732 NShNF=      243732 NShFF=           0 NBatch=        6029 AvBLen=        40.4
 IPart= 17 NShTot=      235084 NShNF=      235084 NShFF=           0 NBatch=        6146 AvBLen=        38.2
 IPart= 20 NShTot=      244650 NShNF=      244650 NShFF=           0 NBatch=        5884 AvBLen=        41.6
 IPart= 23 NShTot=      260886 NShNF=      260886 NShFF=           0 NBatch=        6471 AvBLen=        40.3
 IPart=  2 NShTot=      242752 NShNF=      242752 NShFF=           0 NBatch=        6226 AvBLen=        39.0
 IPart=  8 NShTot=      250473 NShNF=      250473 NShFF=           0 NBatch=        6088 AvBLen=        41.1
 IPart= 27 NShTot=      256455 NShNF=      256455 NShFF=           0 NBatch=        6420 AvBLen=        39.9
 IPart= 25 NShTot=      251185 NShNF=      251185 NShFF=           0 NBatch=        6454 AvBLen=        38.9
 IPart=  9 NShTot=      262505 NShNF=      262505 NShFF=           0 NBatch=        6075 AvBLen=        43.2
 IPart= 18 NShTot=      226806 NShNF=      226806 NShFF=           0 NBatch=        5171 AvBLen=        43.9
 IPart=  0 NShTot=      226618 NShNF=      226618 NShFF=           0 NBatch=        6081 AvBLen=        37.3
 IPart= 13 NShTot=      270525 NShNF=      270525 NShFF=           0 NBatch=        6473 AvBLen=        41.8
 IPart= 12 NShTot=      227102 NShNF=      227102 NShFF=           0 NBatch=        6448 AvBLen=        35.2
 IPart= 11 NShTot=      243154 NShNF=      243154 NShFF=           0 NBatch=        5715 AvBLen=        42.5
 IPart=  7 NShTot=      244247 NShNF=      244247 NShFF=           0 NBatch=        5531 AvBLen=        44.2
 IPart= 28 NShTot=      262544 NShNF=      262544 NShFF=           0 NBatch=        6414 AvBLen=        40.9
 IPart= 15 NShTot=      250751 NShNF=      250751 NShFF=           0 NBatch=        6276 AvBLen=        40.0
 IPart= 24 NShTot=      242471 NShNF=      242471 NShFF=           0 NBatch=        6254 AvBLen=        38.8
 IPart= 14 NShTot=      233490 NShNF=      233490 NShFF=           0 NBatch=        5801 AvBLen=        40.2
 IPart= 10 NShTot=      235575 NShNF=      235575 NShFF=           0 NBatch=        6512 AvBLen=        36.2
 IPart=  1 NShTot=      250034 NShNF=      250034 NShFF=           0 NBatch=        6660 AvBLen=        37.5
 IPart=  6 NShTot=      235470 NShNF=      235470 NShFF=           0 NBatch=        6524 AvBLen=        36.1
 IPart= 29 NShTot=      282932 NShNF=      282932 NShFF=           0 NBatch=        5990 AvBLen=        47.2
 IPart= 30 NShTot=      244787 NShNF=      244787 NShFF=           0 NBatch=        6252 AvBLen=        39.2
 IPart=  4 NShTot=      244498 NShNF=      244498 NShFF=           0 NBatch=        6136 AvBLen=        39.8
 IPart= 21 NShTot=      209439 NShNF=      209439 NShFF=           0 NBatch=        5355 AvBLen=        39.1
 IPart=  5 NShTot=      231328 NShNF=      231328 NShFF=           0 NBatch=        6494 AvBLen=        35.6
 IPart= 31 NShTot=      246423 NShNF=      246423 NShFF=           0 NBatch=        5917 AvBLen=        41.6
 IPart=  3 NShTot=      239265 NShNF=      239265 NShFF=           0 NBatch=        5882 AvBLen=        40.7
 IPart= 22 NShTot=      242424 NShNF=      242424 NShFF=           0 NBatch=        6219 AvBLen=        39.0
 CoulSu:  NxtVal=       12558337.
 ReadGW:  IGet=0 IStart=           1 Next=           1 LGW=           0.
 Remaining memory in FofDFT      399.83 Mw
 CkSvGd:  ISavGI=        -1 IRadAn=       5 IRASav=       5 ISavGd=        -1.
 CalDSu:  NPrtUS=  32 ThrOK=T IAlg=1 NPAlg=2 DoDPD=T LenP=       45150 LenD1P=             0.
 IPart=  0 IRanGd=          0 ScrnBf=T ScrnGd=T RCrit=4.00D+00 DoMicB=T.
 IPart=  1         8979 of        10074 points in      17 batches and       39 microbatches, Max-NSigAt=      12 Max-NSgAt2=      12
 IPart= 22         8107 of         9376 points in      17 batches and       43 microbatches, Max-NSigAt=      12 Max-NSgAt2=      12
 IPart= 28         7364 of         8368 points in      14 batches and       45 microbatches, Max-NSigAt=      12 Max-NSgAt2=      12
 IPart= 19         8251 of         9224 points in      16 batches and       54 microbatches, Max-NSigAt=      12 Max-NSgAt2=      12
 IPart=  3         8089 of         8992 points in      16 batches and       46 microbatches, Max-NSigAt=      12 Max-NSgAt2=      12
 IPart= 23         8626 of         9794 points in      18 batches and       41 microbatches, Max-NSigAt=      12 Max-NSgAt2=      12
 IPart=  2         5829 of         6838 points in      12 batches and       64 microbatches, Max-NSigAt=      12 Max-NSgAt2=      12
 IPart=  5         8186 of         8508 points in      15 batches and       39 microbatches, Max-NSigAt=      12 Max-NSgAt2=      12
 IPart=  4         6152 of         7198 points in      12 batches and       76 microbatches, Max-NSigAt=      12 Max-NSgAt2=      12
 IPart=  6         7058 of         8048 points in      14 batches and       66 microbatches, Max-NSigAt=      12 Max-NSgAt2=      12
 IPart=  7         7864 of         8984 points in      15 batches and       59 microbatches, Max-NSigAt=      12 Max-NSgAt2=      12
 IPart= 13         8019 of         9526 points in      16 batches and       42 microbatches, Max-NSigAt=      12 Max-NSgAt2=      12
 IPart= 11         6900 of         7732 points in      13 batches and       67 microbatches, Max-NSigAt=      12 Max-NSgAt2=      12
 IPart= 20         7015 of         8152 points in      14 batches and       71 microbatches, Max-NSigAt=      12 Max-NSgAt2=      12
 IPart= 25         6975 of         7704 points in      13 batches and       56 microbatches, Max-NSigAt=      12 Max-NSgAt2=      12
 IPart= 17         8199 of         8698 points in      15 batches and       45 microbatches, Max-NSigAt=      12 Max-NSgAt2=      12
 IPart= 18         7790 of         8134 points in      14 batches and       35 microbatches, Max-NSigAt=      12 Max-NSgAt2=      12
 IPart= 24         7644 of         8954 points in      15 batches and       64 microbatches, Max-NSigAt=      12 Max-NSgAt2=      12
 IPart=  0         7613 of         9016 points in      16 batches and       49 microbatches, Max-NSigAt=      12 Max-NSgAt2=      12
 IPart= 31         6738 of         7342 points in      13 batches and       52 microbatches, Max-NSigAt=      12 Max-NSgAt2=      12
 IPart= 26         7596 of         8324 points in      14 batches and       45 microbatches, Max-NSigAt=      12 Max-NSgAt2=      12
 IPart= 10         8578 of         8894 points in      15 batches and       39 microbatches, Max-NSigAt=      12 Max-NSgAt2=      12
 IPart= 16         8302 of        10150 points in      18 batches and       45 microbatches, Max-NSigAt=      12 Max-NSgAt2=      12
 IPart= 27         7396 of         8326 points in      14 batches and       52 microbatches, Max-NSigAt=      12 Max-NSgAt2=      12
 IPart= 21         7796 of         8946 points in      15 batches and       47 microbatches, Max-NSigAt=      12 Max-NSgAt2=      12
 IPart= 15         7368 of         8350 points in      14 batches and       64 microbatches, Max-NSigAt=      12 Max-NSgAt2=      12
 IPart= 29         7771 of         9512 points in      16 batches and       34 microbatches, Max-NSigAt=      12 Max-NSgAt2=      12
 IPart= 30         7689 of         8716 points in      15 batches and       50 microbatches, Max-NSigAt=      12 Max-NSgAt2=      12
 IPart=  8         8288 of         9188 points in      16 batches and       49 microbatches, Max-NSigAt=      12 Max-NSgAt2=      12
 IPart= 14         7621 of         8634 points in      15 batches and       54 microbatches, Max-NSigAt=      12 Max-NSgAt2=      12
 IPart= 12         7224 of         8388 points in      15 batches and       49 microbatches, Max-NSigAt=      12 Max-NSgAt2=      12
 IPart=  9         6561 of         7564 points in      13 batches and       68 microbatches, Max-NSigAt=      12 Max-NSgAt2=      12
 Polarizability after L703:
                1             2             3 
      1  0.476652D+02
      2 -0.609079D+00  0.509973D+02
      3  0.164526D+01  0.183983D+01  0.510234D+02
 Dipole Derivatives after L703:
                 1             2             3             4             5 
      1   0.161137D+00 -0.126766D+00 -0.617975D-01 -0.259161D+00  0.252947D-01
      2  -0.139187D+00 -0.325934D+00  0.120442D-01  0.267215D-01 -0.333763D+00
      3  -0.517392D-01 -0.519647D-01  0.854481D+00  0.808062D-01 -0.658798D-01
                 6             7             8             9            10 
      1   0.762057D-01 -0.485485D-01 -0.329629D-03  0.122917D-02 -0.320261D-01
      2  -0.924785D-01  0.172261D-01  0.170932D+00  0.256992D-01  0.867722D-01
      3  -0.114758D+01  0.562652D-01  0.335113D-01  0.125813D-01 -0.496163D-01
                11            12            13            14            15 
      1   0.963166D-01  0.442321D-02  0.185590D+00  0.322215D-02 -0.236883D-01
      2   0.136141D+00  0.348835D-01  0.290341D-02  0.345459D+00  0.121484D-01
      3   0.541711D-01 -0.214230D-01 -0.396427D-01  0.262156D-01  0.304560D+00
                16            17            18            19            20 
      1   0.903429D-01 -0.111526D+00 -0.610630D-02  0.225157D-01  0.629785D-01
      2  -0.105842D+00 -0.347335D+00 -0.374609D-01  0.306110D-01  0.915106D-01
      3  -0.124910D-01 -0.501834D-01  0.116287D+00 -0.752657D-02  0.274408D-01
                21            22            23            24            25 
      1  -0.132202D-01  0.119391D-01  0.285926D-01 -0.255851D-01 -0.956674D-01
      2   0.244655D-01  0.271904D-01  0.143058D+00  0.132980D-01  0.413700D-01
      3   0.173065D-01  0.667489D-02  0.135839D-01 -0.106981D+00  0.173334D-01
                26            27            28            29            30 
      1   0.374962D-01  0.468172D-01  0.311911D-01  0.883698D-05 -0.181795D-01
      2   0.139423D+00  0.690854D-02  0.259075D-01  0.686474D-01 -0.641531D-01
      3   0.131557D-01 -0.251316D-02  0.428778D-02 -0.748469D-01 -0.112136D+00
                31            32            33            34            35 
      1   0.396671D-01  0.551410D-01 -0.372127D-01 -0.106980D+00 -0.704291D-01
      2   0.226126D-01 -0.155688D+00  0.216895D-01 -0.362857D-01  0.675496D-01
      3  -0.357381D-01  0.431725D-01  0.621312D-01  0.313864D-01  0.316240D-01
                36 
      1   0.571142D-01
      2   0.429555D-01
      3   0.232891D-01
 Hessian after L703:
                1             2             3             4             5 
      1  0.661473D+00
      2 -0.127975D+00  0.752854D-01
      3 -0.213236D-01 -0.574967D-01  0.602987D+00
      4 -0.986902D-01  0.176080D-01  0.231631D-01  0.570950D+00
      5  0.161648D-01 -0.784998D-02 -0.109104D-01 -0.551185D-01  0.154774D-01
      6 -0.248717D-01  0.776635D-02 -0.375077D+00 -0.154744D+00  0.617764D-02
      7 -0.317308D+00  0.137258D-01  0.110784D+00  0.664239D-02 -0.138624D-02
      8 -0.268733D-02 -0.985339D-02  0.765000D-02  0.114216D-03 -0.230044D-02
      9  0.938352D-01  0.471412D-02 -0.922865D-01  0.357887D-01 -0.639284D-03
     10 -0.244046D+00  0.964959D-01 -0.105335D+00  0.812854D-02 -0.768186D-03
     11  0.113487D+00 -0.555513D-01  0.593186D-01 -0.492796D-02  0.325065D-02
     12 -0.952377D-01  0.498287D-01 -0.112798D+00 -0.248744D-01  0.146756D-01
     13 -0.126751D-02 -0.203706D-03 -0.739614D-02 -0.487057D+00  0.411191D-01
     14  0.547451D-03 -0.182569D-02  0.848132D-03  0.423525D-01 -0.896211D-02
     15  0.473546D-01 -0.513561D-02 -0.228799D-01  0.120712D+00 -0.939118D-02
     16 -0.132086D-03  0.163145D-04  0.370721D-03 -0.561001D-04  0.117669D-03
     17  0.485104D-03  0.574201D-03  0.598980D-03 -0.322874D-04  0.150702D-03
     18  0.395151D-03  0.549058D-03 -0.119785D-04 -0.861974D-04 -0.414237D-04
     19  0.858004D-04  0.228616D-03 -0.140529D-03 -0.309275D-04 -0.336513D-04
     20 -0.250996D-04 -0.737097D-03  0.372844D-03  0.573487D-04  0.132988D-03
     21  0.489355D-04  0.312047D-03  0.334423D-03  0.161821D-05  0.177035D-03
     22  0.192617D-04  0.284238D-04 -0.640535D-04  0.174498D-04 -0.120277D-04
     23  0.548516D-04  0.887740D-04 -0.157237D-03 -0.343955D-04  0.148623D-04
     24 -0.278326D-04 -0.409517D-04 -0.146830D-03  0.000000D+00 -0.324382D-04
     25 -0.125887D-04  0.149090D-03 -0.627342D-04  0.723227D-04  0.155428D-05
     26 -0.158968D-03  0.847155D-04 -0.107152D-03  0.663276D-04 -0.172254D-04
     27 -0.605370D-05 -0.112127D-04  0.877852D-04  0.178272D-04  0.362395D-04
     28  0.570807D-05 -0.110893D-04 -0.987709D-04 -0.118509D-03 -0.374849D-04
     29  0.288265D-04 -0.113940D-03 -0.511259D-04 -0.358593D-04  0.138202D-03
     30 -0.151306D-03 -0.431006D-03  0.908078D-04  0.819267D-04  0.810666D-05
     31 -0.415358D-04  0.179127D-04 -0.460047D-04  0.429369D-04 -0.287959D-04
     32 -0.340861D-04 -0.249732D-03  0.206773D-03  0.442060D-04 -0.267862D-04
     33 -0.811533D-04 -0.198447D-03 -0.732956D-04  0.343561D-04  0.830161D-05
     34 -0.855974D-04 -0.806537D-04  0.148932D-03  0.986291D-04 -0.183314D-04
     35  0.111753D-03  0.147982D-03 -0.272713D-03 -0.936305D-04 -0.824561D-05
     36  0.655054D-04  0.143620D-03 -0.225772D-03 -0.938397D-04 -0.681486D-04
                6             7             8             9            10 
      6  0.510549D+00
      7 -0.539137D-03  0.318523D+00
      8  0.141298D-02 -0.806497D-02  0.808228D-02
      9 -0.200805D-01 -0.117209D+00 -0.463670D-02  0.109896D+00
     10  0.481300D-02 -0.102559D-01  0.101604D-01 -0.123800D-01  0.243748D+00
     11 -0.105156D-03 -0.414647D-02  0.892344D-03 -0.476541D-03 -0.104157D+00
     12 -0.257460D-01  0.890867D-02 -0.456506D-02  0.891444D-02  0.113727D+00
     13  0.175268D+00  0.232322D-02  0.483238D-03 -0.462396D-04  0.243401D-02
     14 -0.151645D-01 -0.186540D-03  0.309158D-02  0.102868D-02 -0.156780D-02
     15 -0.897925D-01 -0.196996D-02  0.104542D-03 -0.641980D-02 -0.762755D-03
     16 -0.243714D-03 -0.582776D-04 -0.135421D-03 -0.222672D-04 -0.335301D-04
     17  0.943689D-04  0.172017D-03  0.143645D-03 -0.127683D-04 -0.245505D-03
     18  0.769048D-04  0.352182D-05 -0.110396D-04  0.264239D-04 -0.112439D-03
     19  0.247685D-03  0.100654D-04 -0.102000D-03 -0.477764D-04 -0.740657D-04
     20 -0.611765D-03  0.170200D-04  0.105603D-03  0.181900D-04  0.275405D-04
     21 -0.253016D-03  0.000000D+00  0.121024D-04 -0.103039D-04 -0.337190D-04
     22  0.689670D-04  0.574633D-05  0.115749D-04 -0.101869D-04  0.111523D-04
     23  0.233432D-03 -0.408942D-04 -0.309194D-04 -0.100835D-04  0.209783D-04
     24  0.229068D-03 -0.186935D-04 -0.122424D-05 -0.176825D-04  0.251626D-04
     25  0.914794D-04  0.434252D-04  0.494601D-04  0.158325D-04  0.277717D-04
     26  0.682399D-04  0.598584D-05 -0.505348D-04  0.177123D-04  0.471762D-04
     27 -0.110895D-03 -0.120939D-04  0.504672D-05 -0.214361D-04  0.154496D-04
     28  0.121439D-03 -0.427355D-04 -0.733887D-04  0.325788D-04 -0.318938D-04
     29  0.744430D-04 -0.513813D-04 -0.551129D-04  0.994482D-05 -0.504938D-05
     30 -0.138949D-03  0.607350D-04  0.119929D-03 -0.242022D-04  0.639635D-04
     31  0.383329D-04  0.384043D-04  0.895555D-04  0.106220D-04  0.451635D-04
     32 -0.275840D-03  0.397011D-04  0.990284D-04  0.186694D-05  0.225670D-04
     33  0.114630D-03  0.188991D-04  0.205383D-04 -0.103441D-04  0.326201D-04
     34 -0.249614D-03  0.791746D-04  0.154634D-03  0.327727D-04  0.470828D-04
     35  0.329773D-03 -0.840300D-04 -0.124074D-03 -0.151424D-04 -0.312548D-04
     36  0.229705D-03 -0.270973D-04 -0.111115D-03  0.340121D-04 -0.532828D-04
               11            12            13            14            15 
     11  0.521032D-01
     12 -0.595905D-01  0.127931D+00
     13 -0.228498D-03 -0.252344D-02  0.483580D+00
     14 -0.663094D-03 -0.301996D-03 -0.411733D-01  0.839351D-02
     15  0.855159D-03  0.174615D-02 -0.165310D+00  0.135478D-01  0.117293D+00
     16  0.157572D-03 -0.121945D-05  0.604122D-04  0.557072D-04  0.613789D-04
     17  0.151994D-03 -0.655198D-04 -0.174688D-04  0.827739D-04  0.155491D-03
     18 -0.396658D-04 -0.407702D-05  0.000000D+00 -0.197925D-05  0.106051D-04
     19  0.433467D-04  0.300555D-04 -0.705139D-05  0.144429D-05  0.194129D-04
     20 -0.327736D-04 -0.844368D-05 -0.459375D-04 -0.680462D-04  0.415648D-04
     21  0.301487D-04 -0.472910D-04  0.637212D-04 -0.150803D-03 -0.127072D-04
     22 -0.440230D-04  0.139155D-04 -0.255699D-04 -0.301711D-04 -0.213887D-04
     23 -0.580598D-04 -0.152355D-04  0.279784D-04  0.110050D-04 -0.258908D-04
     24 -0.302133D-04 -0.177247D-04  0.695362D-05  0.657170D-04 -0.162178D-05
     25 -0.131348D-03 -0.788538D-05 -0.199321D-04 -0.804831D-04 -0.618298D-04
     26 -0.105212D-03  0.233110D-04 -0.149816D-04 -0.490187D-04 -0.871806D-04
     27  0.198585D-04  0.374184D-05 -0.105218D-04 -0.596652D-04  0.634735D-05
     28  0.626648D-04  0.654742D-05  0.235258D-04  0.134899D-03  0.434142D-05
     29  0.150213D-05  0.816068D-05  0.590276D-04 -0.650001D-04 -0.101443D-03
     30 -0.742904D-05 -0.199234D-04 -0.452959D-04  0.763234D-04  0.566670D-04
     31 -0.524350D-04 -0.167313D-04 -0.565676D-05 -0.766664D-05 -0.199703D-04
     32 -0.133784D-05 -0.136923D-04 -0.371445D-04  0.372336D-04  0.568032D-04
     33 -0.166444D-04  0.416814D-05 -0.237937D-04  0.406844D-04  0.170709D-04
     34 -0.633427D-04 -0.247693D-04 -0.391293D-04 -0.460620D-04 -0.622002D-05
     35  0.120760D-04  0.246591D-04  0.316266D-04  0.168595D-04 -0.200098D-04
     36  0.423522D-04  0.337509D-04  0.158803D-04  0.716135D-04 -0.232115D-04
               16            17            18            19            20 
     16  0.560905D+00
     17 -0.101292D+00  0.786410D-01
     18 -0.456974D-01 -0.407298D-01  0.604081D+00
     19 -0.184484D+00  0.415337D-01 -0.696090D-01  0.523796D+00
     20  0.359014D-01 -0.523806D-01  0.233582D-01  0.136316D-01  0.481371D+00
     21 -0.692903D-01  0.270546D-01 -0.137720D+00 -0.326949D-01  0.141265D-01
     22 -0.564017D-01  0.800651D-02  0.256458D-01  0.501511D-02 -0.656465D-03
     23  0.920647D-02 -0.125726D-01  0.101598D-01 -0.292913D-02  0.347710D-02
     24  0.250061D-01  0.144012D-01 -0.346295D+00  0.403287D-02 -0.198635D-02
     25 -0.292415D+00  0.390499D-01  0.111254D+00 -0.134176D-01 -0.416088D-03
     26  0.356795D-01 -0.150457D-01 -0.755510D-02  0.760654D-02  0.277936D-02
     27  0.112002D+00 -0.101982D-01 -0.107410D+00 -0.164233D-01  0.131908D-02
     28  0.324419D-02 -0.790100D-02 -0.263800D-01 -0.519030D-01  0.563402D-02
     29  0.587162D-04  0.277771D-02  0.120086D-01  0.591048D-02 -0.817664D-01
     30  0.257713D-03 -0.330839D-02 -0.182165D-01  0.215130D-01 -0.946301D-01
     31 -0.670361D-02  0.240822D-01 -0.583893D-02 -0.412682D-01  0.198283D-01
     32  0.885937D-02 -0.433796D-02  0.633732D-02  0.864318D-02 -0.283352D+00
     33 -0.515638D-02  0.170187D-01 -0.427796D-02  0.324284D-03  0.252586D-01
     34 -0.239249D-01 -0.384080D-02  0.104247D-01 -0.237722D+00 -0.739536D-01
     35  0.113750D-01  0.181476D-02 -0.403395D-02 -0.745341D-01 -0.695292D-01
     36 -0.172863D-01 -0.500855D-02  0.974060D-02  0.927482D-01  0.327416D-01
               21            22            23            24            25 
     21  0.546839D+00
     22 -0.228977D-01  0.516454D-01
     23  0.942184D-02 -0.825483D-02  0.637499D-02
     24 -0.939071D-02 -0.241078D-01 -0.143100D-01  0.362070D+00
     25  0.106915D-01  0.175981D-02  0.126779D-03 -0.227067D-02  0.306225D+00
     26 -0.597592D-02 -0.732850D-03  0.325318D-02  0.452567D-03 -0.406079D-01
     27  0.977078D-02  0.248915D-01 -0.280946D-02 -0.648265D-02 -0.117145D+00
     28  0.204378D-01 -0.328541D-02  0.114834D-02 -0.218740D-02  0.104143D-02
     29 -0.956430D-01  0.182857D-02  0.158003D-05  0.152655D-02 -0.393832D-03
     30 -0.270561D+00 -0.336586D-02 -0.636114D-03 -0.383402D-03  0.212700D-04
     31 -0.190590D-03 -0.280211D-03  0.114588D-03 -0.224312D-03 -0.822459D-03
     32  0.174750D-01  0.544305D-03 -0.644253D-03  0.871694D-04  0.263153D-03
     33 -0.434205D-01 -0.691310D-03 -0.104969D-02 -0.487383D-03 -0.319636D-04
     34  0.938633D-01  0.151898D-02  0.559263D-03 -0.233371D-03 -0.248178D-02
     35  0.331605D-01 -0.689016D-03  0.842937D-04 -0.131957D-03  0.198970D-02
     36 -0.955277D-01  0.538200D-03 -0.801299D-03  0.923422D-03 -0.249398D-02
               26            27            28            29            30 
     26  0.960907D-02
     27  0.104640D-01  0.104199D+00
     28 -0.561475D-03  0.681383D-03  0.523946D-01
     29  0.972833D-04 -0.547501D-03 -0.108422D-01  0.887199D-01
     30  0.855443D-03  0.133447D-02 -0.186833D-01  0.101815D+00  0.295613D+00
     31 -0.953383D-03 -0.425360D-03 -0.239504D-03  0.337907D-02  0.146497D-03
     32 -0.580219D-03  0.549201D-03  0.728127D-04 -0.135337D-01  0.800825D-03
     33  0.521770D-03 -0.805484D-04  0.180760D-02 -0.303725D-01  0.277324D-02
     34 -0.375991D-03 -0.358563D-02 -0.108842D-02  0.636037D-04  0.100626D-03
     35  0.242756D-04  0.123262D-02  0.123739D-01  0.379789D-02 -0.466244D-02
     36  0.132233D-02 -0.129652D-02  0.242578D-01  0.112730D-01 -0.105240D-01
               31            32            33            34            35 
     31  0.475576D-01
     32 -0.184296D-01  0.314014D+00
     33  0.410103D-02 -0.256744D-01  0.469098D-01
     34  0.167701D-02  0.114990D-04 -0.334191D-03  0.261921D+00
     35 -0.280398D-01 -0.114240D-01  0.144431D-01  0.775898D-01  0.751875D-01
     36  0.246542D-02  0.448969D-03 -0.146888D-02 -0.100136D+00 -0.400544D-01
               36 
     36  0.981046D-01
 FrcOut:
 IF    =   646 IFX   =   711 IFXYZ =   747
 IFFX  =   783 IFFFX =  1449 IFLen =    65
 IFFLen=   666 IFFFLn=     0 IEDerv=  1449
 LEDerv=  1781 IFroze=  3636 ICStrt=147961
 DipoleDeriv   = 1.61137081D-01-1.39187499D-01-5.17392361D-02
                -1.26765943D-01-3.25934192D-01-5.19647238D-02
                -6.17975465D-02 1.20441983D-02 8.54481064D-01
                -2.59161449D-01 2.67215456D-02 8.08061967D-02
                 2.52947053D-02-3.33762664D-01-6.58798248D-02
                 7.62056613D-02-9.24784710D-02-1.14758333D+00
                -4.85484835D-02 1.72261483D-02 5.62651967D-02
                -3.29629190D-04 1.70931774D-01 3.35112734D-02
                 1.22917236D-03 2.56992461D-02 1.25812607D-02
                -3.20261419D-02 8.67721560D-02-4.96163394D-02
                 9.63166024D-02 1.36140741D-01 5.41710514D-02
                 4.42321447D-03 3.48835394D-02-2.14229764D-02
                 1.85589989D-01 2.90341258D-03-3.96426873D-02
                 3.22215369D-03 3.45458977D-01 2.62156158D-02
                -2.36882846D-02 1.21484279D-02 3.04560213D-01
                 9.03429065D-02-1.05841526D-01-1.24910475D-02
                -1.11525868D-01-3.47334566D-01-5.01834038D-02
                -6.10629689D-03-3.74609126D-02 1.16287057D-01
                 2.25157253D-02 3.06109756D-02-7.52657432D-03
                 6.29784752D-02 9.15106431D-02 2.74408294D-02
                -1.32201675D-02 2.44654859D-02 1.73064800D-02
                 1.19390717D-02 2.71903620D-02 6.67488514D-03
                 2.85926210D-02 1.43057589D-01 1.35838856D-02
                -2.55850579D-02 1.32980165D-02-1.06981264D-01
                -9.56673569D-02 4.13699923D-02 1.73334337D-02
                 3.74961578D-02 1.39422891D-01 1.31556902D-02
                 4.68171883D-02 6.90854172D-03-2.51316326D-03
                 3.11911392D-02 2.59075330D-02 4.28777776D-03
                 8.83698072D-06 6.86473910D-02-7.48468650D-02
                -1.81794608D-02-6.41531055D-02-1.12135653D-01
                 3.96671333D-02 2.26125570D-02-3.57380525D-02
                 5.51410055D-02-1.55688210D-01 4.31724601D-02
                -3.72126595D-02 2.16894973D-02 6.21312378D-02
                -1.06979613D-01-3.62856576D-02 3.13864470D-02
                -7.04291180D-02 6.75496295D-02 3.16240114D-02
                 5.71142372D-02 4.29555360D-02 2.32890746D-02
 -------------------------------------------------------------------
 Center     Atomic                   Forces (Hartrees/Bohr)
 Number     Number              X              Y              Z
 -------------------------------------------------------------------
      1        6          -0.000436749   -0.000198174   -0.000914876
      2        8           0.000018987   -0.000406270    0.000445749
      3        1          -0.000071381   -0.000201824   -0.000018050
      4        1           0.000186137   -0.000175900    0.000057383
      5        1           0.000012379    0.000037955   -0.000089691
      6        6           0.000243249    0.001002872    0.000406252
      7        6           0.000149297   -0.000518389    0.000646603
      8        1          -0.000010672    0.000108764   -0.000030504
      9        1           0.000008439   -0.000037263    0.000039526
     10        1           0.000124180    0.000462393   -0.000442059
     11        1          -0.000034026   -0.000242062   -0.000259881
     12        1          -0.000189840    0.000167898    0.000159548
 -------------------------------------------------------------------
 Cartesian Forces:  Max     0.001002872 RMS     0.000339624
 Force constants in Cartesian coordinates: 
                1             2             3             4             5 
      1  0.661473D+00
      2 -0.127975D+00  0.752854D-01
      3 -0.213236D-01 -0.574967D-01  0.602987D+00
      4 -0.986902D-01  0.176080D-01  0.231631D-01  0.570950D+00
      5  0.161648D-01 -0.784998D-02 -0.109104D-01 -0.551185D-01  0.154774D-01
      6 -0.248717D-01  0.776635D-02 -0.375077D+00 -0.154744D+00  0.617764D-02
      7 -0.317308D+00  0.137258D-01  0.110784D+00  0.664239D-02 -0.138624D-02
      8 -0.268733D-02 -0.985339D-02  0.765000D-02  0.114216D-03 -0.230044D-02
      9  0.938352D-01  0.471412D-02 -0.922865D-01  0.357887D-01 -0.639284D-03
     10 -0.244046D+00  0.964959D-01 -0.105335D+00  0.812854D-02 -0.768186D-03
     11  0.113487D+00 -0.555513D-01  0.593186D-01 -0.492796D-02  0.325065D-02
     12 -0.952377D-01  0.498287D-01 -0.112798D+00 -0.248744D-01  0.146756D-01
     13 -0.126751D-02 -0.203706D-03 -0.739614D-02 -0.487057D+00  0.411191D-01
     14  0.547451D-03 -0.182569D-02  0.848132D-03  0.423525D-01 -0.896211D-02
     15  0.473546D-01 -0.513561D-02 -0.228799D-01  0.120712D+00 -0.939118D-02
     16 -0.132086D-03  0.163145D-04  0.370721D-03 -0.561001D-04  0.117669D-03
     17  0.485104D-03  0.574201D-03  0.598980D-03 -0.322874D-04  0.150702D-03
     18  0.395151D-03  0.549058D-03 -0.119785D-04 -0.861974D-04 -0.414237D-04
     19  0.858004D-04  0.228616D-03 -0.140529D-03 -0.309275D-04 -0.336513D-04
     20 -0.250996D-04 -0.737097D-03  0.372844D-03  0.573487D-04  0.132988D-03
     21  0.489355D-04  0.312047D-03  0.334423D-03  0.161821D-05  0.177035D-03
     22  0.192617D-04  0.284238D-04 -0.640535D-04  0.174498D-04 -0.120277D-04
     23  0.548516D-04  0.887740D-04 -0.157237D-03 -0.343955D-04  0.148623D-04
     24 -0.278326D-04 -0.409517D-04 -0.146830D-03  0.000000D+00 -0.324382D-04
     25 -0.125887D-04  0.149090D-03 -0.627342D-04  0.723227D-04  0.155428D-05
     26 -0.158968D-03  0.847155D-04 -0.107152D-03  0.663276D-04 -0.172254D-04
     27 -0.605370D-05 -0.112127D-04  0.877852D-04  0.178272D-04  0.362395D-04
     28  0.570807D-05 -0.110893D-04 -0.987709D-04 -0.118509D-03 -0.374849D-04
     29  0.288265D-04 -0.113940D-03 -0.511259D-04 -0.358593D-04  0.138202D-03
     30 -0.151306D-03 -0.431006D-03  0.908078D-04  0.819267D-04  0.810666D-05
     31 -0.415358D-04  0.179127D-04 -0.460047D-04  0.429369D-04 -0.287959D-04
     32 -0.340861D-04 -0.249732D-03  0.206773D-03  0.442060D-04 -0.267862D-04
     33 -0.811533D-04 -0.198447D-03 -0.732956D-04  0.343561D-04  0.830161D-05
     34 -0.855974D-04 -0.806537D-04  0.148932D-03  0.986291D-04 -0.183314D-04
     35  0.111753D-03  0.147982D-03 -0.272713D-03 -0.936305D-04 -0.824561D-05
     36  0.655054D-04  0.143620D-03 -0.225772D-03 -0.938397D-04 -0.681486D-04
                6             7             8             9            10 
      6  0.510549D+00
      7 -0.539137D-03  0.318523D+00
      8  0.141298D-02 -0.806497D-02  0.808228D-02
      9 -0.200805D-01 -0.117209D+00 -0.463670D-02  0.109896D+00
     10  0.481300D-02 -0.102559D-01  0.101604D-01 -0.123800D-01  0.243748D+00
     11 -0.105156D-03 -0.414647D-02  0.892344D-03 -0.476541D-03 -0.104157D+00
     12 -0.257460D-01  0.890867D-02 -0.456506D-02  0.891444D-02  0.113727D+00
     13  0.175268D+00  0.232322D-02  0.483238D-03 -0.462396D-04  0.243401D-02
     14 -0.151645D-01 -0.186540D-03  0.309158D-02  0.102868D-02 -0.156780D-02
     15 -0.897925D-01 -0.196996D-02  0.104542D-03 -0.641980D-02 -0.762755D-03
     16 -0.243714D-03 -0.582776D-04 -0.135421D-03 -0.222672D-04 -0.335301D-04
     17  0.943689D-04  0.172017D-03  0.143645D-03 -0.127683D-04 -0.245505D-03
     18  0.769048D-04  0.352182D-05 -0.110396D-04  0.264239D-04 -0.112439D-03
     19  0.247685D-03  0.100654D-04 -0.102000D-03 -0.477764D-04 -0.740657D-04
     20 -0.611765D-03  0.170200D-04  0.105603D-03  0.181900D-04  0.275405D-04
     21 -0.253016D-03  0.000000D+00  0.121024D-04 -0.103039D-04 -0.337190D-04
     22  0.689670D-04  0.574633D-05  0.115749D-04 -0.101869D-04  0.111523D-04
     23  0.233432D-03 -0.408942D-04 -0.309194D-04 -0.100835D-04  0.209783D-04
     24  0.229068D-03 -0.186935D-04 -0.122424D-05 -0.176825D-04  0.251626D-04
     25  0.914794D-04  0.434252D-04  0.494601D-04  0.158325D-04  0.277717D-04
     26  0.682399D-04  0.598584D-05 -0.505348D-04  0.177123D-04  0.471762D-04
     27 -0.110895D-03 -0.120939D-04  0.504672D-05 -0.214361D-04  0.154496D-04
     28  0.121439D-03 -0.427355D-04 -0.733887D-04  0.325788D-04 -0.318938D-04
     29  0.744430D-04 -0.513813D-04 -0.551129D-04  0.994482D-05 -0.504938D-05
     30 -0.138949D-03  0.607350D-04  0.119929D-03 -0.242022D-04  0.639635D-04
     31  0.383329D-04  0.384043D-04  0.895555D-04  0.106220D-04  0.451635D-04
     32 -0.275840D-03  0.397011D-04  0.990284D-04  0.186694D-05  0.225670D-04
     33  0.114630D-03  0.188991D-04  0.205383D-04 -0.103441D-04  0.326201D-04
     34 -0.249614D-03  0.791746D-04  0.154634D-03  0.327727D-04  0.470828D-04
     35  0.329773D-03 -0.840300D-04 -0.124074D-03 -0.151424D-04 -0.312548D-04
     36  0.229705D-03 -0.270973D-04 -0.111115D-03  0.340121D-04 -0.532828D-04
               11            12            13            14            15 
     11  0.521032D-01
     12 -0.595905D-01  0.127931D+00
     13 -0.228498D-03 -0.252344D-02  0.483580D+00
     14 -0.663094D-03 -0.301996D-03 -0.411733D-01  0.839351D-02
     15  0.855159D-03  0.174615D-02 -0.165310D+00  0.135478D-01  0.117293D+00
     16  0.157572D-03 -0.121945D-05  0.604122D-04  0.557072D-04  0.613789D-04
     17  0.151994D-03 -0.655198D-04 -0.174688D-04  0.827739D-04  0.155491D-03
     18 -0.396658D-04 -0.407702D-05  0.000000D+00 -0.197925D-05  0.106051D-04
     19  0.433467D-04  0.300555D-04 -0.705139D-05  0.144429D-05  0.194129D-04
     20 -0.327736D-04 -0.844368D-05 -0.459375D-04 -0.680462D-04  0.415648D-04
     21  0.301487D-04 -0.472910D-04  0.637212D-04 -0.150803D-03 -0.127072D-04
     22 -0.440230D-04  0.139155D-04 -0.255699D-04 -0.301711D-04 -0.213887D-04
     23 -0.580598D-04 -0.152355D-04  0.279784D-04  0.110050D-04 -0.258908D-04
     24 -0.302133D-04 -0.177247D-04  0.695362D-05  0.657170D-04 -0.162178D-05
     25 -0.131348D-03 -0.788538D-05 -0.199321D-04 -0.804831D-04 -0.618298D-04
     26 -0.105212D-03  0.233110D-04 -0.149816D-04 -0.490187D-04 -0.871806D-04
     27  0.198585D-04  0.374184D-05 -0.105218D-04 -0.596652D-04  0.634735D-05
     28  0.626648D-04  0.654742D-05  0.235258D-04  0.134899D-03  0.434142D-05
     29  0.150213D-05  0.816068D-05  0.590276D-04 -0.650001D-04 -0.101443D-03
     30 -0.742904D-05 -0.199234D-04 -0.452959D-04  0.763234D-04  0.566670D-04
     31 -0.524350D-04 -0.167313D-04 -0.565676D-05 -0.766664D-05 -0.199703D-04
     32 -0.133784D-05 -0.136923D-04 -0.371445D-04  0.372336D-04  0.568032D-04
     33 -0.166444D-04  0.416814D-05 -0.237937D-04  0.406844D-04  0.170709D-04
     34 -0.633427D-04 -0.247693D-04 -0.391293D-04 -0.460620D-04 -0.622002D-05
     35  0.120760D-04  0.246591D-04  0.316266D-04  0.168595D-04 -0.200098D-04
     36  0.423522D-04  0.337509D-04  0.158803D-04  0.716135D-04 -0.232115D-04
               16            17            18            19            20 
     16  0.560905D+00
     17 -0.101292D+00  0.786410D-01
     18 -0.456974D-01 -0.407298D-01  0.604081D+00
     19 -0.184484D+00  0.415337D-01 -0.696090D-01  0.523796D+00
     20  0.359014D-01 -0.523806D-01  0.233582D-01  0.136316D-01  0.481371D+00
     21 -0.692903D-01  0.270546D-01 -0.137720D+00 -0.326949D-01  0.141265D-01
     22 -0.564017D-01  0.800651D-02  0.256458D-01  0.501511D-02 -0.656465D-03
     23  0.920647D-02 -0.125726D-01  0.101598D-01 -0.292913D-02  0.347710D-02
     24  0.250061D-01  0.144012D-01 -0.346295D+00  0.403287D-02 -0.198635D-02
     25 -0.292415D+00  0.390499D-01  0.111254D+00 -0.134176D-01 -0.416088D-03
     26  0.356795D-01 -0.150457D-01 -0.755510D-02  0.760654D-02  0.277936D-02
     27  0.112002D+00 -0.101982D-01 -0.107410D+00 -0.164233D-01  0.131908D-02
     28  0.324419D-02 -0.790100D-02 -0.263800D-01 -0.519030D-01  0.563402D-02
     29  0.587162D-04  0.277771D-02  0.120086D-01  0.591048D-02 -0.817664D-01
     30  0.257713D-03 -0.330839D-02 -0.182165D-01  0.215130D-01 -0.946301D-01
     31 -0.670361D-02  0.240822D-01 -0.583893D-02 -0.412682D-01  0.198283D-01
     32  0.885937D-02 -0.433796D-02  0.633732D-02  0.864318D-02 -0.283352D+00
     33 -0.515638D-02  0.170187D-01 -0.427796D-02  0.324284D-03  0.252586D-01
     34 -0.239249D-01 -0.384080D-02  0.104247D-01 -0.237722D+00 -0.739536D-01
     35  0.113750D-01  0.181476D-02 -0.403395D-02 -0.745341D-01 -0.695292D-01
     36 -0.172863D-01 -0.500855D-02  0.974060D-02  0.927482D-01  0.327416D-01
               21            22            23            24            25 
     21  0.546839D+00
     22 -0.228977D-01  0.516454D-01
     23  0.942184D-02 -0.825483D-02  0.637499D-02
     24 -0.939071D-02 -0.241078D-01 -0.143100D-01  0.362070D+00
     25  0.106915D-01  0.175981D-02  0.126779D-03 -0.227067D-02  0.306225D+00
     26 -0.597592D-02 -0.732850D-03  0.325318D-02  0.452567D-03 -0.406079D-01
     27  0.977078D-02  0.248915D-01 -0.280946D-02 -0.648265D-02 -0.117145D+00
     28  0.204378D-01 -0.328541D-02  0.114834D-02 -0.218740D-02  0.104143D-02
     29 -0.956430D-01  0.182857D-02  0.158003D-05  0.152655D-02 -0.393832D-03
     30 -0.270561D+00 -0.336586D-02 -0.636114D-03 -0.383402D-03  0.212700D-04
     31 -0.190590D-03 -0.280211D-03  0.114588D-03 -0.224312D-03 -0.822459D-03
     32  0.174750D-01  0.544305D-03 -0.644253D-03  0.871694D-04  0.263153D-03
     33 -0.434205D-01 -0.691310D-03 -0.104969D-02 -0.487383D-03 -0.319636D-04
     34  0.938633D-01  0.151898D-02  0.559263D-03 -0.233371D-03 -0.248178D-02
     35  0.331605D-01 -0.689016D-03  0.842937D-04 -0.131957D-03  0.198970D-02
     36 -0.955277D-01  0.538200D-03 -0.801299D-03  0.923422D-03 -0.249398D-02
               26            27            28            29            30 
     26  0.960907D-02
     27  0.104640D-01  0.104199D+00
     28 -0.561475D-03  0.681383D-03  0.523946D-01
     29  0.972833D-04 -0.547501D-03 -0.108422D-01  0.887199D-01
     30  0.855443D-03  0.133447D-02 -0.186833D-01  0.101815D+00  0.295613D+00
     31 -0.953383D-03 -0.425360D-03 -0.239504D-03  0.337907D-02  0.146497D-03
     32 -0.580219D-03  0.549201D-03  0.728127D-04 -0.135337D-01  0.800825D-03
     33  0.521770D-03 -0.805484D-04  0.180760D-02 -0.303725D-01  0.277324D-02
     34 -0.375991D-03 -0.358563D-02 -0.108842D-02  0.636037D-04  0.100626D-03
     35  0.242756D-04  0.123262D-02  0.123739D-01  0.379789D-02 -0.466244D-02
     36  0.132233D-02 -0.129652D-02  0.242578D-01  0.112730D-01 -0.105240D-01
               31            32            33            34            35 
     31  0.475576D-01
     32 -0.184296D-01  0.314014D+00
     33  0.410103D-02 -0.256744D-01  0.469098D-01
     34  0.167701D-02  0.114990D-04 -0.334191D-03  0.261921D+00
     35 -0.280398D-01 -0.114240D-01  0.144431D-01  0.775898D-01  0.751875D-01
     36  0.246542D-02  0.448969D-03 -0.146888D-02 -0.100136D+00 -0.400544D-01
               36 
     36  0.981046D-01
 Cartesian forces in FCRed:
 I=    1 X=  -4.367488052105D-04 Y=  -1.981737173737D-04 Z=  -9.148761288209D-04
 I=    2 X=   1.898742070372D-05 Y=  -4.062698766032D-04 Z=   4.457494434753D-04
 I=    3 X=  -7.138144175789D-05 Y=  -2.018237094823D-04 Z=  -1.804990562637D-05
 I=    4 X=   1.861369549379D-04 Y=  -1.758996912817D-04 Z=   5.738324011384D-05
 I=    5 X=   1.237910913643D-05 Y=   3.795496459608D-05 Z=  -8.969051731222D-05
 I=    6 X=   2.432486147934D-04 Y=   1.002871748520D-03 Z=   4.062518484500D-04
 I=    7 X=   1.492972526589D-04 Y=  -5.183885761850D-04 Z=   6.466033224339D-04
 I=    8 X=  -1.067182002430D-05 Y=   1.087636972322D-04 Z=  -3.050437885221D-05
 I=    9 X=   8.439210717803D-06 Y=  -3.726281662908D-05 Z=   3.952554900089D-05
 I=   10 X=   1.241797978352D-04 Y=   4.623925280212D-04 Z=  -4.420588904708D-04
 I=   11 X=  -3.402588871954D-05 Y=  -2.420623345252D-04 Z=  -2.598811247100D-04
 I=   12 X=  -1.898404050915D-04 Y=   1.678977836342D-04 Z=   1.595475421219D-04
 Cartesian force constants in FCRed: 
                1             2             3             4             5 
      1  0.661473D+00
      2 -0.127975D+00  0.752854D-01
      3 -0.213236D-01 -0.574967D-01  0.602987D+00
      4 -0.986902D-01  0.176080D-01  0.231631D-01  0.570950D+00
      5  0.161648D-01 -0.784998D-02 -0.109104D-01 -0.551185D-01  0.154774D-01
      6 -0.248717D-01  0.776635D-02 -0.375077D+00 -0.154744D+00  0.617764D-02
      7 -0.317308D+00  0.137258D-01  0.110784D+00  0.664239D-02 -0.138624D-02
      8 -0.268733D-02 -0.985339D-02  0.765000D-02  0.114216D-03 -0.230044D-02
      9  0.938352D-01  0.471412D-02 -0.922865D-01  0.357887D-01 -0.639284D-03
     10 -0.244046D+00  0.964959D-01 -0.105335D+00  0.812854D-02 -0.768186D-03
     11  0.113487D+00 -0.555513D-01  0.593186D-01 -0.492796D-02  0.325065D-02
     12 -0.952377D-01  0.498287D-01 -0.112798D+00 -0.248744D-01  0.146756D-01
     13 -0.126751D-02 -0.203706D-03 -0.739614D-02 -0.487057D+00  0.411191D-01
     14  0.547451D-03 -0.182569D-02  0.848132D-03  0.423525D-01 -0.896211D-02
     15  0.473546D-01 -0.513561D-02 -0.228799D-01  0.120712D+00 -0.939118D-02
     16 -0.132086D-03  0.163145D-04  0.370721D-03 -0.561001D-04  0.117669D-03
     17  0.485104D-03  0.574201D-03  0.598980D-03 -0.322874D-04  0.150702D-03
     18  0.395151D-03  0.549058D-03 -0.119785D-04 -0.861974D-04 -0.414237D-04
     19  0.858004D-04  0.228616D-03 -0.140529D-03 -0.309275D-04 -0.336513D-04
     20 -0.250996D-04 -0.737097D-03  0.372844D-03  0.573487D-04  0.132988D-03
     21  0.489355D-04  0.312047D-03  0.334423D-03  0.161821D-05  0.177035D-03
     22  0.192617D-04  0.284238D-04 -0.640535D-04  0.174498D-04 -0.120277D-04
     23  0.548516D-04  0.887740D-04 -0.157237D-03 -0.343955D-04  0.148623D-04
     24 -0.278326D-04 -0.409517D-04 -0.146830D-03  0.000000D+00 -0.324382D-04
     25 -0.125887D-04  0.149090D-03 -0.627342D-04  0.723227D-04  0.155428D-05
     26 -0.158968D-03  0.847155D-04 -0.107152D-03  0.663276D-04 -0.172254D-04
     27 -0.605370D-05 -0.112127D-04  0.877852D-04  0.178272D-04  0.362395D-04
     28  0.570807D-05 -0.110893D-04 -0.987709D-04 -0.118509D-03 -0.374849D-04
     29  0.288265D-04 -0.113940D-03 -0.511259D-04 -0.358593D-04  0.138202D-03
     30 -0.151306D-03 -0.431006D-03  0.908078D-04  0.819267D-04  0.810666D-05
     31 -0.415358D-04  0.179127D-04 -0.460047D-04  0.429369D-04 -0.287959D-04
     32 -0.340861D-04 -0.249732D-03  0.206773D-03  0.442060D-04 -0.267862D-04
     33 -0.811533D-04 -0.198447D-03 -0.732956D-04  0.343561D-04  0.830161D-05
     34 -0.855974D-04 -0.806537D-04  0.148932D-03  0.986291D-04 -0.183314D-04
     35  0.111753D-03  0.147982D-03 -0.272713D-03 -0.936305D-04 -0.824561D-05
     36  0.655054D-04  0.143620D-03 -0.225772D-03 -0.938397D-04 -0.681486D-04
                6             7             8             9            10 
      6  0.510549D+00
      7 -0.539137D-03  0.318523D+00
      8  0.141298D-02 -0.806497D-02  0.808228D-02
      9 -0.200805D-01 -0.117209D+00 -0.463670D-02  0.109896D+00
     10  0.481300D-02 -0.102559D-01  0.101604D-01 -0.123800D-01  0.243748D+00
     11 -0.105156D-03 -0.414647D-02  0.892344D-03 -0.476541D-03 -0.104157D+00
     12 -0.257460D-01  0.890867D-02 -0.456506D-02  0.891444D-02  0.113727D+00
     13  0.175268D+00  0.232322D-02  0.483238D-03 -0.462396D-04  0.243401D-02
     14 -0.151645D-01 -0.186540D-03  0.309158D-02  0.102868D-02 -0.156780D-02
     15 -0.897925D-01 -0.196996D-02  0.104542D-03 -0.641980D-02 -0.762755D-03
     16 -0.243714D-03 -0.582776D-04 -0.135421D-03 -0.222672D-04 -0.335301D-04
     17  0.943689D-04  0.172017D-03  0.143645D-03 -0.127683D-04 -0.245505D-03
     18  0.769048D-04  0.352182D-05 -0.110396D-04  0.264239D-04 -0.112439D-03
     19  0.247685D-03  0.100654D-04 -0.102000D-03 -0.477764D-04 -0.740657D-04
     20 -0.611765D-03  0.170200D-04  0.105603D-03  0.181900D-04  0.275405D-04
     21 -0.253016D-03  0.000000D+00  0.121024D-04 -0.103039D-04 -0.337190D-04
     22  0.689670D-04  0.574633D-05  0.115749D-04 -0.101869D-04  0.111523D-04
     23  0.233432D-03 -0.408942D-04 -0.309194D-04 -0.100835D-04  0.209783D-04
     24  0.229068D-03 -0.186935D-04 -0.122424D-05 -0.176825D-04  0.251626D-04
     25  0.914794D-04  0.434252D-04  0.494601D-04  0.158325D-04  0.277717D-04
     26  0.682399D-04  0.598584D-05 -0.505348D-04  0.177123D-04  0.471762D-04
     27 -0.110895D-03 -0.120939D-04  0.504672D-05 -0.214361D-04  0.154496D-04
     28  0.121439D-03 -0.427355D-04 -0.733887D-04  0.325788D-04 -0.318938D-04
     29  0.744430D-04 -0.513813D-04 -0.551129D-04  0.994482D-05 -0.504938D-05
     30 -0.138949D-03  0.607350D-04  0.119929D-03 -0.242022D-04  0.639635D-04
     31  0.383329D-04  0.384043D-04  0.895555D-04  0.106220D-04  0.451635D-04
     32 -0.275840D-03  0.397011D-04  0.990284D-04  0.186694D-05  0.225670D-04
     33  0.114630D-03  0.188991D-04  0.205383D-04 -0.103441D-04  0.326201D-04
     34 -0.249614D-03  0.791746D-04  0.154634D-03  0.327727D-04  0.470828D-04
     35  0.329773D-03 -0.840300D-04 -0.124074D-03 -0.151424D-04 -0.312548D-04
     36  0.229705D-03 -0.270973D-04 -0.111115D-03  0.340121D-04 -0.532828D-04
               11            12            13            14            15 
     11  0.521032D-01
     12 -0.595905D-01  0.127931D+00
     13 -0.228498D-03 -0.252344D-02  0.483580D+00
     14 -0.663094D-03 -0.301996D-03 -0.411733D-01  0.839351D-02
     15  0.855159D-03  0.174615D-02 -0.165310D+00  0.135478D-01  0.117293D+00
     16  0.157572D-03 -0.121945D-05  0.604122D-04  0.557072D-04  0.613789D-04
     17  0.151994D-03 -0.655198D-04 -0.174688D-04  0.827739D-04  0.155491D-03
     18 -0.396658D-04 -0.407702D-05  0.000000D+00 -0.197925D-05  0.106051D-04
     19  0.433467D-04  0.300555D-04 -0.705139D-05  0.144429D-05  0.194129D-04
     20 -0.327736D-04 -0.844368D-05 -0.459375D-04 -0.680462D-04  0.415648D-04
     21  0.301487D-04 -0.472910D-04  0.637212D-04 -0.150803D-03 -0.127072D-04
     22 -0.440230D-04  0.139155D-04 -0.255699D-04 -0.301711D-04 -0.213887D-04
     23 -0.580598D-04 -0.152355D-04  0.279784D-04  0.110050D-04 -0.258908D-04
     24 -0.302133D-04 -0.177247D-04  0.695362D-05  0.657170D-04 -0.162178D-05
     25 -0.131348D-03 -0.788538D-05 -0.199321D-04 -0.804831D-04 -0.618298D-04
     26 -0.105212D-03  0.233110D-04 -0.149816D-04 -0.490187D-04 -0.871806D-04
     27  0.198585D-04  0.374184D-05 -0.105218D-04 -0.596652D-04  0.634735D-05
     28  0.626648D-04  0.654742D-05  0.235258D-04  0.134899D-03  0.434142D-05
     29  0.150213D-05  0.816068D-05  0.590276D-04 -0.650001D-04 -0.101443D-03
     30 -0.742904D-05 -0.199234D-04 -0.452959D-04  0.763234D-04  0.566670D-04
     31 -0.524350D-04 -0.167313D-04 -0.565676D-05 -0.766664D-05 -0.199703D-04
     32 -0.133784D-05 -0.136923D-04 -0.371445D-04  0.372336D-04  0.568032D-04
     33 -0.166444D-04  0.416814D-05 -0.237937D-04  0.406844D-04  0.170709D-04
     34 -0.633427D-04 -0.247693D-04 -0.391293D-04 -0.460620D-04 -0.622002D-05
     35  0.120760D-04  0.246591D-04  0.316266D-04  0.168595D-04 -0.200098D-04
     36  0.423522D-04  0.337509D-04  0.158803D-04  0.716135D-04 -0.232115D-04
               16            17            18            19            20 
     16  0.560905D+00
     17 -0.101292D+00  0.786410D-01
     18 -0.456974D-01 -0.407298D-01  0.604081D+00
     19 -0.184484D+00  0.415337D-01 -0.696090D-01  0.523796D+00
     20  0.359014D-01 -0.523806D-01  0.233582D-01  0.136316D-01  0.481371D+00
     21 -0.692903D-01  0.270546D-01 -0.137720D+00 -0.326949D-01  0.141265D-01
     22 -0.564017D-01  0.800651D-02  0.256458D-01  0.501511D-02 -0.656465D-03
     23  0.920647D-02 -0.125726D-01  0.101598D-01 -0.292913D-02  0.347710D-02
     24  0.250061D-01  0.144012D-01 -0.346295D+00  0.403287D-02 -0.198635D-02
     25 -0.292415D+00  0.390499D-01  0.111254D+00 -0.134176D-01 -0.416088D-03
     26  0.356795D-01 -0.150457D-01 -0.755510D-02  0.760654D-02  0.277936D-02
     27  0.112002D+00 -0.101982D-01 -0.107410D+00 -0.164233D-01  0.131908D-02
     28  0.324419D-02 -0.790100D-02 -0.263800D-01 -0.519030D-01  0.563402D-02
     29  0.587162D-04  0.277771D-02  0.120086D-01  0.591048D-02 -0.817664D-01
     30  0.257713D-03 -0.330839D-02 -0.182165D-01  0.215130D-01 -0.946301D-01
     31 -0.670361D-02  0.240822D-01 -0.583893D-02 -0.412682D-01  0.198283D-01
     32  0.885937D-02 -0.433796D-02  0.633732D-02  0.864318D-02 -0.283352D+00
     33 -0.515638D-02  0.170187D-01 -0.427796D-02  0.324284D-03  0.252586D-01
     34 -0.239249D-01 -0.384080D-02  0.104247D-01 -0.237722D+00 -0.739536D-01
     35  0.113750D-01  0.181476D-02 -0.403395D-02 -0.745341D-01 -0.695292D-01
     36 -0.172863D-01 -0.500855D-02  0.974060D-02  0.927482D-01  0.327416D-01
               21            22            23            24            25 
     21  0.546839D+00
     22 -0.228977D-01  0.516454D-01
     23  0.942184D-02 -0.825483D-02  0.637499D-02
     24 -0.939071D-02 -0.241078D-01 -0.143100D-01  0.362070D+00
     25  0.106915D-01  0.175981D-02  0.126779D-03 -0.227067D-02  0.306225D+00
     26 -0.597592D-02 -0.732850D-03  0.325318D-02  0.452567D-03 -0.406079D-01
     27  0.977078D-02  0.248915D-01 -0.280946D-02 -0.648265D-02 -0.117145D+00
     28  0.204378D-01 -0.328541D-02  0.114834D-02 -0.218740D-02  0.104143D-02
     29 -0.956430D-01  0.182857D-02  0.158003D-05  0.152655D-02 -0.393832D-03
     30 -0.270561D+00 -0.336586D-02 -0.636114D-03 -0.383402D-03  0.212700D-04
     31 -0.190590D-03 -0.280211D-03  0.114588D-03 -0.224312D-03 -0.822459D-03
     32  0.174750D-01  0.544305D-03 -0.644253D-03  0.871694D-04  0.263153D-03
     33 -0.434205D-01 -0.691310D-03 -0.104969D-02 -0.487383D-03 -0.319636D-04
     34  0.938633D-01  0.151898D-02  0.559263D-03 -0.233371D-03 -0.248178D-02
     35  0.331605D-01 -0.689016D-03  0.842937D-04 -0.131957D-03  0.198970D-02
     36 -0.955277D-01  0.538200D-03 -0.801299D-03  0.923422D-03 -0.249398D-02
               26            27            28            29            30 
     26  0.960907D-02
     27  0.104640D-01  0.104199D+00
     28 -0.561475D-03  0.681383D-03  0.523946D-01
     29  0.972833D-04 -0.547501D-03 -0.108422D-01  0.887199D-01
     30  0.855443D-03  0.133447D-02 -0.186833D-01  0.101815D+00  0.295613D+00
     31 -0.953383D-03 -0.425360D-03 -0.239504D-03  0.337907D-02  0.146497D-03
     32 -0.580219D-03  0.549201D-03  0.728127D-04 -0.135337D-01  0.800825D-03
     33  0.521770D-03 -0.805484D-04  0.180760D-02 -0.303725D-01  0.277324D-02
     34 -0.375991D-03 -0.358563D-02 -0.108842D-02  0.636037D-04  0.100626D-03
     35  0.242756D-04  0.123262D-02  0.123739D-01  0.379789D-02 -0.466244D-02
     36  0.132233D-02 -0.129652D-02  0.242578D-01  0.112730D-01 -0.105240D-01
               31            32            33            34            35 
     31  0.475576D-01
     32 -0.184296D-01  0.314014D+00
     33  0.410103D-02 -0.256744D-01  0.469098D-01
     34  0.167701D-02  0.114990D-04 -0.334191D-03  0.261921D+00
     35 -0.280398D-01 -0.114240D-01  0.144431D-01  0.775898D-01  0.751875D-01
     36  0.246542D-02  0.448969D-03 -0.146888D-02 -0.100136D+00 -0.400544D-01
               36 
     36  0.981046D-01
 FormGI is forming the generalized inverse of G from B-inverse, IUseBI=4.
 Internal forces: 
                 1 
      1   0.356538D-03
      2  -0.521192D-04
      3  -0.241254D-03
      4  -0.912533D-03
      5  -0.543783D-04
      6  -0.394236D-04
      7  -0.409841D-04
      8  -0.787809D-04
      9   0.344216D-04
     10   0.331962D-04
     11   0.453747D-05
     12  -0.277605D-03
     13   0.211117D-03
     14  -0.170488D-03
     15  -0.203082D-04
     16   0.908651D-04
     17  -0.266435D-03
     18  -0.198633D-03
     19  -0.890388D-05
     20   0.341660D-04
     21  -0.146011D-03
     22  -0.636761D-04
     23  -0.425294D-04
     24   0.912113D-04
     25  -0.927540D-04
     26   0.442712D-05
     27  -0.289032D-03
     28   0.337309D-04
     29   0.168220D-04
     30   0.239625D-03
     31   0.397957D-04
     32  -0.180726D-04
     33   0.157687D-04
     34   0.356908D-04
     35   0.298073D-04
     36   0.461046D-04
     37  -0.131026D-03
     38  -0.849209D-04
     39  -0.116341D-04
     40  -0.269837D-04
     41  -0.198866D-03
     42  -0.359196D-04
     43  -0.578873D-04
     44  -0.603515D-04
     45   0.240857D-04
     46  -0.125989D-03
     47  -0.510454D-04
     48  -0.141547D-03
     49  -0.967405D-05
     50   0.164906D-05
     51   0.250495D-04
     52  -0.116497D-03
     53   0.153754D-04
     54   0.266986D-04
     55   0.131873D-03
     56   0.143196D-03
     57   0.992992D-04
     58   0.931769D-04
     59   0.738016D-04
     60   0.676794D-04
     61  -0.431121D-04
     62  -0.492343D-04
     63  -0.282295D-03
     64   0.441785D-04
     65  -0.242472D-03
 Internal force constants: 
                1             2             3             4             5 
      1  0.448254D+00
      2  0.788587D-02  0.331230D+00
      3  0.874984D-02 -0.660988D-04  0.360035D+00
      4  0.936922D-03 -0.225234D-02 -0.377202D-03  0.683229D-02
      5 -0.178099D-02 -0.124069D-01  0.473067D-03 -0.390742D-02  0.423554D-02
      6 -0.110914D-03 -0.150968D-02  0.845073D-03  0.289240D-03  0.273413D-03
      7  0.188337D-02  0.244963D-01 -0.401903D-03  0.282752D-03 -0.129123D-02
      8 -0.997422D-03 -0.732371D-02  0.372209D-04 -0.308662D-02  0.367564D-03
      9  0.103635D-03  0.472843D-02  0.358054D-03  0.130752D-01 -0.833740D-03
     10 -0.216548D-03 -0.940962D-04  0.207077D-04  0.595379D-03 -0.210929D-03
     11 -0.696822D-04  0.151190D-03  0.510728D-04 -0.290760D-04  0.108983D-03
     12  0.309003D-03  0.754541D-02 -0.953175D-04  0.170598D-01 -0.227371D-01
     13  0.229076D-03 -0.798375D-05  0.441989D-05  0.811984D-04  0.231150D-03
     14 -0.660636D-03  0.588903D-02  0.160721D-04  0.475957D-02 -0.594536D-02
     15  0.161239D-01  0.894800D-02 -0.499744D-02  0.763185D-03  0.557442D-03
     16  0.100897D-01 -0.109404D-01  0.185732D-02 -0.120143D-02 -0.300967D-02
     17 -0.223561D-02  0.113283D-01 -0.829585D-03  0.973219D-03 -0.134710D-02
     18 -0.106856D-02  0.125358D-01 -0.159332D-02 -0.304928D-02  0.251951D-02
     19 -0.227965D-01  0.631626D-02  0.430487D-02  0.380227D-03  0.233389D-02
     20 -0.165695D-02  0.809469D-02 -0.202306D-02  0.796856D-03 -0.105574D-02
     21  0.529779D-01  0.280630D-02 -0.403311D-03  0.688016D-03 -0.844067D-04
     22  0.181501D-02 -0.162408D-01 -0.378403D-03 -0.109374D-02  0.649724D-03
     23  0.686402D-03  0.204120D-02 -0.163956D-03  0.202908D-02 -0.322779D-02
     24 -0.513117D-04 -0.412938D-03  0.210029D-04  0.213738D-02 -0.935474D-03
     25  0.108478D-03  0.540673D-03 -0.173273D-05 -0.777783D-03  0.645165D-03
     26 -0.493333D-04 -0.129361D-03 -0.244679D-04 -0.134546D-02  0.285084D-03
     27 -0.266971D-02 -0.941528D-02  0.470881D-03  0.655230D-02 -0.245856D-02
     28  0.150816D-02  0.106126D-02 -0.292130D-03 -0.529185D-02  0.254116D-02
     29 -0.299681D-02  0.605362D-02  0.744892D-03 -0.801283D-03  0.821837D-03
     30  0.863492D-04  0.316422D-02  0.219348D-04  0.127894D-03 -0.721555D-03
     31  0.423244D-02  0.570862D-02 -0.932524D-03 -0.390761D-02  0.108526D-02
     32  0.206531D-03 -0.641535D-02 -0.935224D-04  0.319715D-02 -0.130285D-02
     33  0.225854D-02  0.206502D-01 -0.417212D-03 -0.460863D-02  0.340686D-02
     34 -0.215244D-02 -0.610704D-02  0.417302D-03 -0.338102D-02  0.402223D-02
     35 -0.433310D-03  0.107643D-01  0.163276D-03  0.124222D-02 -0.765556D-03
     36  0.127990D-02  0.127640D-01  0.851133D-03 -0.300207D-03  0.358017D-03
     37 -0.139794D-02 -0.114126D-01 -0.362222D-02  0.000000D+00 -0.416164D-03
     38 -0.118038D-03  0.135147D-02 -0.277109D-02 -0.300799D-03 -0.581472D-04
     39 -0.333118D-03 -0.233438D-01 -0.176943D-02  0.337129D-02  0.584219D-03
     40  0.150865D-03 -0.130740D-01  0.115560D-03  0.863112D-03  0.356448D-03
     41 -0.647916D-02 -0.254543D-02 -0.647047D-03  0.111096D-03 -0.461039D-03
     42  0.469646D-02  0.427723D-02  0.229003D-02 -0.336090D-03 -0.157453D-02
     43 -0.127527D-02 -0.662655D-02  0.163912D-02 -0.424990D-02  0.268624D-03
     44 -0.118472D-01 -0.281319D-02  0.843237D-03 -0.138203D-02  0.256087D-02
     45  0.220825D-02  0.780743D-02 -0.469035D-03 -0.987153D-03 -0.151011D-02
     46  0.102706D-01  0.765472D-02 -0.218635D-02  0.143540D-02 -0.837223D-03
     47 -0.180976D-02 -0.589252D-02  0.417530D-03  0.442900D-02 -0.305704D-02
     48  0.597256D-03  0.221651D-02 -0.157673D-03 -0.653688D-03  0.316528D-03
     49 -0.781858D-04  0.579841D-03 -0.899697D-05  0.355562D-03 -0.541749D-03
     50 -0.822084D-03 -0.275898D-02  0.178442D-03  0.285327D-03  0.839868D-04
     51  0.631798D-04 -0.241278D-04 -0.464397D-04  0.149163D-04 -0.222445D-04
     52  0.660435D-03  0.219238D-02 -0.204112D-03 -0.638772D-03  0.294284D-03
     53 -0.150060D-04  0.555713D-03 -0.554366D-04  0.370478D-03 -0.563993D-03
     54 -0.758905D-03 -0.278310D-02  0.132002D-03  0.300244D-03  0.617422D-04
     55 -0.675441D-03 -0.163667D-02  0.148676D-03  0.100925D-02 -0.858277D-03
     56 -0.141934D-02 -0.497549D-02  0.336114D-03  0.939016D-03 -0.232542D-03
     57 -0.283328D-03  0.220563D-01  0.226310D-03  0.139968D-02 -0.152253D-02
     58  0.922857D-03 -0.208141D-01 -0.257597D-03  0.137391D-02  0.234791D-04
     59 -0.593581D-03  0.243306D-01  0.288770D-03  0.389931D-02 -0.270201D-02
     60  0.612604D-03 -0.185398D-01 -0.195137D-03  0.387355D-02 -0.115600D-02
     61 -0.288130D-02  0.274645D-01  0.827954D-03  0.199514D-02 -0.135343D-02
     62 -0.167511D-02 -0.154059D-01  0.344047D-03  0.196938D-02  0.192581D-03
     63 -0.155593D-02  0.288115D-02  0.218731D-03  0.158676D-02 -0.763342D-03
     64  0.845170D-03  0.678204D-02 -0.218010D-03 -0.343404D-02  0.104168D-02
     65 -0.136226D-02  0.360643D-02  0.244868D-03 -0.331703D-02  0.200745D-02
                6             7             8             9            10 
      6  0.550441D+00
      7 -0.348892D-03  0.525125D-02
      8 -0.174851D-03 -0.372755D-02  0.633898D-02
      9 -0.188475D-03 -0.423200D-02 -0.513748D-02  0.307109D+00
     10  0.140525D-05  0.362223D-03 -0.623699D-03  0.301242D-02  0.364431D+00
     11  0.100101D-04 -0.502069D-03  0.395658D-03  0.309312D-02  0.109237D-02
     12  0.202933D-04 -0.812965D-02  0.205475D-01 -0.170180D-02 -0.657205D-03
     13 -0.538878D-04  0.539475D-04 -0.191644D-03  0.149971D-01  0.125017D-03
     14 -0.146228D-03  0.208361D-01 -0.148434D-01  0.309033D-02  0.596448D-03
     15  0.488226D-02 -0.882524D-04 -0.846064D-03 -0.853812D-02 -0.188972D-03
     16 -0.494707D-02  0.241645D-02  0.144715D-02  0.641012D-02  0.480651D-04
     17 -0.204408D-03  0.802698D-03 -0.181119D-03  0.135865D-01  0.386922D-03
     18  0.874739D-03  0.250665D-03 -0.632472D-03 -0.102649D-01 -0.353014D-03
     19  0.289544D-03 -0.213629D-02 -0.566966D-03  0.410369D-02  0.140566D-03
     20  0.573867D-04 -0.423355D-03  0.130393D-02  0.507342D-02 -0.203366D-04
     21  0.168176D-01  0.823766D-04 -0.645660D-03 -0.331073D-03  0.340504D-05
     22  0.732614D-03 -0.737226D-03  0.169204D-02  0.106225D-02 -0.311353D-03
     23  0.970900D-04  0.162262D-02  0.998217D-03  0.841158D-03 -0.255604D-05
     24 -0.305230D-04  0.103771D-02 -0.177346D-02  0.845258D-02  0.396941D-02
     25  0.510600D-05 -0.131395D-02  0.120854D-02  0.907730D-02 -0.104552D-01
     26  0.231144D-04  0.275622D-03  0.552628D-03 -0.173895D-01  0.652867D-02
     27 -0.242601D-03  0.430689D-02 -0.814910D-02 -0.497677D-02  0.185602D-02
     28  0.237922D-03 -0.581734D-04  0.308200D-02  0.160366D-01  0.155891D-03
     29 -0.455057D-03 -0.494540D-02  0.416300D-02  0.323892D-02 -0.135932D-02
     30 -0.536366D-04 -0.267238D-02  0.307364D-02 -0.755714D-02 -0.829314D-03
     31  0.521680D-03  0.795253D-03  0.228105D-02  0.188407D-02 -0.280790D-04
     32  0.332935D-04  0.262488D-02 -0.431791D-02 -0.958109D-02  0.147289D-03
     33  0.130542D-03  0.246124D-02 -0.245337D-02 -0.612813D-02 -0.430004D-03
     34 -0.208978D-03  0.468276D-03 -0.240296D-02 -0.458644D-02 -0.292878D-03
     35 -0.260103D-03 -0.157311D-02  0.590064D-03 -0.521328D-02 -0.723050D-04
     36 -0.511255D-04 -0.308585D-03  0.318372D-03  0.390482D-02 -0.132077D-04
     37 -0.694077D-03  0.188495D-03  0.107419D-03 -0.523901D-02 -0.341844D-04
     38 -0.745203D-03 -0.120090D-03  0.425792D-03 -0.133419D-02 -0.473922D-04
     39  0.146507D-02 -0.216870D-02 -0.158644D-02  0.297136D-01  0.244612D-03
     40 -0.205711D-03 -0.327002D-03 -0.104779D-02 -0.258925D-02  0.175987D-03
     41  0.121037D-03 -0.891240D-03  0.131010D-02 -0.945391D-02 -0.176627D-03
     42 -0.618180D-03  0.232934D-03  0.177190D-02 -0.353024D-02 -0.170924D-03
     43 -0.310231D-02  0.595377D-03  0.280524D-02  0.801380D-03 -0.228235D-03
     44  0.205738D-02 -0.220859D-02  0.120744D-02 -0.202391D-02 -0.849083D-04
     45  0.204375D-03 -0.290055D-02  0.566328D-02 -0.335105D-02 -0.327550D-03
     46  0.109327D-02  0.605674D-03 -0.152308D-02 -0.274707D-02 -0.676605D-04
     47 -0.167000D-03 -0.441382D-02  0.332557D-02  0.212513D-02  0.386871D-04
     48  0.941144D-04  0.336529D-03 -0.658180D-04  0.120472D-02 -0.590757D-03
     49  0.230544D-04 -0.183256D-03  0.414363D-03 -0.887463D-03 -0.281560D-03
     50 -0.813904D-04 -0.234929D-03 -0.164202D-03  0.119222D-04 -0.909627D-03
     51 -0.178935D-04  0.165143D-04 -0.616035D-04 -0.170489D-03  0.882585D-03
     52  0.762209D-04  0.353043D-03 -0.127422D-03  0.103423D-02  0.291828D-03
     53  0.516086D-05 -0.166741D-03  0.352759D-03 -0.105795D-02  0.601025D-03
     54 -0.992839D-04 -0.218415D-03 -0.225806D-03 -0.158566D-03 -0.270418D-04
     55 -0.710600D-04 -0.519785D-03  0.480181D-03 -0.209218D-02  0.309197D-03
     56 -0.175505D-03 -0.571458D-03 -0.983841D-04 -0.119280D-02 -0.318870D-03
     57 -0.782948D-04  0.407363D-02 -0.316369D-02  0.692405D-02  0.814459D-03
     58  0.370862D-03  0.101357D-02 -0.190407D-02  0.536339D-02  0.794668D-03
     59 -0.190426D-03  0.331330D-02 -0.408516D-02 -0.488514D-02  0.511466D-04
     60  0.258731D-03  0.253246D-03 -0.282554D-02 -0.644580D-02  0.313559D-04
     61 -0.449555D-03  0.123063D-02 -0.170427D-02  0.903942D-02  0.305909D-03
     62  0.000000D+00 -0.182943D-02 -0.444651D-03  0.747876D-02  0.286118D-03
     63 -0.205856D-03  0.348014D-02 -0.446521D-02 -0.103187D-01  0.935956D-03
     64  0.375471D-04  0.755149D-03  0.148473D-02 -0.748994D-02 -0.490474D-03
     65 -0.164182D-03  0.216236D-02 -0.100323D-02  0.510049D-02  0.407588D-03
               11            12            13            14            15 
     11  0.364673D+00
     12  0.611001D-03  0.260147D+00
     13  0.120374D-03  0.371794D-02  0.317733D+00
     14 -0.473884D-03  0.159717D-01  0.352715D-02  0.285051D+00
     15 -0.200109D-03  0.217361D-02  0.149158D-03 -0.656979D-02  0.593084D-01
     16  0.719625D-05  0.682996D-04  0.198721D-03  0.291392D-02 -0.316152D-01
     17 -0.116793D-03  0.942066D-02  0.596265D-03 -0.655217D-02 -0.204650D-02
     18  0.926789D-04 -0.213614D-01 -0.571062D-03 -0.778085D-02  0.831624D-02
     19  0.185654D-03 -0.194169D-02 -0.207944D-03  0.174809D-02 -0.237157D-01
     20  0.184456D-03  0.136177D-01  0.349823D-03 -0.279523D-02  0.180905D-02
     21  0.867656D-04  0.124183D-03 -0.762162D-04 -0.368396D-03  0.118997D-01
     22  0.242399D-03  0.109132D-01  0.708660D-03  0.254247D-01  0.787338D-02
     23 -0.307739D-04  0.328050D-01  0.717088D-03  0.354884D-01  0.180348D-02
     24 -0.104940D-01  0.200795D-02  0.530285D-03 -0.199365D-02 -0.935955D-04
     25  0.398220D-02 -0.151899D-02  0.553228D-03  0.277397D-02 -0.626246D-03
     26  0.655696D-02 -0.489279D-03 -0.103895D-02 -0.778757D-03  0.711139D-03
     27 -0.142241D-02 -0.104540D-01 -0.288031D-02 -0.392321D-02 -0.646833D-02
     28  0.129661D-03  0.457281D-02  0.694970D-03 -0.158888D-02  0.538959D-02
     29  0.193763D-02 -0.678562D-03 -0.158298D-02  0.310843D-02 -0.106925D-01
     30  0.305951D-03  0.644688D-02  0.242744D-02  0.163682D-02 -0.505707D-03
     31 -0.282661D-03  0.214959D-04 -0.895499D-03 -0.318954D-02  0.128176D-01
     32 -0.720975D-03  0.834799D-03  0.262599D-02  0.419301D-02  0.514436D-03
     33  0.256614D-04 -0.392551D-01  0.125747D-02  0.245085D-02  0.456308D-02
     34  0.523468D-04 -0.385819D-01  0.108222D-02  0.432263D-02 -0.478420D-02
     35 -0.160948D-03  0.350758D-02  0.125965D-02 -0.390950D-01 -0.236335D-02
     36  0.886411D-04  0.115819D-02  0.220400D-03 -0.499741D-02  0.286870D-02
     37 -0.316012D-04 -0.159262D-03 -0.249297D-03  0.382070D-02 -0.345011D-02
     38  0.570398D-04  0.998925D-03 -0.288977D-04 -0.117671D-02 -0.581410D-03
     39  0.429831D-03 -0.231905D-02  0.129945D-02  0.109460D-01  0.964542D-02
     40 -0.215040D-03 -0.215493D-02 -0.141528D-03  0.606130D-02 -0.442399D-03
     41 -0.250678D-04  0.126462D-01 -0.310209D-03  0.326373D-02 -0.418910D-02
     42 -0.470591D-04  0.134209D-01  0.651616D-04 -0.404202D-03 -0.213939D-02
     43 -0.185260D-04 -0.298959D-02  0.337473D-03 -0.621704D-03 -0.255552D-01
     44 -0.118815D-03  0.561091D-02  0.345601D-03  0.942831D-03  0.560081D-02
     45 -0.129479D-03  0.306961D-01  0.785996D-03 -0.372022D-01  0.746044D-02
     46  0.269034D-03 -0.596167D-02 -0.762425D-03 -0.348683D-02  0.184612D-01
     47  0.377520D-03  0.332557D-01 -0.725447D-03 -0.329006D-01 -0.507239D-02
     48 -0.107724D-03 -0.350077D-02 -0.212519D-02 -0.158619D-02  0.190019D-02
     49 -0.594818D-03  0.722446D-03 -0.516881D-03 -0.324357D-02  0.533501D-03
     50 -0.110731D-03  0.443152D-02  0.222373D-02  0.311935D-02 -0.239796D-02
     51  0.904306D-03 -0.413624D-04  0.299584D-03 -0.481494D-04 -0.183856D-04
     52  0.796583D-03 -0.354213D-02 -0.182560D-02 -0.163434D-02  0.188180D-02
     53  0.309488D-03  0.681084D-03 -0.217298D-03 -0.329172D-02  0.515115D-03
     54  0.793575D-03  0.439016D-02  0.252331D-02  0.307120D-02 -0.241634D-02
     55 -0.487094D-03  0.422321D-02  0.160830D-02 -0.165738D-02 -0.136668D-02
     56 -0.300754D-05  0.793229D-02  0.434891D-02  0.470553D-02 -0.429814D-02
     57 -0.796750D-03  0.362690D-02  0.197674D-02  0.894301D-03  0.557682D-03
     58 -0.865711D-03  0.412138D-02  0.200085D-02 -0.461652D-03  0.432419D-02
     59 -0.301940D-03  0.311077D-04  0.125392D-02  0.413806D-02 -0.186414D-02
     60 -0.370900D-03  0.525582D-03  0.127803D-02  0.278210D-02  0.190237D-02
     61  0.513003D-03 -0.414291D-02 -0.255959D-02 -0.568768D-05 -0.828327D-02
     62  0.444043D-03 -0.364844D-02 -0.253548D-02 -0.136164D-02 -0.451676D-02
     63 -0.965188D-03 -0.138231D-01 -0.286378D-02 -0.108352D-02 -0.243517D-02
     64 -0.252886D-03 -0.170448D-03  0.245330D-02  0.404811D-02  0.386364D-02
     65 -0.114556D-03 -0.804099D-02 -0.122925D-02  0.158793D-02 -0.188014D-02
               16            17            18            19            20 
     16  0.488659D-01
     17 -0.527678D-03  0.316751D-02
     18 -0.953998D-02 -0.110575D-02  0.516397D-02
     19 -0.169501D-01  0.235002D-02  0.129057D-02  0.372498D-01
     20 -0.319360D-02  0.132187D-02 -0.475936D-04  0.113018D-02  0.175520D-02
     21 -0.623363D-02 -0.584267D-03  0.154775D-02 -0.484160D-02  0.415907D-03
     22 -0.368772D-02 -0.173778D-02 -0.430308D-03 -0.379366D-02  0.235998D-03
     23 -0.172488D-03  0.464239D-03 -0.327441D-02 -0.158920D-02  0.138116D-02
     24  0.134796D-03  0.188781D-02 -0.136628D-02 -0.136745D-04  0.161678D-03
     25  0.155834D-03 -0.110050D-02  0.695456D-03  0.496310D-03  0.142741D-03
     26 -0.286884D-03 -0.784985D-03  0.664475D-03 -0.476528D-03 -0.305886D-03
     27  0.136591D-02  0.428376D-02 -0.333130D-02  0.419942D-02 -0.141589D-02
     28 -0.113922D-02  0.264134D-02  0.293117D-03 -0.340750D-02  0.846936D-03
     29  0.162178D-02 -0.513387D-02  0.224002D-02  0.820768D-02  0.261558D-03
     30 -0.836338D-04 -0.319473D-02  0.110028D-02  0.488322D-03  0.443620D-03
     31 -0.219518D-02  0.783792D-03  0.123613D-02 -0.926519D-02  0.612667D-03
     32  0.259733D-03  0.507225D-03 -0.147391D-02 -0.101878D-02 -0.706769D-03
     33 -0.176918D-02 -0.231986D-02  0.533138D-02 -0.221433D-02 -0.161375D-02
     34  0.622586D-03 -0.268953D-02  0.326256D-02  0.358608D-02 -0.228872D-02
     35  0.467916D-03  0.152406D-02  0.533409D-03  0.191165D-02  0.633571D-03
     36 -0.296741D-02  0.182285D-03  0.750818D-03  0.880339D-03  0.394381D-03
     37  0.493561D-02 -0.124685D-03 -0.720517D-03 -0.249546D-02  0.187982D-03
     38  0.196820D-02  0.576001D-04  0.303008D-04 -0.161512D-02  0.582362D-03
     39 -0.955046D-02 -0.682587D-03  0.509489D-03 -0.200971D-03  0.415637D-03
     40  0.239673D-03 -0.704102D-03 -0.819327D-03  0.162640D-03 -0.708051D-03
     41 -0.508950D-02  0.581357D-03 -0.116095D-03  0.803806D-02  0.111432D-02
     42  0.848610D-02 -0.151912D-03 -0.240202D-02 -0.542170D-02 -0.306266D-03
     43  0.258781D-01  0.351898D-03 -0.466421D-02 -0.115651D-02 -0.149328D-02
     44 -0.240076D-01  0.126621D-02  0.341323D-02  0.172499D-01  0.178965D-02
     45 -0.143170D-02  0.237014D-02 -0.699163D-03 -0.504304D-02  0.243357D-02
     46 -0.296833D-02 -0.177255D-02  0.255125D-02 -0.137363D-01 -0.300159D-03
     47  0.714013D-03  0.194210D-02 -0.289376D-02  0.397102D-02  0.187282D-02
     48 -0.246382D-03 -0.268673D-04  0.419586D-03 -0.142631D-02 -0.251969D-04
     49 -0.200868D-03  0.607753D-03 -0.240019D-03 -0.273157D-03  0.154848D-03
     50  0.454937D-03 -0.432215D-03 -0.397978D-03  0.167890D-02  0.822598D-05
     51  0.943330D-05 -0.420830D-04 -0.194616D-05  0.146872D-04 -0.367087D-04
     52 -0.236949D-03 -0.689503D-04  0.417640D-03 -0.141162D-02 -0.619056D-04
     53 -0.191434D-03  0.565670D-03 -0.241965D-03 -0.258470D-03  0.118139D-03
     54  0.464371D-03 -0.474298D-03 -0.399925D-03  0.169359D-02 -0.284827D-04
     55  0.455145D-04  0.634620D-03 -0.659605D-03  0.115315D-02  0.180045D-03
     56  0.701319D-03 -0.405348D-03 -0.817564D-03  0.310521D-02  0.334229D-04
     57 -0.150382D-02  0.426949D-02 -0.988691D-03  0.123642D-02  0.626579D-03
     58 -0.782531D-03  0.267692D-02 -0.230781D-02 -0.334938D-02 -0.314045D-03
     59 -0.865563D-03  0.536761D-03 -0.696813D-04  0.259032D-02  0.141814D-03
     60 -0.144273D-03 -0.105581D-02 -0.138880D-02 -0.199548D-02 -0.798809D-03
     61 -0.834950D-04  0.116486D-02  0.500797D-03  0.791671D-02  0.447613D-03
     62  0.637794D-03 -0.427716D-03 -0.818324D-03  0.333091D-02 -0.493011D-03
     63  0.507614D-03  0.198605D-02 -0.639076D-03  0.156293D-02 -0.100252D-02
     64 -0.758725D-03 -0.576803D-03  0.122422D-02 -0.270517D-02  0.185927D-03
     65  0.248992D-03  0.249003D-02  0.991874D-04  0.162597D-02 -0.265980D-03
               21            22            23            24            25 
     21  0.176583D+00
     22  0.143682D-02  0.623437D-02
     23  0.332626D-03  0.486215D-02  0.840365D-02
     24  0.468319D-04 -0.123094D-02  0.115646D-03  0.773206D-01
     25 -0.198869D-04  0.119817D-02  0.105161D-05 -0.421019D-01  0.772743D-01
     26 -0.356562D-04  0.275682D-04 -0.117480D-03 -0.348817D-01 -0.348444D-01
     27 -0.109565D-02 -0.624090D-02 -0.208706D-02  0.682392D-02 -0.657517D-02
     28  0.666785D-03  0.275952D-02  0.899048D-03  0.470332D-03 -0.164844D-03
     29 -0.135929D-02  0.948053D-03 -0.138768D-02 -0.675584D-02  0.747601D-02
     30  0.104706D-04  0.143199D-02  0.764433D-03 -0.283508D-02  0.241076D-02
     31  0.190405D-02  0.290100D-02  0.151144D-02  0.481407D-03 -0.851782D-03
     32  0.305784D-04 -0.153145D-02  0.543813D-03  0.176788D-02 -0.235421D-02
     33  0.934239D-03 -0.819646D-03 -0.430584D-02 -0.199623D-02  0.132309D-02
     34 -0.893166D-03 -0.937198D-03 -0.458887D-02 -0.169654D-02  0.127247D-02
     35 -0.400774D-03 -0.550192D-02 -0.478933D-02  0.687099D-03 -0.102661D-02
     36  0.113074D-02  0.191027D-04 -0.301633D-03 -0.157736D-03  0.281560D-03
     37 -0.726270D-03  0.200580D-04  0.312441D-03 -0.536170D-04 -0.180669D-03
     38  0.404471D-03  0.391607D-04  0.108080D-04 -0.211353D-03  0.100891D-03
     39  0.226177D-02  0.338838D-02  0.101773D-02  0.202608D-03  0.170580D-02
     40  0.417689D-03  0.861732D-03  0.392846D-03  0.384503D-03 -0.516076D-03
     41 -0.104205D-02  0.230881D-03  0.163025D-02 -0.298876D-03 -0.144255D-03
     42 -0.540023D-03  0.347292D-03  0.174461D-02 -0.202171D-03 -0.661027D-04
     43 -0.562774D-02 -0.231169D-02 -0.575455D-03 -0.586543D-03  0.317867D-03
     44  0.552582D-03  0.208526D-02  0.110973D-02 -0.269928D-04 -0.273683D-03
     45  0.939722D-03 -0.771909D-03  0.181664D-03  0.526078D-03 -0.109869D-02
     46  0.410931D-02  0.119743D-02 -0.100287D-02 -0.717897D-03  0.760037D-03
     47 -0.771504D-03 -0.319849D-02 -0.845684D-03  0.673515D-03 -0.164742D-03
     48  0.331661D-03  0.116523D-03 -0.234559D-03  0.241514D-03 -0.204485D-03
     49  0.551976D-04 -0.417653D-03 -0.659657D-04  0.158078D-02 -0.170741D-02
     50 -0.374253D-03  0.151106D-03  0.296207D-03 -0.429500D-03  0.252494D-03
     51 -0.774088D-04 -0.423378D-04 -0.159737D-04  0.133079D-03  0.580703D-04
     52  0.254253D-03  0.741855D-04 -0.250532D-03  0.374593D-03 -0.146415D-03
     53 -0.222112D-04 -0.459991D-03 -0.819394D-04  0.171386D-02 -0.164934D-02
     54 -0.451662D-03  0.108768D-03  0.280233D-03 -0.296421D-03  0.310565D-03
     55 -0.276464D-03 -0.534176D-03  0.168593D-03  0.133927D-02 -0.150293D-02
     56 -0.705914D-03  0.345825D-04  0.530765D-03 -0.671014D-03  0.456980D-03
     57 -0.118637D-04 -0.255288D-02  0.710258D-03  0.366820D-02 -0.347193D-02
     58  0.538009D-03  0.426366D-03  0.885749D-03  0.374533D-02 -0.369080D-02
     59 -0.181754D-03 -0.314360D-02  0.353892D-03  0.847615D-03 -0.898407D-03
     60  0.368119D-03 -0.164349D-03  0.529383D-03  0.924744D-03 -0.111728D-02
     61 -0.112484D-02 -0.346047D-02 -0.137012D-02 -0.156178D-04  0.102825D-02
     62 -0.574972D-03 -0.481217D-03 -0.119463D-02  0.615104D-04  0.809376D-03
     63 -0.603405D-03 -0.347184D-02 -0.140568D-02  0.349124D-02 -0.389083D-02
     64  0.350913D-03  0.176201D-02  0.109558D-02 -0.997187D-03  0.649290D-04
     65 -0.578438D-03 -0.506346D-03 -0.773277D-03  0.117192D-02 -0.114766D-02
               26            27            28            29            30 
     26  0.690905D-01
     27 -0.248543D-03  0.282210D-01
     28 -0.336516D-03 -0.139709D-02  0.202303D-01
     29 -0.707399D-03 -0.202707D-01 -0.571849D-02  0.328920D-01
     30  0.442357D-03 -0.123634D-01 -0.114985D-01  0.119878D-01  0.178906D-01
     31  0.362579D-03 -0.277822D-02  0.361969D-02 -0.950151D-02 -0.107237D-02
     32  0.595144D-03  0.797013D-02 -0.599595D-02 -0.100399D-01 -0.410796D-02
     33  0.667242D-03 -0.529414D-02 -0.322479D-03  0.351319D-02  0.245525D-02
     34  0.422018D-03 -0.227917D-02 -0.178663D-02  0.515513D-02  0.203937D-02
     35  0.343071D-03  0.263958D-02 -0.197705D-02 -0.441237D-03  0.185293D-03
     36 -0.121915D-03 -0.187485D-02  0.103707D-02  0.734132D-03  0.345297D-03
     37  0.230277D-03  0.940826D-03 -0.100651D-02 -0.171508D-03  0.944966D-04
     38  0.108362D-03 -0.934028D-03  0.305633D-04  0.562624D-03  0.439793D-03
     39 -0.188767D-02 -0.181139D-02 -0.370209D-03  0.280765D-02  0.651333D-03
     40  0.134120D-03  0.239347D-02 -0.872327D-03 -0.144882D-02 -0.715026D-03
     41  0.441183D-03 -0.211819D-05 -0.138363D-02  0.147724D-02  0.111761D-02
     42  0.269635D-03 -0.187463D-02  0.377938D-03 -0.398759D-03  0.848251D-03
     43  0.263324D-03 -0.126865D-02  0.263002D-04  0.126961D-02  0.548610D-03
     44  0.294857D-03 -0.685065D-03  0.977901D-03 -0.187097D-02 -0.586825D-04
     45  0.567686D-03 -0.321637D-02  0.191318D-02 -0.565418D-02  0.111124D-02
     46 -0.456363D-04 -0.252021D-02  0.218297D-02  0.190737D-02 -0.615717D-03
     47 -0.503819D-03  0.204208D-02 -0.405415D-03  0.420910D-02 -0.940025D-04
     48 -0.142436D-03 -0.412617D-04  0.683138D-03 -0.425158D-03 -0.312565D-02
     49  0.232378D-04  0.241297D-02 -0.114687D-02 -0.280239D-02  0.344265D-02
     50  0.723973D-04 -0.213484D-02  0.109197D-02  0.283253D-02 -0.147084D-02
     51  0.115045D-04 -0.178184D-04 -0.292252D-03  0.534791D-04  0.189405D-03
     52 -0.130932D-03 -0.590801D-04  0.390886D-03 -0.371679D-03 -0.293625D-02
     53  0.347423D-04  0.239516D-02 -0.143912D-02 -0.274891D-02  0.363205D-02
     54  0.839018D-04 -0.215266D-02  0.799715D-03  0.288601D-02 -0.128143D-02
     55  0.165674D-03  0.245424D-02 -0.183000D-02 -0.237723D-02  0.656830D-02
     56  0.214834D-03 -0.209358D-02  0.408829D-03  0.325769D-02  0.165482D-02
     57 -0.201882D-03  0.109630D-01  0.529039D-02 -0.138881D-01 -0.725184D-02
     58 -0.618165D-04  0.113736D-01  0.601921D-02 -0.164422D-01 -0.786460D-02
     59  0.714471D-04  0.384246D-02 -0.112509D-01 -0.252790D-02  0.258912D-02
     60  0.211513D-03  0.425305D-02 -0.105221D-01 -0.508199D-02  0.197636D-02
     61 -0.100742D-02  0.208904D-02 -0.334183D-03  0.762369D-02 -0.103650D-02
     62 -0.867350D-03  0.249963D-02  0.394641D-03  0.506960D-02 -0.164926D-02
     63  0.396330D-03  0.148125D-01 -0.287815D-02 -0.129074D-01 -0.548529D-02
     64  0.925726D-03 -0.549567D-02  0.145813D-03 -0.242609D-02  0.295385D-02
     65 -0.523128D-04  0.614503D-02  0.146870D-01 -0.678807D-02 -0.151631D-01
               31            32            33            34            35 
     31  0.111709D-01
     32 -0.699499D-03  0.134871D-01
     33  0.698628D-03 -0.870094D-03  0.974729D-02
     34 -0.297093D-02 -0.260825D-03  0.689379D-02  0.794803D-02
     35 -0.299292D-02  0.255979D-02 -0.274486D-03 -0.553714D-03  0.813797D-02
     36  0.900050D-03 -0.111825D-02  0.888928D-03 -0.455859D-03  0.639995D-03
     37 -0.658021D-03  0.806659D-03 -0.750156D-03  0.359447D-03 -0.515474D-03
     38  0.242029D-03 -0.311591D-03  0.138772D-03 -0.964120D-04  0.124520D-03
     39 -0.867807D-03 -0.464524D-03 -0.840345D-03  0.409200D-03 -0.295030D-02
     40 -0.709412D-03  0.133291D-02 -0.756383D-03  0.484519D-03 -0.103943D-02
     41 -0.150596D-02  0.275253D-03 -0.240723D-02 -0.937104D-03  0.116865D-03
     42  0.138935D-02 -0.174477D-03 -0.144765D-02 -0.222850D-02  0.195266D-03
     43 -0.988172D-04 -0.477139D-03 -0.731301D-03  0.166346D-02 -0.357183D-04
     44  0.159422D-02  0.192750D-03 -0.127466D-02 -0.326722D-03 -0.100460D-02
     45  0.595502D-02  0.506336D-03 -0.391676D-02 -0.638654D-02  0.489712D-02
     46  0.565460D-03 -0.161883D-02  0.316335D-02 -0.293212D-03  0.224155D-03
     47 -0.515019D-02 -0.108423D-02 -0.700360D-02 -0.495203D-02  0.635990D-02
     48  0.216125D-02  0.711399D-03 -0.775420D-05 -0.654775D-03 -0.894214D-03
     49  0.137281D-02 -0.318700D-02 -0.692503D-03 -0.819398D-03 -0.212213D-03
     50 -0.349851D-02  0.309551D-02  0.362621D-03  0.112921D-02  0.140269D-02
     51 -0.381348D-04  0.122433D-03  0.222724D-05  0.157372D-04  0.575518D-04
     52  0.212311D-02  0.833832D-03 -0.552696D-05 -0.639038D-03 -0.836663D-03
     53  0.133468D-02 -0.306457D-02 -0.690275D-03 -0.803660D-03 -0.154662D-03
     54 -0.353665D-02  0.321794D-02  0.364849D-03  0.114495D-02  0.146024D-02
     55 -0.788432D-03 -0.389840D-02 -0.684749D-03 -0.164623D-03  0.682001D-03
     56 -0.565976D-02  0.238411D-02  0.370376D-03  0.178399D-02  0.229690D-02
     57  0.108758D-02  0.369661D-02 -0.923492D-03 -0.239717D-02  0.198937D-02
     58  0.229551D-02  0.465013D-02 -0.340257D-02 -0.239313D-02  0.186388D-03
     59 -0.998912D-03  0.900248D-02  0.104393D-02 -0.164525D-03  0.271726D-02
     60  0.209017D-03  0.995599D-02 -0.143514D-02 -0.160479D-03  0.914279D-03
     61 -0.495405D-02 -0.420607D-02  0.499274D-03  0.532925D-03  0.108723D-02
     62 -0.374612D-02 -0.325255D-02 -0.197980D-02  0.536971D-03 -0.715756D-03
     63  0.195709D-02  0.448306D-02 -0.126510D-02 -0.832641D-03  0.313148D-03
     64  0.395262D-02  0.154737D-02  0.261234D-02  0.711208D-03 -0.638710D-03
     65  0.245857D-03 -0.695351D-04 -0.122655D-03 -0.107277D-03 -0.705058D-03
               36            37            38            39            40 
     36  0.321768D-02
     37 -0.202089D-02  0.298839D-02
     38  0.119678D-02  0.967497D-03  0.216428D-02
     39 -0.706517D-03  0.430246D-04 -0.663493D-03  0.939865D-02
     40  0.965629D-03  0.524148D-04  0.101804D-02  0.726010D-03  0.227807D-02
     41 -0.586431D-03  0.532568D-03 -0.538627D-04 -0.284361D-03 -0.123493D-03
     42  0.409651D-03 -0.425384D-03 -0.157334D-04 -0.290615D-02 -0.160889D-03
     43 -0.173012D-02  0.278639D-02  0.105627D-02 -0.738543D-02 -0.321444D-03
     44  0.116033D-02 -0.249965D-02 -0.133932D-02  0.315443D-02  0.124793D-04
     45  0.136633D-02 -0.907450D-03  0.458884D-03 -0.306056D-02 -0.163587D-02
     46  0.559765D-03 -0.406130D-03  0.153635D-03  0.304813D-02 -0.341424D-03
     47  0.248108D-03 -0.151176D-03  0.969328D-04 -0.504512D-03 -0.523798D-03
     48  0.181884D-03 -0.139807D-03  0.420761D-04  0.369958D-04 -0.122681D-03
     49  0.547989D-04 -0.656605D-04 -0.108615D-04 -0.614104D-03 -0.245307D-05
     50 -0.165906D-03  0.160693D-03 -0.521293D-05  0.446424D-03  0.118879D-03
     51  0.672894D-05 -0.161535D-04 -0.942458D-05  0.286359D-04  0.324009D-04
     52  0.188612D-03 -0.155961D-03  0.326515D-04  0.656317D-04 -0.902800D-04
     53  0.615279D-04 -0.818140D-04 -0.202861D-04 -0.585468D-03  0.299478D-04
     54 -0.159177D-03  0.144540D-03 -0.146375D-04  0.475060D-03  0.151280D-03
     55 -0.127085D-03  0.741470D-04 -0.529376D-04 -0.651100D-03  0.120228D-03
     56 -0.347790D-03  0.300501D-03 -0.472890D-04  0.409428D-03  0.241560D-03
     57  0.651792D-03 -0.994601D-03 -0.342809D-03 -0.267054D-02 -0.140749D-03
     58 -0.874457D-03  0.418679D-03 -0.455778D-03  0.671775D-03  0.146592D-02
     59  0.273563D-03 -0.381530D-03 -0.107967D-03 -0.155241D-02 -0.343823D-04
     60 -0.125269D-02  0.103175D-02 -0.220936D-03  0.178991D-02  0.157229D-02
     61  0.967232D-03 -0.104828D-02 -0.810452D-04 -0.927727D-03 -0.882878D-03
     62 -0.559017D-03  0.365003D-03 -0.194014D-03  0.241459D-02  0.723793D-03
     63 -0.813666D-03  0.412937D-03 -0.400729D-03 -0.268258D-02  0.103410D-02
     64  0.440966D-03 -0.202781D-03  0.238185D-03 -0.164567D-02 -0.536041D-03
     65  0.170666D-03 -0.400478D-03 -0.229812D-03 -0.175629D-02 -0.355501D-04
               41            42            43            44            45 
     41  0.332018D-02
     42 -0.108448D-02  0.335085D-02
     43 -0.575767D-03  0.405272D-02  0.181818D-01
     44  0.505419D-02 -0.425700D-02 -0.849338D-02  0.166648D-01
     45  0.531876D-03  0.260884D-02  0.393927D-04  0.151515D-02  0.123124D-01
     46 -0.363391D-02  0.150409D-03 -0.746565D-02 -0.540688D-02 -0.369232D-03
     47  0.187372D-02  0.101690D-02 -0.776008D-03 -0.422453D-03  0.542559D-02
     48 -0.471162D-03  0.395606D-04  0.100008D-04  0.669151D-04  0.421686D-03
     49  0.923411D-05  0.104687D-03 -0.134270D-03  0.192342D-03  0.955110D-03
     50  0.420762D-03 -0.130847D-03  0.137055D-03 -0.166218D-03 -0.933393D-03
     51  0.181461D-04  0.329364D-04 -0.250452D-04 -0.265539D-04  0.264244D-05
     52 -0.453016D-03  0.724970D-04 -0.150444D-04  0.403612D-04  0.424328D-03
     53  0.273802D-04  0.137624D-03 -0.159316D-03  0.165788D-03  0.957752D-03
     54  0.438908D-03 -0.979103D-04  0.112009D-03 -0.192772D-03 -0.930750D-03
     55  0.480396D-03  0.651266D-04 -0.144271D-03  0.125427D-03  0.533424D-03
     56  0.891924D-03 -0.170407D-03  0.127054D-03 -0.233133D-03 -0.135508D-02
     57 -0.334209D-03 -0.100692D-03 -0.105938D-02  0.106139D-02  0.140048D-02
     58 -0.652853D-03 -0.280262D-03 -0.125543D-02  0.975172D-03  0.163753D-02
     59  0.637684D-03  0.272932D-05 -0.689513D-03  0.306022D-03  0.244316D-03
     60  0.319041D-03 -0.176840D-03 -0.885563D-03  0.219808D-03  0.481364D-03
     61  0.478943D-03 -0.875308D-03 -0.363802D-03 -0.643203D-03 -0.371491D-02
     62  0.160299D-03 -0.105488D-02 -0.559852D-03 -0.729417D-03 -0.347786D-02
     63 -0.892776D-04 -0.851138D-03  0.428163D-03  0.422828D-03 -0.104001D-02
     64 -0.121513D-04  0.811643D-03  0.126011D-02  0.141374D-02  0.260829D-02
     65 -0.726096D-03 -0.739730D-03  0.910063D-03  0.630570D-03 -0.174778D-02
               46            47            48            49            50 
     46  0.109490D-01
     47 -0.194385D-03  0.118729D-01
     48  0.434020D-03 -0.911613D-03  0.264629D-02
     49 -0.574831D-03  0.779970D-04 -0.895085D-03  0.434284D-02
     50  0.141293D-03  0.127601D-02  0.186075D-03 -0.239122D-02  0.420954D-02
     51 -0.335344D-04  0.265204D-05 -0.913848D-03 -0.883534D-03 -0.890051D-03
     52  0.400486D-03 -0.908961D-03  0.173244D-02 -0.177862D-02 -0.703976D-03
     53 -0.608365D-03  0.806490D-04 -0.180893D-02  0.345930D-02 -0.328127D-02
     54  0.107758D-03  0.127866D-02 -0.727772D-03 -0.327475D-02  0.331949D-02
     55 -0.100885D-02  0.989610D-03 -0.354138D-02  0.523792D-02 -0.257730D-02
     56 -0.292728D-03  0.218762D-02 -0.246022D-02 -0.149614D-02  0.402347D-02
     57 -0.112455D-02 -0.334452D-03 -0.733564D-03  0.106788D-02 -0.479436D-04
     58 -0.578461D-03 -0.274135D-03 -0.716400D-03  0.107906D-02 -0.595604D-04
     59 -0.189474D-02 -0.100179D-02  0.508075D-03 -0.123844D-02  0.859352D-03
     60 -0.134865D-02 -0.941477D-03  0.525239D-03 -0.122726D-02  0.847735D-03
     61  0.127055D-04  0.273859D-02  0.213095D-03  0.835393D-04 -0.327895D-03
     62  0.558794D-03  0.279891D-02  0.230259D-03  0.947140D-04 -0.339512D-03
     63 -0.253344D-02 -0.199474D-02  0.925677D-03  0.203362D-02 -0.296643D-02
     64 -0.100620D-02 -0.376365D-02 -0.252028D-03 -0.120625D-03  0.302898D-03
     65  0.240395D-03 -0.677020D-03  0.198111D-02 -0.316570D-02  0.212305D-02
               51            52            53            54            55 
     51  0.173623D-02
     52  0.822387D-03  0.255483D-02
     53  0.852701D-03 -0.956232D-03  0.431201D-02
     54  0.846183D-03  0.118411D-03 -0.242857D-02  0.416568D-02
     55  0.303141D-04 -0.351106D-02  0.526824D-02 -0.254698D-02  0.877930D-02
     56  0.237966D-04 -0.243642D-02 -0.147234D-02  0.404727D-02  0.964081D-03
     57 -0.639721D-04 -0.797536D-03  0.100391D-02 -0.111916D-03  0.180145D-02
     58 -0.673146D-04 -0.783715D-03  0.101174D-02 -0.126875D-03  0.179546D-02
     59  0.182515D-03  0.690590D-03 -0.105592D-02  0.104187D-02 -0.174651D-02
     60  0.179172D-03  0.704411D-03 -0.104809D-02  0.102691D-02 -0.175250D-02
     61 -0.348310D-04  0.178264D-03  0.487083D-04 -0.362726D-03 -0.129556D-03
     62 -0.381735D-04  0.192086D-03  0.565404D-04 -0.377685D-03 -0.135545D-03
     63  0.336361D-05  0.929041D-03  0.203699D-02 -0.296306D-02  0.110795D-02
     64  0.171293D-04 -0.234898D-03 -0.103496D-03  0.320028D-03  0.131402D-03
     65 -0.244322D-03  0.173679D-02 -0.341002D-02  0.187873D-02 -0.514681D-02
               56            57            58            59            60 
     56  0.648369D-02
     57  0.685621D-03  0.100878D-01
     58  0.656840D-03  0.732212D-02  0.106918D-01
     59  0.351277D-03  0.173881D-02 -0.176944D-02  0.116001D-01
     60  0.322496D-03 -0.102682D-02  0.160026D-02  0.809187D-02  0.107189D-01
     61 -0.540990D-03  0.552379D-03 -0.432576D-02  0.389930D-03 -0.448821D-02
     62 -0.569771D-03 -0.221325D-02 -0.956061D-03 -0.311832D-02 -0.186113D-02
     63 -0.389210D-02  0.556548D-02  0.504607D-02  0.381279D-02  0.329338D-02
     64  0.554926D-03  0.145573D-03 -0.454696D-04  0.132802D-02  0.113698D-02
     65  0.141941D-03  0.617168D-02  0.564291D-02 -0.565661D-02 -0.618538D-02
               61            62            63            64            65 
     61  0.811112D-02
     62  0.323298D-02  0.449018D-02
     63  0.429031D-03 -0.903792D-04  0.101084D-01
     64 -0.379897D-02 -0.399002D-02 -0.143680D-02  0.435499D-02
     65  0.183253D-02  0.130375D-02  0.174673D-02 -0.169719D-02  0.157341D-01
 Force constants in internal coordinates: 
                1             2             3             4             5 
      1  0.448254D+00
      2  0.788587D-02  0.331230D+00
      3  0.874984D-02 -0.660988D-04  0.360035D+00
      4  0.936922D-03 -0.225234D-02 -0.377202D-03  0.683229D-02
      5 -0.178099D-02 -0.124069D-01  0.473067D-03 -0.390742D-02  0.423554D-02
      6 -0.110914D-03 -0.150968D-02  0.845073D-03  0.289240D-03  0.273413D-03
      7  0.188337D-02  0.244963D-01 -0.401903D-03  0.282752D-03 -0.129123D-02
      8 -0.997422D-03 -0.732371D-02  0.372209D-04 -0.308662D-02  0.367564D-03
      9  0.103635D-03  0.472843D-02  0.358054D-03  0.130752D-01 -0.833740D-03
     10 -0.216548D-03 -0.940962D-04  0.207077D-04  0.595379D-03 -0.210929D-03
     11 -0.696822D-04  0.151190D-03  0.510728D-04 -0.290760D-04  0.108983D-03
     12  0.309003D-03  0.754541D-02 -0.953175D-04  0.170598D-01 -0.227371D-01
     13  0.229076D-03 -0.798375D-05  0.441989D-05  0.811984D-04  0.231150D-03
     14 -0.660636D-03  0.588903D-02  0.160721D-04  0.475957D-02 -0.594536D-02
     15  0.161239D-01  0.894800D-02 -0.499744D-02  0.763185D-03  0.557442D-03
     16  0.100897D-01 -0.109404D-01  0.185732D-02 -0.120143D-02 -0.300967D-02
     17 -0.223561D-02  0.113283D-01 -0.829585D-03  0.973219D-03 -0.134710D-02
     18 -0.106856D-02  0.125358D-01 -0.159332D-02 -0.304928D-02  0.251951D-02
     19 -0.227965D-01  0.631626D-02  0.430487D-02  0.380227D-03  0.233389D-02
     20 -0.165695D-02  0.809469D-02 -0.202306D-02  0.796856D-03 -0.105574D-02
     21  0.529779D-01  0.280630D-02 -0.403311D-03  0.688016D-03 -0.844067D-04
     22  0.181501D-02 -0.162408D-01 -0.378403D-03 -0.109374D-02  0.649724D-03
     23  0.686402D-03  0.204120D-02 -0.163956D-03  0.202908D-02 -0.322779D-02
     24 -0.513117D-04 -0.412938D-03  0.210029D-04  0.213738D-02 -0.935474D-03
     25  0.108478D-03  0.540673D-03 -0.173273D-05 -0.777783D-03  0.645165D-03
     26 -0.493333D-04 -0.129361D-03 -0.244679D-04 -0.134546D-02  0.285084D-03
     27 -0.266971D-02 -0.941528D-02  0.470881D-03  0.655230D-02 -0.245856D-02
     28  0.150816D-02  0.106126D-02 -0.292130D-03 -0.529185D-02  0.254116D-02
     29 -0.299681D-02  0.605362D-02  0.744892D-03 -0.801283D-03  0.821837D-03
     30  0.863492D-04  0.316422D-02  0.219348D-04  0.127894D-03 -0.721555D-03
     31  0.423244D-02  0.570862D-02 -0.932524D-03 -0.390761D-02  0.108526D-02
     32  0.206531D-03 -0.641535D-02 -0.935224D-04  0.319715D-02 -0.130285D-02
     33  0.225854D-02  0.206502D-01 -0.417212D-03 -0.460863D-02  0.340686D-02
     34 -0.215244D-02 -0.610704D-02  0.417302D-03 -0.338102D-02  0.402223D-02
     35 -0.433310D-03  0.107643D-01  0.163276D-03  0.124222D-02 -0.765556D-03
     36  0.127990D-02  0.127640D-01  0.851133D-03 -0.300207D-03  0.358017D-03
     37 -0.139794D-02 -0.114126D-01 -0.362222D-02  0.000000D+00 -0.416164D-03
     38 -0.118038D-03  0.135147D-02 -0.277109D-02 -0.300799D-03 -0.581472D-04
     39 -0.333118D-03 -0.233438D-01 -0.176943D-02  0.337129D-02  0.584219D-03
     40  0.150865D-03 -0.130740D-01  0.115560D-03  0.863112D-03  0.356448D-03
     41 -0.647916D-02 -0.254543D-02 -0.647047D-03  0.111096D-03 -0.461039D-03
     42  0.469646D-02  0.427723D-02  0.229003D-02 -0.336090D-03 -0.157453D-02
     43 -0.127527D-02 -0.662655D-02  0.163912D-02 -0.424990D-02  0.268624D-03
     44 -0.118472D-01 -0.281319D-02  0.843237D-03 -0.138203D-02  0.256087D-02
     45  0.220825D-02  0.780743D-02 -0.469035D-03 -0.987153D-03 -0.151011D-02
     46  0.102706D-01  0.765472D-02 -0.218635D-02  0.143540D-02 -0.837223D-03
     47 -0.180976D-02 -0.589252D-02  0.417530D-03  0.442900D-02 -0.305704D-02
     48  0.597256D-03  0.221651D-02 -0.157673D-03 -0.653688D-03  0.316528D-03
     49 -0.781858D-04  0.579841D-03 -0.899697D-05  0.355562D-03 -0.541749D-03
     50 -0.822084D-03 -0.275898D-02  0.178442D-03  0.285327D-03  0.839868D-04
     51  0.631798D-04 -0.241278D-04 -0.464397D-04  0.149163D-04 -0.222445D-04
     52  0.660435D-03  0.219238D-02 -0.204112D-03 -0.638772D-03  0.294284D-03
     53 -0.150060D-04  0.555713D-03 -0.554366D-04  0.370478D-03 -0.563993D-03
     54 -0.758905D-03 -0.278310D-02  0.132002D-03  0.300244D-03  0.617422D-04
     55 -0.675441D-03 -0.163667D-02  0.148676D-03  0.100925D-02 -0.858277D-03
     56 -0.141934D-02 -0.497549D-02  0.336114D-03  0.939016D-03 -0.232542D-03
     57 -0.283328D-03  0.220563D-01  0.226310D-03  0.139968D-02 -0.152253D-02
     58  0.922857D-03 -0.208141D-01 -0.257597D-03  0.137391D-02  0.234791D-04
     59 -0.593581D-03  0.243306D-01  0.288770D-03  0.389931D-02 -0.270201D-02
     60  0.612604D-03 -0.185398D-01 -0.195137D-03  0.387355D-02 -0.115600D-02
     61 -0.288130D-02  0.274645D-01  0.827954D-03  0.199514D-02 -0.135343D-02
     62 -0.167511D-02 -0.154059D-01  0.344047D-03  0.196938D-02  0.192581D-03
     63 -0.155593D-02  0.288115D-02  0.218731D-03  0.158676D-02 -0.763342D-03
     64  0.845170D-03  0.678204D-02 -0.218010D-03 -0.343404D-02  0.104168D-02
     65 -0.136226D-02  0.360643D-02  0.244868D-03 -0.331703D-02  0.200745D-02
                6             7             8             9            10 
      6  0.550441D+00
      7 -0.348892D-03  0.525125D-02
      8 -0.174851D-03 -0.372755D-02  0.633898D-02
      9 -0.188475D-03 -0.423200D-02 -0.513748D-02  0.307109D+00
     10  0.140525D-05  0.362223D-03 -0.623699D-03  0.301242D-02  0.364431D+00
     11  0.100101D-04 -0.502069D-03  0.395658D-03  0.309312D-02  0.109237D-02
     12  0.202933D-04 -0.812965D-02  0.205475D-01 -0.170180D-02 -0.657205D-03
     13 -0.538878D-04  0.539475D-04 -0.191644D-03  0.149971D-01  0.125017D-03
     14 -0.146228D-03  0.208361D-01 -0.148434D-01  0.309033D-02  0.596448D-03
     15  0.488226D-02 -0.882524D-04 -0.846064D-03 -0.853812D-02 -0.188972D-03
     16 -0.494707D-02  0.241645D-02  0.144715D-02  0.641012D-02  0.480651D-04
     17 -0.204408D-03  0.802698D-03 -0.181119D-03  0.135865D-01  0.386922D-03
     18  0.874739D-03  0.250665D-03 -0.632472D-03 -0.102649D-01 -0.353014D-03
     19  0.289544D-03 -0.213629D-02 -0.566966D-03  0.410369D-02  0.140566D-03
     20  0.573867D-04 -0.423355D-03  0.130393D-02  0.507342D-02 -0.203366D-04
     21  0.168176D-01  0.823766D-04 -0.645660D-03 -0.331073D-03  0.340504D-05
     22  0.732614D-03 -0.737226D-03  0.169204D-02  0.106225D-02 -0.311353D-03
     23  0.970900D-04  0.162262D-02  0.998217D-03  0.841158D-03 -0.255604D-05
     24 -0.305230D-04  0.103771D-02 -0.177346D-02  0.845258D-02  0.396941D-02
     25  0.510600D-05 -0.131395D-02  0.120854D-02  0.907730D-02 -0.104552D-01
     26  0.231144D-04  0.275622D-03  0.552628D-03 -0.173895D-01  0.652867D-02
     27 -0.242601D-03  0.430689D-02 -0.814910D-02 -0.497677D-02  0.185602D-02
     28  0.237922D-03 -0.581734D-04  0.308200D-02  0.160366D-01  0.155891D-03
     29 -0.455057D-03 -0.494540D-02  0.416300D-02  0.323892D-02 -0.135932D-02
     30 -0.536366D-04 -0.267238D-02  0.307364D-02 -0.755714D-02 -0.829314D-03
     31  0.521680D-03  0.795253D-03  0.228105D-02  0.188407D-02 -0.280790D-04
     32  0.332935D-04  0.262488D-02 -0.431791D-02 -0.958109D-02  0.147289D-03
     33  0.130542D-03  0.246124D-02 -0.245337D-02 -0.612813D-02 -0.430004D-03
     34 -0.208978D-03  0.468276D-03 -0.240296D-02 -0.458644D-02 -0.292878D-03
     35 -0.260103D-03 -0.157311D-02  0.590064D-03 -0.521328D-02 -0.723050D-04
     36 -0.511255D-04 -0.308585D-03  0.318372D-03  0.390482D-02 -0.132077D-04
     37 -0.694077D-03  0.188495D-03  0.107419D-03 -0.523901D-02 -0.341844D-04
     38 -0.745203D-03 -0.120090D-03  0.425792D-03 -0.133419D-02 -0.473922D-04
     39  0.146507D-02 -0.216870D-02 -0.158644D-02  0.297136D-01  0.244612D-03
     40 -0.205711D-03 -0.327002D-03 -0.104779D-02 -0.258925D-02  0.175987D-03
     41  0.121037D-03 -0.891240D-03  0.131010D-02 -0.945391D-02 -0.176627D-03
     42 -0.618180D-03  0.232934D-03  0.177190D-02 -0.353024D-02 -0.170924D-03
     43 -0.310231D-02  0.595377D-03  0.280524D-02  0.801380D-03 -0.228235D-03
     44  0.205738D-02 -0.220859D-02  0.120744D-02 -0.202391D-02 -0.849083D-04
     45  0.204375D-03 -0.290055D-02  0.566328D-02 -0.335105D-02 -0.327550D-03
     46  0.109327D-02  0.605674D-03 -0.152308D-02 -0.274707D-02 -0.676605D-04
     47 -0.167000D-03 -0.441382D-02  0.332557D-02  0.212513D-02  0.386871D-04
     48  0.941144D-04  0.336529D-03 -0.658180D-04  0.120472D-02 -0.590757D-03
     49  0.230544D-04 -0.183256D-03  0.414363D-03 -0.887463D-03 -0.281560D-03
     50 -0.813904D-04 -0.234929D-03 -0.164202D-03  0.119222D-04 -0.909627D-03
     51 -0.178935D-04  0.165143D-04 -0.616035D-04 -0.170489D-03  0.882585D-03
     52  0.762209D-04  0.353043D-03 -0.127422D-03  0.103423D-02  0.291828D-03
     53  0.516086D-05 -0.166741D-03  0.352759D-03 -0.105795D-02  0.601025D-03
     54 -0.992839D-04 -0.218415D-03 -0.225806D-03 -0.158566D-03 -0.270418D-04
     55 -0.710600D-04 -0.519785D-03  0.480181D-03 -0.209218D-02  0.309197D-03
     56 -0.175505D-03 -0.571458D-03 -0.983841D-04 -0.119280D-02 -0.318870D-03
     57 -0.782948D-04  0.407363D-02 -0.316369D-02  0.692405D-02  0.814459D-03
     58  0.370862D-03  0.101357D-02 -0.190407D-02  0.536339D-02  0.794668D-03
     59 -0.190426D-03  0.331330D-02 -0.408516D-02 -0.488514D-02  0.511466D-04
     60  0.258731D-03  0.253246D-03 -0.282554D-02 -0.644580D-02  0.313559D-04
     61 -0.449555D-03  0.123063D-02 -0.170427D-02  0.903942D-02  0.305909D-03
     62  0.000000D+00 -0.182943D-02 -0.444651D-03  0.747876D-02  0.286118D-03
     63 -0.205856D-03  0.348014D-02 -0.446521D-02 -0.103187D-01  0.935956D-03
     64  0.375471D-04  0.755149D-03  0.148473D-02 -0.748994D-02 -0.490474D-03
     65 -0.164182D-03  0.216236D-02 -0.100323D-02  0.510049D-02  0.407588D-03
               11            12            13            14            15 
     11  0.364673D+00
     12  0.611001D-03  0.260147D+00
     13  0.120374D-03  0.371794D-02  0.317733D+00
     14 -0.473884D-03  0.159717D-01  0.352715D-02  0.285051D+00
     15 -0.200109D-03  0.217361D-02  0.149158D-03 -0.656979D-02  0.593084D-01
     16  0.719625D-05  0.682996D-04  0.198721D-03  0.291392D-02 -0.316152D-01
     17 -0.116793D-03  0.942066D-02  0.596265D-03 -0.655217D-02 -0.204650D-02
     18  0.926789D-04 -0.213614D-01 -0.571062D-03 -0.778085D-02  0.831624D-02
     19  0.185654D-03 -0.194169D-02 -0.207944D-03  0.174809D-02 -0.237157D-01
     20  0.184456D-03  0.136177D-01  0.349823D-03 -0.279523D-02  0.180905D-02
     21  0.867656D-04  0.124183D-03 -0.762162D-04 -0.368396D-03  0.118997D-01
     22  0.242399D-03  0.109132D-01  0.708660D-03  0.254247D-01  0.787338D-02
     23 -0.307739D-04  0.328050D-01  0.717088D-03  0.354884D-01  0.180348D-02
     24 -0.104940D-01  0.200795D-02  0.530285D-03 -0.199365D-02 -0.935955D-04
     25  0.398220D-02 -0.151899D-02  0.553228D-03  0.277397D-02 -0.626246D-03
     26  0.655696D-02 -0.489279D-03 -0.103895D-02 -0.778757D-03  0.711139D-03
     27 -0.142241D-02 -0.104540D-01 -0.288031D-02 -0.392321D-02 -0.646833D-02
     28  0.129661D-03  0.457281D-02  0.694970D-03 -0.158888D-02  0.538959D-02
     29  0.193763D-02 -0.678562D-03 -0.158298D-02  0.310843D-02 -0.106925D-01
     30  0.305951D-03  0.644688D-02  0.242744D-02  0.163682D-02 -0.505707D-03
     31 -0.282661D-03  0.214959D-04 -0.895499D-03 -0.318954D-02  0.128176D-01
     32 -0.720975D-03  0.834799D-03  0.262599D-02  0.419301D-02  0.514436D-03
     33  0.256614D-04 -0.392551D-01  0.125747D-02  0.245085D-02  0.456308D-02
     34  0.523468D-04 -0.385819D-01  0.108222D-02  0.432263D-02 -0.478420D-02
     35 -0.160948D-03  0.350758D-02  0.125965D-02 -0.390950D-01 -0.236335D-02
     36  0.886411D-04  0.115819D-02  0.220400D-03 -0.499741D-02  0.286870D-02
     37 -0.316012D-04 -0.159262D-03 -0.249297D-03  0.382070D-02 -0.345011D-02
     38  0.570398D-04  0.998925D-03 -0.288977D-04 -0.117671D-02 -0.581410D-03
     39  0.429831D-03 -0.231905D-02  0.129945D-02  0.109460D-01  0.964542D-02
     40 -0.215040D-03 -0.215493D-02 -0.141528D-03  0.606130D-02 -0.442399D-03
     41 -0.250678D-04  0.126462D-01 -0.310209D-03  0.326373D-02 -0.418910D-02
     42 -0.470591D-04  0.134209D-01  0.651616D-04 -0.404202D-03 -0.213939D-02
     43 -0.185260D-04 -0.298959D-02  0.337473D-03 -0.621704D-03 -0.255552D-01
     44 -0.118815D-03  0.561091D-02  0.345601D-03  0.942831D-03  0.560081D-02
     45 -0.129479D-03  0.306961D-01  0.785996D-03 -0.372022D-01  0.746044D-02
     46  0.269034D-03 -0.596167D-02 -0.762425D-03 -0.348683D-02  0.184612D-01
     47  0.377520D-03  0.332557D-01 -0.725447D-03 -0.329006D-01 -0.507239D-02
     48 -0.107724D-03 -0.350077D-02 -0.212519D-02 -0.158619D-02  0.190019D-02
     49 -0.594818D-03  0.722446D-03 -0.516881D-03 -0.324357D-02  0.533501D-03
     50 -0.110731D-03  0.443152D-02  0.222373D-02  0.311935D-02 -0.239796D-02
     51  0.904306D-03 -0.413624D-04  0.299584D-03 -0.481494D-04 -0.183856D-04
     52  0.796583D-03 -0.354213D-02 -0.182560D-02 -0.163434D-02  0.188180D-02
     53  0.309488D-03  0.681084D-03 -0.217298D-03 -0.329172D-02  0.515115D-03
     54  0.793575D-03  0.439016D-02  0.252331D-02  0.307120D-02 -0.241634D-02
     55 -0.487094D-03  0.422321D-02  0.160830D-02 -0.165738D-02 -0.136668D-02
     56 -0.300754D-05  0.793229D-02  0.434891D-02  0.470553D-02 -0.429814D-02
     57 -0.796750D-03  0.362690D-02  0.197674D-02  0.894301D-03  0.557682D-03
     58 -0.865711D-03  0.412138D-02  0.200085D-02 -0.461652D-03  0.432419D-02
     59 -0.301940D-03  0.311077D-04  0.125392D-02  0.413806D-02 -0.186414D-02
     60 -0.370900D-03  0.525582D-03  0.127803D-02  0.278210D-02  0.190237D-02
     61  0.513003D-03 -0.414291D-02 -0.255959D-02 -0.568768D-05 -0.828327D-02
     62  0.444043D-03 -0.364844D-02 -0.253548D-02 -0.136164D-02 -0.451676D-02
     63 -0.965188D-03 -0.138231D-01 -0.286378D-02 -0.108352D-02 -0.243517D-02
     64 -0.252886D-03 -0.170448D-03  0.245330D-02  0.404811D-02  0.386364D-02
     65 -0.114556D-03 -0.804099D-02 -0.122925D-02  0.158793D-02 -0.188014D-02
               16            17            18            19            20 
     16  0.488659D-01
     17 -0.527678D-03  0.316751D-02
     18 -0.953998D-02 -0.110575D-02  0.516397D-02
     19 -0.169501D-01  0.235002D-02  0.129057D-02  0.372498D-01
     20 -0.319360D-02  0.132187D-02 -0.475936D-04  0.113018D-02  0.175520D-02
     21 -0.623363D-02 -0.584267D-03  0.154775D-02 -0.484160D-02  0.415907D-03
     22 -0.368772D-02 -0.173778D-02 -0.430308D-03 -0.379366D-02  0.235998D-03
     23 -0.172488D-03  0.464239D-03 -0.327441D-02 -0.158920D-02  0.138116D-02
     24  0.134796D-03  0.188781D-02 -0.136628D-02 -0.136745D-04  0.161678D-03
     25  0.155834D-03 -0.110050D-02  0.695456D-03  0.496310D-03  0.142741D-03
     26 -0.286884D-03 -0.784985D-03  0.664475D-03 -0.476528D-03 -0.305886D-03
     27  0.136591D-02  0.428376D-02 -0.333130D-02  0.419942D-02 -0.141589D-02
     28 -0.113922D-02  0.264134D-02  0.293117D-03 -0.340750D-02  0.846936D-03
     29  0.162178D-02 -0.513387D-02  0.224002D-02  0.820768D-02  0.261558D-03
     30 -0.836338D-04 -0.319473D-02  0.110028D-02  0.488322D-03  0.443620D-03
     31 -0.219518D-02  0.783792D-03  0.123613D-02 -0.926519D-02  0.612667D-03
     32  0.259733D-03  0.507225D-03 -0.147391D-02 -0.101878D-02 -0.706769D-03
     33 -0.176918D-02 -0.231986D-02  0.533138D-02 -0.221433D-02 -0.161375D-02
     34  0.622586D-03 -0.268953D-02  0.326256D-02  0.358608D-02 -0.228872D-02
     35  0.467916D-03  0.152406D-02  0.533409D-03  0.191165D-02  0.633571D-03
     36 -0.296741D-02  0.182285D-03  0.750818D-03  0.880339D-03  0.394381D-03
     37  0.493561D-02 -0.124685D-03 -0.720517D-03 -0.249546D-02  0.187982D-03
     38  0.196820D-02  0.576001D-04  0.303008D-04 -0.161512D-02  0.582362D-03
     39 -0.955046D-02 -0.682587D-03  0.509489D-03 -0.200971D-03  0.415637D-03
     40  0.239673D-03 -0.704102D-03 -0.819327D-03  0.162640D-03 -0.708051D-03
     41 -0.508950D-02  0.581357D-03 -0.116095D-03  0.803806D-02  0.111432D-02
     42  0.848610D-02 -0.151912D-03 -0.240202D-02 -0.542170D-02 -0.306266D-03
     43  0.258781D-01  0.351898D-03 -0.466421D-02 -0.115651D-02 -0.149328D-02
     44 -0.240076D-01  0.126621D-02  0.341323D-02  0.172499D-01  0.178965D-02
     45 -0.143170D-02  0.237014D-02 -0.699163D-03 -0.504304D-02  0.243357D-02
     46 -0.296833D-02 -0.177255D-02  0.255125D-02 -0.137363D-01 -0.300159D-03
     47  0.714013D-03  0.194210D-02 -0.289376D-02  0.397102D-02  0.187282D-02
     48 -0.246382D-03 -0.268673D-04  0.419586D-03 -0.142631D-02 -0.251969D-04
     49 -0.200868D-03  0.607753D-03 -0.240019D-03 -0.273157D-03  0.154848D-03
     50  0.454937D-03 -0.432215D-03 -0.397978D-03  0.167890D-02  0.822598D-05
     51  0.943330D-05 -0.420830D-04 -0.194616D-05  0.146872D-04 -0.367087D-04
     52 -0.236949D-03 -0.689503D-04  0.417640D-03 -0.141162D-02 -0.619056D-04
     53 -0.191434D-03  0.565670D-03 -0.241965D-03 -0.258470D-03  0.118139D-03
     54  0.464371D-03 -0.474298D-03 -0.399925D-03  0.169359D-02 -0.284827D-04
     55  0.455145D-04  0.634620D-03 -0.659605D-03  0.115315D-02  0.180045D-03
     56  0.701319D-03 -0.405348D-03 -0.817564D-03  0.310521D-02  0.334229D-04
     57 -0.150382D-02  0.426949D-02 -0.988691D-03  0.123642D-02  0.626579D-03
     58 -0.782531D-03  0.267692D-02 -0.230781D-02 -0.334938D-02 -0.314045D-03
     59 -0.865563D-03  0.536761D-03 -0.696813D-04  0.259032D-02  0.141814D-03
     60 -0.144273D-03 -0.105581D-02 -0.138880D-02 -0.199548D-02 -0.798809D-03
     61 -0.834950D-04  0.116486D-02  0.500797D-03  0.791671D-02  0.447613D-03
     62  0.637794D-03 -0.427716D-03 -0.818324D-03  0.333091D-02 -0.493011D-03
     63  0.507614D-03  0.198605D-02 -0.639076D-03  0.156293D-02 -0.100252D-02
     64 -0.758725D-03 -0.576803D-03  0.122422D-02 -0.270517D-02  0.185927D-03
     65  0.248992D-03  0.249003D-02  0.991874D-04  0.162597D-02 -0.265980D-03
               21            22            23            24            25 
     21  0.176583D+00
     22  0.143682D-02  0.623437D-02
     23  0.332626D-03  0.486215D-02  0.840365D-02
     24  0.468319D-04 -0.123094D-02  0.115646D-03  0.773206D-01
     25 -0.198869D-04  0.119817D-02  0.105161D-05 -0.421019D-01  0.772743D-01
     26 -0.356562D-04  0.275682D-04 -0.117480D-03 -0.348817D-01 -0.348444D-01
     27 -0.109565D-02 -0.624090D-02 -0.208706D-02  0.682392D-02 -0.657517D-02
     28  0.666785D-03  0.275952D-02  0.899048D-03  0.470332D-03 -0.164844D-03
     29 -0.135929D-02  0.948053D-03 -0.138768D-02 -0.675584D-02  0.747601D-02
     30  0.104706D-04  0.143199D-02  0.764433D-03 -0.283508D-02  0.241076D-02
     31  0.190405D-02  0.290100D-02  0.151144D-02  0.481407D-03 -0.851782D-03
     32  0.305784D-04 -0.153145D-02  0.543813D-03  0.176788D-02 -0.235421D-02
     33  0.934239D-03 -0.819646D-03 -0.430584D-02 -0.199623D-02  0.132309D-02
     34 -0.893166D-03 -0.937198D-03 -0.458887D-02 -0.169654D-02  0.127247D-02
     35 -0.400774D-03 -0.550192D-02 -0.478933D-02  0.687099D-03 -0.102661D-02
     36  0.113074D-02  0.191027D-04 -0.301633D-03 -0.157736D-03  0.281560D-03
     37 -0.726270D-03  0.200580D-04  0.312441D-03 -0.536170D-04 -0.180669D-03
     38  0.404471D-03  0.391607D-04  0.108080D-04 -0.211353D-03  0.100891D-03
     39  0.226177D-02  0.338838D-02  0.101773D-02  0.202608D-03  0.170580D-02
     40  0.417689D-03  0.861732D-03  0.392846D-03  0.384503D-03 -0.516076D-03
     41 -0.104205D-02  0.230881D-03  0.163025D-02 -0.298876D-03 -0.144255D-03
     42 -0.540023D-03  0.347292D-03  0.174461D-02 -0.202171D-03 -0.661027D-04
     43 -0.562774D-02 -0.231169D-02 -0.575455D-03 -0.586543D-03  0.317867D-03
     44  0.552582D-03  0.208526D-02  0.110973D-02 -0.269928D-04 -0.273683D-03
     45  0.939722D-03 -0.771909D-03  0.181664D-03  0.526078D-03 -0.109869D-02
     46  0.410931D-02  0.119743D-02 -0.100287D-02 -0.717897D-03  0.760037D-03
     47 -0.771504D-03 -0.319849D-02 -0.845684D-03  0.673515D-03 -0.164742D-03
     48  0.331661D-03  0.116523D-03 -0.234559D-03  0.241514D-03 -0.204485D-03
     49  0.551976D-04 -0.417653D-03 -0.659657D-04  0.158078D-02 -0.170741D-02
     50 -0.374253D-03  0.151106D-03  0.296207D-03 -0.429500D-03  0.252494D-03
     51 -0.774088D-04 -0.423378D-04 -0.159737D-04  0.133079D-03  0.580703D-04
     52  0.254253D-03  0.741855D-04 -0.250532D-03  0.374593D-03 -0.146415D-03
     53 -0.222112D-04 -0.459991D-03 -0.819394D-04  0.171386D-02 -0.164934D-02
     54 -0.451662D-03  0.108768D-03  0.280233D-03 -0.296421D-03  0.310565D-03
     55 -0.276464D-03 -0.534176D-03  0.168593D-03  0.133927D-02 -0.150293D-02
     56 -0.705914D-03  0.345825D-04  0.530765D-03 -0.671014D-03  0.456980D-03
     57 -0.118637D-04 -0.255288D-02  0.710258D-03  0.366820D-02 -0.347193D-02
     58  0.538009D-03  0.426366D-03  0.885749D-03  0.374533D-02 -0.369080D-02
     59 -0.181754D-03 -0.314360D-02  0.353892D-03  0.847615D-03 -0.898407D-03
     60  0.368119D-03 -0.164349D-03  0.529383D-03  0.924744D-03 -0.111728D-02
     61 -0.112484D-02 -0.346047D-02 -0.137012D-02 -0.156178D-04  0.102825D-02
     62 -0.574972D-03 -0.481217D-03 -0.119463D-02  0.615104D-04  0.809376D-03
     63 -0.603405D-03 -0.347184D-02 -0.140568D-02  0.349124D-02 -0.389083D-02
     64  0.350913D-03  0.176201D-02  0.109558D-02 -0.997187D-03  0.649290D-04
     65 -0.578438D-03 -0.506346D-03 -0.773277D-03  0.117192D-02 -0.114766D-02
               26            27            28            29            30 
     26  0.690905D-01
     27 -0.248543D-03  0.282210D-01
     28 -0.336516D-03 -0.139709D-02  0.202303D-01
     29 -0.707399D-03 -0.202707D-01 -0.571849D-02  0.328920D-01
     30  0.442357D-03 -0.123634D-01 -0.114985D-01  0.119878D-01  0.178906D-01
     31  0.362579D-03 -0.277822D-02  0.361969D-02 -0.950151D-02 -0.107237D-02
     32  0.595144D-03  0.797013D-02 -0.599595D-02 -0.100399D-01 -0.410796D-02
     33  0.667242D-03 -0.529414D-02 -0.322479D-03  0.351319D-02  0.245525D-02
     34  0.422018D-03 -0.227917D-02 -0.178663D-02  0.515513D-02  0.203937D-02
     35  0.343071D-03  0.263958D-02 -0.197705D-02 -0.441237D-03  0.185293D-03
     36 -0.121915D-03 -0.187485D-02  0.103707D-02  0.734132D-03  0.345297D-03
     37  0.230277D-03  0.940826D-03 -0.100651D-02 -0.171508D-03  0.944966D-04
     38  0.108362D-03 -0.934028D-03  0.305633D-04  0.562624D-03  0.439793D-03
     39 -0.188767D-02 -0.181139D-02 -0.370209D-03  0.280765D-02  0.651333D-03
     40  0.134120D-03  0.239347D-02 -0.872327D-03 -0.144882D-02 -0.715026D-03
     41  0.441183D-03 -0.211819D-05 -0.138363D-02  0.147724D-02  0.111761D-02
     42  0.269635D-03 -0.187463D-02  0.377938D-03 -0.398759D-03  0.848251D-03
     43  0.263324D-03 -0.126865D-02  0.263002D-04  0.126961D-02  0.548610D-03
     44  0.294857D-03 -0.685065D-03  0.977901D-03 -0.187097D-02 -0.586825D-04
     45  0.567686D-03 -0.321637D-02  0.191318D-02 -0.565418D-02  0.111124D-02
     46 -0.456363D-04 -0.252021D-02  0.218297D-02  0.190737D-02 -0.615717D-03
     47 -0.503819D-03  0.204208D-02 -0.405415D-03  0.420910D-02 -0.940025D-04
     48 -0.142436D-03 -0.412617D-04  0.683138D-03 -0.425158D-03 -0.312565D-02
     49  0.232378D-04  0.241297D-02 -0.114687D-02 -0.280239D-02  0.344265D-02
     50  0.723973D-04 -0.213484D-02  0.109197D-02  0.283253D-02 -0.147084D-02
     51  0.115045D-04 -0.178184D-04 -0.292252D-03  0.534791D-04  0.189405D-03
     52 -0.130932D-03 -0.590801D-04  0.390886D-03 -0.371679D-03 -0.293625D-02
     53  0.347423D-04  0.239516D-02 -0.143912D-02 -0.274891D-02  0.363205D-02
     54  0.839018D-04 -0.215266D-02  0.799715D-03  0.288601D-02 -0.128143D-02
     55  0.165674D-03  0.245424D-02 -0.183000D-02 -0.237723D-02  0.656830D-02
     56  0.214834D-03 -0.209358D-02  0.408829D-03  0.325769D-02  0.165482D-02
     57 -0.201882D-03  0.109630D-01  0.529039D-02 -0.138881D-01 -0.725184D-02
     58 -0.618165D-04  0.113736D-01  0.601921D-02 -0.164422D-01 -0.786460D-02
     59  0.714471D-04  0.384246D-02 -0.112509D-01 -0.252790D-02  0.258912D-02
     60  0.211513D-03  0.425305D-02 -0.105221D-01 -0.508199D-02  0.197636D-02
     61 -0.100742D-02  0.208904D-02 -0.334183D-03  0.762369D-02 -0.103650D-02
     62 -0.867350D-03  0.249963D-02  0.394641D-03  0.506960D-02 -0.164926D-02
     63  0.396330D-03  0.148125D-01 -0.287815D-02 -0.129074D-01 -0.548529D-02
     64  0.925726D-03 -0.549567D-02  0.145813D-03 -0.242609D-02  0.295385D-02
     65 -0.523128D-04  0.614503D-02  0.146870D-01 -0.678807D-02 -0.151631D-01
               31            32            33            34            35 
     31  0.111709D-01
     32 -0.699499D-03  0.134871D-01
     33  0.698628D-03 -0.870094D-03  0.974729D-02
     34 -0.297093D-02 -0.260825D-03  0.689379D-02  0.794803D-02
     35 -0.299292D-02  0.255979D-02 -0.274486D-03 -0.553714D-03  0.813797D-02
     36  0.900050D-03 -0.111825D-02  0.888928D-03 -0.455859D-03  0.639995D-03
     37 -0.658021D-03  0.806659D-03 -0.750156D-03  0.359447D-03 -0.515474D-03
     38  0.242029D-03 -0.311591D-03  0.138772D-03 -0.964120D-04  0.124520D-03
     39 -0.867807D-03 -0.464524D-03 -0.840345D-03  0.409200D-03 -0.295030D-02
     40 -0.709412D-03  0.133291D-02 -0.756383D-03  0.484519D-03 -0.103943D-02
     41 -0.150596D-02  0.275253D-03 -0.240723D-02 -0.937104D-03  0.116865D-03
     42  0.138935D-02 -0.174477D-03 -0.144765D-02 -0.222850D-02  0.195266D-03
     43 -0.988172D-04 -0.477139D-03 -0.731301D-03  0.166346D-02 -0.357183D-04
     44  0.159422D-02  0.192750D-03 -0.127466D-02 -0.326722D-03 -0.100460D-02
     45  0.595502D-02  0.506336D-03 -0.391676D-02 -0.638654D-02  0.489712D-02
     46  0.565460D-03 -0.161883D-02  0.316335D-02 -0.293212D-03  0.224155D-03
     47 -0.515019D-02 -0.108423D-02 -0.700360D-02 -0.495203D-02  0.635990D-02
     48  0.216125D-02  0.711399D-03 -0.775420D-05 -0.654775D-03 -0.894214D-03
     49  0.137281D-02 -0.318700D-02 -0.692503D-03 -0.819398D-03 -0.212213D-03
     50 -0.349851D-02  0.309551D-02  0.362621D-03  0.112921D-02  0.140269D-02
     51 -0.381348D-04  0.122433D-03  0.222724D-05  0.157372D-04  0.575518D-04
     52  0.212311D-02  0.833832D-03 -0.552696D-05 -0.639038D-03 -0.836663D-03
     53  0.133468D-02 -0.306457D-02 -0.690275D-03 -0.803660D-03 -0.154662D-03
     54 -0.353665D-02  0.321794D-02  0.364849D-03  0.114495D-02  0.146024D-02
     55 -0.788432D-03 -0.389840D-02 -0.684749D-03 -0.164623D-03  0.682001D-03
     56 -0.565976D-02  0.238411D-02  0.370376D-03  0.178399D-02  0.229690D-02
     57  0.108758D-02  0.369661D-02 -0.923492D-03 -0.239717D-02  0.198937D-02
     58  0.229551D-02  0.465013D-02 -0.340257D-02 -0.239313D-02  0.186388D-03
     59 -0.998912D-03  0.900248D-02  0.104393D-02 -0.164525D-03  0.271726D-02
     60  0.209017D-03  0.995599D-02 -0.143514D-02 -0.160479D-03  0.914279D-03
     61 -0.495405D-02 -0.420607D-02  0.499274D-03  0.532925D-03  0.108723D-02
     62 -0.374612D-02 -0.325255D-02 -0.197980D-02  0.536971D-03 -0.715756D-03
     63  0.195709D-02  0.448306D-02 -0.126510D-02 -0.832641D-03  0.313148D-03
     64  0.395262D-02  0.154737D-02  0.261234D-02  0.711208D-03 -0.638710D-03
     65  0.245857D-03 -0.695351D-04 -0.122655D-03 -0.107277D-03 -0.705058D-03
               36            37            38            39            40 
     36  0.321768D-02
     37 -0.202089D-02  0.298839D-02
     38  0.119678D-02  0.967497D-03  0.216428D-02
     39 -0.706517D-03  0.430246D-04 -0.663493D-03  0.939865D-02
     40  0.965629D-03  0.524148D-04  0.101804D-02  0.726010D-03  0.227807D-02
     41 -0.586431D-03  0.532568D-03 -0.538627D-04 -0.284361D-03 -0.123493D-03
     42  0.409651D-03 -0.425384D-03 -0.157334D-04 -0.290615D-02 -0.160889D-03
     43 -0.173012D-02  0.278639D-02  0.105627D-02 -0.738543D-02 -0.321444D-03
     44  0.116033D-02 -0.249965D-02 -0.133932D-02  0.315443D-02  0.124793D-04
     45  0.136633D-02 -0.907450D-03  0.458884D-03 -0.306056D-02 -0.163587D-02
     46  0.559765D-03 -0.406130D-03  0.153635D-03  0.304813D-02 -0.341424D-03
     47  0.248108D-03 -0.151176D-03  0.969328D-04 -0.504512D-03 -0.523798D-03
     48  0.181884D-03 -0.139807D-03  0.420761D-04  0.369958D-04 -0.122681D-03
     49  0.547989D-04 -0.656605D-04 -0.108615D-04 -0.614104D-03 -0.245307D-05
     50 -0.165906D-03  0.160693D-03 -0.521293D-05  0.446424D-03  0.118879D-03
     51  0.672894D-05 -0.161535D-04 -0.942458D-05  0.286359D-04  0.324009D-04
     52  0.188612D-03 -0.155961D-03  0.326515D-04  0.656317D-04 -0.902800D-04
     53  0.615279D-04 -0.818140D-04 -0.202861D-04 -0.585468D-03  0.299478D-04
     54 -0.159177D-03  0.144540D-03 -0.146375D-04  0.475060D-03  0.151280D-03
     55 -0.127085D-03  0.741470D-04 -0.529376D-04 -0.651100D-03  0.120228D-03
     56 -0.347790D-03  0.300501D-03 -0.472890D-04  0.409428D-03  0.241560D-03
     57  0.651792D-03 -0.994601D-03 -0.342809D-03 -0.267054D-02 -0.140749D-03
     58 -0.874457D-03  0.418679D-03 -0.455778D-03  0.671775D-03  0.146592D-02
     59  0.273563D-03 -0.381530D-03 -0.107967D-03 -0.155241D-02 -0.343823D-04
     60 -0.125269D-02  0.103175D-02 -0.220936D-03  0.178991D-02  0.157229D-02
     61  0.967232D-03 -0.104828D-02 -0.810452D-04 -0.927727D-03 -0.882878D-03
     62 -0.559017D-03  0.365003D-03 -0.194014D-03  0.241459D-02  0.723793D-03
     63 -0.813666D-03  0.412937D-03 -0.400729D-03 -0.268258D-02  0.103410D-02
     64  0.440966D-03 -0.202781D-03  0.238185D-03 -0.164567D-02 -0.536041D-03
     65  0.170666D-03 -0.400478D-03 -0.229812D-03 -0.175629D-02 -0.355501D-04
               41            42            43            44            45 
     41  0.332018D-02
     42 -0.108448D-02  0.335085D-02
     43 -0.575767D-03  0.405272D-02  0.181818D-01
     44  0.505419D-02 -0.425700D-02 -0.849338D-02  0.166648D-01
     45  0.531876D-03  0.260884D-02  0.393927D-04  0.151515D-02  0.123124D-01
     46 -0.363391D-02  0.150409D-03 -0.746565D-02 -0.540688D-02 -0.369232D-03
     47  0.187372D-02  0.101690D-02 -0.776008D-03 -0.422453D-03  0.542559D-02
     48 -0.471162D-03  0.395606D-04  0.100008D-04  0.669151D-04  0.421686D-03
     49  0.923411D-05  0.104687D-03 -0.134270D-03  0.192342D-03  0.955110D-03
     50  0.420762D-03 -0.130847D-03  0.137055D-03 -0.166218D-03 -0.933393D-03
     51  0.181461D-04  0.329364D-04 -0.250452D-04 -0.265539D-04  0.264244D-05
     52 -0.453016D-03  0.724970D-04 -0.150444D-04  0.403612D-04  0.424328D-03
     53  0.273802D-04  0.137624D-03 -0.159316D-03  0.165788D-03  0.957752D-03
     54  0.438908D-03 -0.979103D-04  0.112009D-03 -0.192772D-03 -0.930750D-03
     55  0.480396D-03  0.651266D-04 -0.144271D-03  0.125427D-03  0.533424D-03
     56  0.891924D-03 -0.170407D-03  0.127054D-03 -0.233133D-03 -0.135508D-02
     57 -0.334209D-03 -0.100692D-03 -0.105938D-02  0.106139D-02  0.140048D-02
     58 -0.652853D-03 -0.280262D-03 -0.125543D-02  0.975172D-03  0.163753D-02
     59  0.637684D-03  0.272932D-05 -0.689513D-03  0.306022D-03  0.244316D-03
     60  0.319041D-03 -0.176840D-03 -0.885563D-03  0.219808D-03  0.481364D-03
     61  0.478943D-03 -0.875308D-03 -0.363802D-03 -0.643203D-03 -0.371491D-02
     62  0.160299D-03 -0.105488D-02 -0.559852D-03 -0.729417D-03 -0.347786D-02
     63 -0.892776D-04 -0.851138D-03  0.428163D-03  0.422828D-03 -0.104001D-02
     64 -0.121513D-04  0.811643D-03  0.126011D-02  0.141374D-02  0.260829D-02
     65 -0.726096D-03 -0.739730D-03  0.910063D-03  0.630570D-03 -0.174778D-02
               46            47            48            49            50 
     46  0.109490D-01
     47 -0.194385D-03  0.118729D-01
     48  0.434020D-03 -0.911613D-03  0.264629D-02
     49 -0.574831D-03  0.779970D-04 -0.895085D-03  0.434284D-02
     50  0.141293D-03  0.127601D-02  0.186075D-03 -0.239122D-02  0.420954D-02
     51 -0.335344D-04  0.265204D-05 -0.913848D-03 -0.883534D-03 -0.890051D-03
     52  0.400486D-03 -0.908961D-03  0.173244D-02 -0.177862D-02 -0.703976D-03
     53 -0.608365D-03  0.806490D-04 -0.180893D-02  0.345930D-02 -0.328127D-02
     54  0.107758D-03  0.127866D-02 -0.727772D-03 -0.327475D-02  0.331949D-02
     55 -0.100885D-02  0.989610D-03 -0.354138D-02  0.523792D-02 -0.257730D-02
     56 -0.292728D-03  0.218762D-02 -0.246022D-02 -0.149614D-02  0.402347D-02
     57 -0.112455D-02 -0.334452D-03 -0.733564D-03  0.106788D-02 -0.479436D-04
     58 -0.578461D-03 -0.274135D-03 -0.716400D-03  0.107906D-02 -0.595604D-04
     59 -0.189474D-02 -0.100179D-02  0.508075D-03 -0.123844D-02  0.859352D-03
     60 -0.134865D-02 -0.941477D-03  0.525239D-03 -0.122726D-02  0.847735D-03
     61  0.127055D-04  0.273859D-02  0.213095D-03  0.835393D-04 -0.327895D-03
     62  0.558794D-03  0.279891D-02  0.230259D-03  0.947140D-04 -0.339512D-03
     63 -0.253344D-02 -0.199474D-02  0.925677D-03  0.203362D-02 -0.296643D-02
     64 -0.100620D-02 -0.376365D-02 -0.252028D-03 -0.120625D-03  0.302898D-03
     65  0.240395D-03 -0.677020D-03  0.198111D-02 -0.316570D-02  0.212305D-02
               51            52            53            54            55 
     51  0.173623D-02
     52  0.822387D-03  0.255483D-02
     53  0.852701D-03 -0.956232D-03  0.431201D-02
     54  0.846183D-03  0.118411D-03 -0.242857D-02  0.416568D-02
     55  0.303141D-04 -0.351106D-02  0.526824D-02 -0.254698D-02  0.877930D-02
     56  0.237966D-04 -0.243642D-02 -0.147234D-02  0.404727D-02  0.964081D-03
     57 -0.639721D-04 -0.797536D-03  0.100391D-02 -0.111916D-03  0.180145D-02
     58 -0.673146D-04 -0.783715D-03  0.101174D-02 -0.126875D-03  0.179546D-02
     59  0.182515D-03  0.690590D-03 -0.105592D-02  0.104187D-02 -0.174651D-02
     60  0.179172D-03  0.704411D-03 -0.104809D-02  0.102691D-02 -0.175250D-02
     61 -0.348310D-04  0.178264D-03  0.487083D-04 -0.362726D-03 -0.129556D-03
     62 -0.381735D-04  0.192086D-03  0.565404D-04 -0.377685D-03 -0.135545D-03
     63  0.336361D-05  0.929041D-03  0.203699D-02 -0.296306D-02  0.110795D-02
     64  0.171293D-04 -0.234898D-03 -0.103496D-03  0.320028D-03  0.131402D-03
     65 -0.244322D-03  0.173679D-02 -0.341002D-02  0.187873D-02 -0.514681D-02
               56            57            58            59            60 
     56  0.648369D-02
     57  0.685621D-03  0.100878D-01
     58  0.656840D-03  0.732212D-02  0.106918D-01
     59  0.351277D-03  0.173881D-02 -0.176944D-02  0.116001D-01
     60  0.322496D-03 -0.102682D-02  0.160026D-02  0.809187D-02  0.107189D-01
     61 -0.540990D-03  0.552379D-03 -0.432576D-02  0.389930D-03 -0.448821D-02
     62 -0.569771D-03 -0.221325D-02 -0.956061D-03 -0.311832D-02 -0.186113D-02
     63 -0.389210D-02  0.556548D-02  0.504607D-02  0.381279D-02  0.329338D-02
     64  0.554926D-03  0.145573D-03 -0.454696D-04  0.132802D-02  0.113698D-02
     65  0.141941D-03  0.617168D-02  0.564291D-02 -0.565661D-02 -0.618538D-02
               61            62            63            64            65 
     61  0.811112D-02
     62  0.323298D-02  0.449018D-02
     63  0.429031D-03 -0.903792D-04  0.101084D-01
     64 -0.379897D-02 -0.399002D-02 -0.143680D-02  0.435499D-02
     65  0.183253D-02  0.130375D-02  0.174673D-02 -0.169719D-02  0.157341D-01
 Final forces over variables, Energy=-1.94230859D+02:
  3.56537968D-04-5.21191602D-05-2.41254441D-04-9.12532658D-04
 -5.43782962D-05-3.94236467D-05-4.09841382D-05-7.87809135D-05
  3.44215765D-05 3.31962244D-05 4.53747172D-06-2.77605199D-04
  2.11117367D-04-1.70487904D-04-2.03082162D-05 9.08650885D-05
 -2.66435378D-04-1.98632690D-04-8.90387857D-06 3.41659593D-05
 -1.46011465D-04-6.36760513D-05-4.25293822D-05 9.12113383D-05
 -9.27539729D-05 4.42712076D-06-2.89032420D-04 3.37308940D-05
  1.68220375D-05 2.39625347D-04 3.97957262D-05-1.80725628D-05
  1.57686618D-05 3.56907585D-05 2.98073114D-05 4.61046344D-05
 -1.31025512D-04-8.49208773D-05-1.16340513D-05-2.69837089D-05
 -1.98866026D-04-3.59195695D-05-5.78873161D-05-6.03515439D-05
  2.40857193D-05-1.25989054D-04-5.10453674D-05-1.41546839D-04
 -9.67405074D-06 1.64905830D-06 2.50494944D-05-1.16497345D-04
  1.53754437D-05 2.66985528D-05 1.31872789D-04 1.43195898D-04
  9.92991543D-05 9.31769229D-05 7.38016341D-05 6.76794028D-05
 -4.31120737D-05-4.92343051D-05-2.82295268D-04 4.41784880D-05
 -2.42472306D-04

 GradGradGradGradGradGradGradGradGradGradGradGradGradGradGradGradGradGrad
 Berny optimization.
 Internal  Forces:  Max     0.000912533 RMS     0.000168161
 Search for a local minimum.
 Step number   1 out of a maximum of   20
 All quantities printed in internal units (Hartrees-Bohrs-Radians)
 Mixed Optimization -- En-DIIS/RFO-DIIS
 Second derivative matrix not updated -- analytic derivatives used.
 ITU=  0
     Eigenvalues ---    0.00006   0.00012   0.000261000.000001000.00000
     Eigenvalues --- 1000.000001000.000001000.000001000.000001000.00000
     Eigenvalues --- 1000.000001000.000001000.000001000.000001000.00000
     Eigenvalues --- 1000.000001000.000001000.000001000.000001000.00000
     Eigenvalues --- 1000.000001000.000001000.000001000.000001000.00000
     Eigenvalues --- 1000.000001000.000001000.000001000.000001000.00000
     Eigenvalues --- 1000.000001000.000001000.000001000.000001000.00000
     Eigenvalues --- 1000.000001000.000001000.000001000.000001000.00000
     Eigenvalues --- 1000.000001000.000001000.000001000.000001000.00000
     Eigenvalues --- 1000.000001000.000001000.000001000.000001000.00000
     Eigenvalues --- 1000.000001000.000001000.000001000.000001000.00000
     Eigenvalues --- 1000.000001000.000001000.000001000.000001000.00000
     Eigenvalues --- 1000.000001000.000001000.000001000.000001000.00000
 RFO step:  Lambda=-2.78910422D-06 EMin= 5.62629050D-05
 Linear search not attempted -- first point.
 Iteration  1 RMS(Cart)=  0.03404120 RMS(Int)=  0.00072790
 Iteration  2 RMS(Cart)=  0.00074232 RMS(Int)=  0.00022659
 Iteration  3 RMS(Cart)=  0.00000025 RMS(Int)=  0.00022659
 Iteration  1 RMS(Cart)=  0.00007868 RMS(Int)=  0.00010053
 Iteration  2 RMS(Cart)=  0.00004724 RMS(Int)=  0.00010757
 Iteration  3 RMS(Cart)=  0.00003568 RMS(Int)=  0.00012151
 Iteration  4 RMS(Cart)=  0.00002855 RMS(Int)=  0.00013673
 Iteration  5 RMS(Cart)=  0.00002332 RMS(Int)=  0.00015109
 Iteration  6 RMS(Cart)=  0.00001922 RMS(Int)=  0.00016392
 Iteration  7 RMS(Cart)=  0.00001592 RMS(Int)=  0.00017510
 Iteration  8 RMS(Cart)=  0.00001325 RMS(Int)=  0.00018474
 Iteration  9 RMS(Cart)=  0.00001107 RMS(Int)=  0.00019301
 Iteration 10 RMS(Cart)=  0.00000928 RMS(Int)=  0.00020008
 Iteration 11 RMS(Cart)=  0.00000781 RMS(Int)=  0.00020614
 Iteration 12 RMS(Cart)=  0.00000660 RMS(Int)=  0.00021133
 Iteration 13 RMS(Cart)=  0.00000560 RMS(Int)=  0.00021579
 Iteration 14 RMS(Cart)=  0.00000477 RMS(Int)=  0.00021962
 Iteration 15 RMS(Cart)=  0.00000409 RMS(Int)=  0.00022293
 Iteration 16 RMS(Cart)=  0.00000352 RMS(Int)=  0.00022580
 Iteration 17 RMS(Cart)=  0.00000304 RMS(Int)=  0.00022829
 Iteration 18 RMS(Cart)=  0.00000264 RMS(Int)=  0.00023045
 Iteration 19 RMS(Cart)=  0.00000230 RMS(Int)=  0.00023234
 Iteration 20 RMS(Cart)=  0.00000202 RMS(Int)=  0.00023399
 Iteration 21 RMS(Cart)=  0.00000178 RMS(Int)=  0.00023544
 Iteration 22 RMS(Cart)=  0.00000157 RMS(Int)=  0.00023671
 Iteration 23 RMS(Cart)=  0.00000139 RMS(Int)=  0.00023783
 Iteration 24 RMS(Cart)=  0.00000124 RMS(Int)=  0.00023883
 Iteration 25 RMS(Cart)=  0.00000110 RMS(Int)=  0.00023971
 Iteration 26 RMS(Cart)=  0.00000099 RMS(Int)=  0.00024049
 Variable       Old X    -DE/DX   Delta X   Delta X   Delta X     New X
                                 (Linear)    (Quad)   (Total)
    R1        2.56549   0.00036   0.00000   0.00000   0.00000   2.56549
    R2        2.03694  -0.00005   0.00000   0.00000  -0.00000   2.03693
    R3        2.04412  -0.00024   0.00000   0.00000   0.00000   2.04412
    R4        7.55890  -0.00091   0.00000   0.00000  -0.00001   7.55890
    R5        6.66346  -0.00005   0.00000  -0.01755  -0.01772   6.64574
    R6        1.80903  -0.00004   0.00000   0.00000   0.00000   1.80903
    R7        6.92902  -0.00004   0.00000  -0.09372  -0.09381   6.83520
    R8        6.93948  -0.00008   0.00000   0.00128   0.00165   6.94113
    R9        2.80039   0.00003   0.00000   0.00000   0.00000   2.80039
   R10        2.04166   0.00003   0.00000   0.00000   0.00000   2.04166
   R11        2.04147   0.00000   0.00000   0.00000   0.00000   2.04147
   R12        2.06150  -0.00028   0.00000   0.00000   0.00000   2.06150
   R13        2.07624   0.00021   0.00000   0.00000   0.00000   2.07624
   R14        2.06169  -0.00017   0.00000   0.00000   0.00000   2.06169
    A1        1.98912  -0.00002   0.00000   0.00000   0.00001   1.98913
    A2        2.07773   0.00009   0.00000   0.00000  -0.00000   2.07773
    A3        1.98419  -0.00027   0.00000   0.00000  -0.00000   1.98419
    A4        1.50427  -0.00020   0.00000   0.02007   0.02112   1.52538
    A5        2.12033  -0.00001   0.00000  -0.00000  -0.00001   2.12032
    A6        2.03889   0.00003   0.00000   0.01900   0.01757   2.05646
    A7        1.91774  -0.00015   0.00000   0.00000  -0.00000   1.91774
    A8        1.70892  -0.00006   0.00000   0.02191   0.02076   1.72967
    A9        0.48680  -0.00004   0.00000   0.00327   0.00309   0.48988
   A10        2.10998   0.00009   0.00000   0.00000   0.00000   2.10998
   A11        2.11001  -0.00009   0.00000   0.00000   0.00000   2.11001
   A12        2.05509   0.00000   0.00000   0.00000   0.00000   2.05509
   A13        1.95093  -0.00029   0.00000   0.00000   0.00001   1.95095
   A14        1.94864   0.00003   0.00000   0.00000  -0.00000   1.94864
   A15        1.95094   0.00002   0.00000   0.00000   0.00001   1.95096
   A16        1.85908   0.00024   0.00000  -0.00000  -0.00001   1.85907
   A17        1.89043   0.00004   0.00000  -0.00000  -0.00002   1.89041
   A18        1.85877  -0.00002   0.00000  -0.00000   0.00000   1.85878
   A19        1.89263   0.00002   0.00000   0.01429   0.01396   1.90658
   A20        1.74734   0.00004   0.00000   0.02907   0.02929   1.77662
   A21        1.74188   0.00003   0.00000  -0.02013  -0.02028   1.72159
    D1        3.05743   0.00005   0.00000   0.00000  -0.00000   3.05743
    D2       -2.69212  -0.00013   0.00000   0.00000   0.00001  -2.69211
    D3        0.36531  -0.00008   0.00000   0.00000   0.00000   0.36532
    D4        1.82239  -0.00001   0.00000   0.00000  -0.00002   1.82237
    D5       -1.70640  -0.00003   0.00000  -0.03413  -0.03340  -1.73980
    D6        1.74349  -0.00020   0.00000   0.03261   0.03338   1.77687
    D7       -1.85976  -0.00004   0.00000   0.03261   0.03338  -1.82638
    D8       -3.09070  -0.00006   0.00000  -0.07080  -0.07016   3.12233
    D9        1.08472  -0.00006   0.00000  -0.08606  -0.08656   0.99816
   D10       -0.47016   0.00002   0.00000   0.00320   0.00301  -0.46715
   D11       -0.07401  -0.00013   0.00000  -0.07552  -0.07565  -0.14966
   D12        0.46962  -0.00005   0.00000  -0.00760  -0.00750   0.46213
   D13        2.70779  -0.00014   0.00000   0.00000   0.00000   2.70779
   D14       -1.49481  -0.00001   0.00000  -0.00000  -0.00000  -1.49481
   D15        0.58540   0.00000   0.00000  -0.00000   0.00001   0.58541
   D16        3.00207   0.00003   0.00000   0.00000   0.00000   3.00207
   D17       -0.57333  -0.00012   0.00000   0.00000   0.00000  -0.57333
   D18        1.50726   0.00002   0.00000  -0.00000  -0.00000   1.50726
   D19       -2.69572   0.00003   0.00000  -0.00000   0.00001  -2.69571
   D20        2.08059   0.00013   0.00000   0.00000  -0.00000   2.08059
   D21       -2.12239   0.00014   0.00000   0.00000   0.00001  -2.12238
   D22       -1.03761   0.00010   0.00000   0.01467   0.01421  -1.02339
   D23       -1.30679   0.00009   0.00000   0.00007   0.00010  -1.30670
   D24        3.11279   0.00007   0.00000   0.01467   0.01421   3.12701
   D25        2.84361   0.00007   0.00000   0.00007   0.00010   2.84370
   D26        1.11933  -0.00004   0.00000   0.01467   0.01422   1.13355
   D27        0.85015  -0.00005   0.00000   0.00007   0.00011   0.85025
   D28        1.30959  -0.00028   0.00000   0.02527   0.02511   1.33470
   D29       -0.84734   0.00004   0.00000   0.02527   0.02510  -0.82224
   D30       -2.84101  -0.00024   0.00000   0.02527   0.02512  -2.81589
         Item               Value     Threshold  Converged?
 Maximum Force            0.000009     0.000450     YES
 RMS     Force            0.000003     0.000300     YES
 Maximum Displacement     0.097598     0.001800     NO 
 RMS     Displacement     0.033911     0.001200     NO 
 Predicted change in Energy=-1.084526D-06
 GradGradGradGradGradGradGradGradGradGradGradGradGradGradGradGradGradGrad

                          Input orientation:                          
 ---------------------------------------------------------------------
 Center     Atomic      Atomic             Coordinates (Angstroms)
 Number     Number       Type             X           Y           Z
 ---------------------------------------------------------------------
      1          6           0        0.008630   -0.004911    0.012179
      2          8           0       -0.042007    0.009309    1.368760
      3          1           0        1.008991   -0.030742   -0.388419
      4          1           0       -0.813702    0.418729   -0.548511
      5          1           0       -0.948722    0.107722    1.659631
      6          6           0       -0.920275   -3.548803   -1.593418
      7          6           0        0.266743   -3.926033   -0.790475
      8          1           0       -0.873746   -3.519942   -2.672429
      9          1           0       -1.886651   -3.420052   -1.128027
     10          1           0        0.223285   -3.509167    0.216697
     11          1           0        0.347963   -5.015556   -0.674349
     12          1           0        1.194499   -3.594338   -1.259015
 ---------------------------------------------------------------------
                    Distance matrix (angstroms):
                    1          2          3          4          5
     1  C    0.000000
     2  O    1.357600   0.000000
     3  H    1.077899   2.047896   0.000000
     4  H    1.081700   2.106909   1.884108   0.000000
     5  H    1.908745   0.957300   2.836603   2.234020   0.000000
     6  C    3.999997   4.712326   4.189373   4.104205   4.894212
     7  C    4.010745   4.499394   3.985709   4.483622   4.873557
     8  H    4.510116   5.429421   4.575578   4.475238   5.650868
     9  H    4.068826   4.625708   4.518759   4.027815   4.593031
    10  H    3.516776   3.711779   3.617034   4.133914   4.066637
    11  H    5.068829   5.438350   5.036575   5.558485   5.777269
    12  H    3.988259   4.628220   3.673087   4.543390   5.178527
                    6          7          8          9         10
     6  C    0.000000
     7  C    1.481902   0.000000
     8  H    1.080400   2.237717   0.000000
     9  H    1.080300   2.237648   1.849631   0.000000
    10  H    2.141452   1.090900   3.090412   2.503608   0.000000
    11  H    2.145805   1.098700   2.778805   2.782977   1.754628
    12  H    2.141534   1.091000   2.506175   3.088854   1.768683
                   11         12
    11  H    0.000000
    12  H    1.754513   0.000000
 Symmetry turned off by external request.
 Stoichiometry    C3H8O
 Framework group  C1[X(C3H8O)]
 Deg. of freedom    30
 Full point group                 C1      NOp   1
 Rotational constants (GHZ):     12.8656395      1.7639885      1.6781736
 Standard basis: Jun-CC-pVTZ (5D, 7F)
   268 basis functions,   384 primitive gaussians,   300 cartesian basis functions
    17 alpha electrons       17 beta electrons
       nuclear repulsion energy       107.4908157150 Hartrees.
 NAtoms=   12 NActive=   12 NUniq=   12 SFac= 1.00D+00 NAtFMM=   60 NAOKFM=F Big=F
 Integral buffers will be    131072 words long.
 Raffenetti 2 integral format.
 Two-electron integral symmetry is turned off.
 Nuclear repulsion after empirical dispersion term =      107.4881132345 Hartrees.
 One-electron integrals computed using PRISM.
 NBasis=   268 RedAO= T EigKep=  1.09D-04  NBF=   268
 NBsUse=   268 1.00D-06 EigRej= -1.00D+00 NBFU=   268
 Initial guess from the checkpoint file:  "tmp.chk"
 B after Tr=    -0.022430    0.001378    0.012295
         Rot=    0.999997   -0.000587    0.002072   -0.001078 Ang=  -0.28 deg.
 Initial guess <Sx>= 0.0000 <Sy>= 0.0000 <Sz>= 0.0000 <S**2>= 0.9989 S= 0.6175
 ExpMin= 3.57D-02 ExpMax= 1.53D+04 ExpMxC= 5.22D+02 IAcc=3 IRadAn=         5 AccDes= 0.00D+00
 Harris functional with IExCor= 4639 and IRadAn=       5 diagonalized for initial guess.
 HarFok:  IExCor= 4639 AccDes= 0.00D+00 IRadAn=         5 IDoV= 1 UseB2=F ITyADJ=14
 ICtDFT=  3500011 ScaDFX=  1.000000  1.000000  1.000000  1.000000
 FoFCou: FMM=F IPFlag=           0 FMFlag=      100000 FMFlg1=           0
         NFxFlg=           0 DoJE=T BraDBF=F KetDBF=T FulRan=T
         wScrn=  0.000000 ICntrl=     500 IOpCl=  0 I1Cent=   200000004 NGrid=           0
         NMat0=    1 NMatS0=      1 NMatT0=    0 NMatD0=    1 NMtDS0=    0 NMtDT0=    0
 Symmetry not used in FoFCou.
 Gradient too large for Newton-Raphson -- use scaled steepest descent instead.
     Accept linear search using points  3 and  4.
     Minimum is close to point  4 DX= -1.04D-01 DF= -3.18D-06 DXR=  9.49D-02 DFR=  3.06D-03 which will be used.
 Gradient too large for Newton-Raphson -- use scaled steepest descent instead.
 Gradient too large for Newton-Raphson -- use scaled steepest descent instead.
     Minimum is close to point  3 DX=  2.79D-02 DF= -2.67D-07 DXR=  6.52D-02 DFR=  4.27D-03 which will be used.
 Gradient too large for Newton-Raphson -- use scaled steepest descent instead.
     Accept linear search using points  1 and  2.
     Minimum is close to point  2 DX= -3.77D-02 DF= -3.28D-08 DXR=  6.71D-02 DFR=  8.10D-04 which will be used.
 Gradient too large for Newton-Raphson -- use scaled steepest descent instead.
     Accept linear search using points  1 and  2.
 LinEq1:  Iter=  0 NonCon=     1 RMS=8.32D-05 Max=1.63D-03 NDo=     1
 AX will form     1 AO Fock derivatives at one time.
 LinEq1:  Iter=  1 NonCon=     1 RMS=1.16D-05 Max=4.29D-04 NDo=     1
 LinEq1:  Iter=  2 NonCon=     1 RMS=2.42D-06 Max=5.52D-05 NDo=     1
 LinEq1:  Iter=  3 NonCon=     1 RMS=1.63D-06 Max=4.30D-05 NDo=     1
 LinEq1:  Iter=  4 NonCon=     1 RMS=5.20D-07 Max=9.05D-06 NDo=     1
 LinEq1:  Iter=  5 NonCon=     1 RMS=1.36D-07 Max=2.86D-06 NDo=     1
 LinEq1:  Iter=  6 NonCon=     1 RMS=5.73D-08 Max=9.62D-07 NDo=     1
 LinEq1:  Iter=  7 NonCon=     1 RMS=1.88D-08 Max=3.41D-07 NDo=     1
 LinEq1:  Iter=  8 NonCon=     1 RMS=6.61D-09 Max=1.82D-07 NDo=     1
 LinEq1:  Iter=  9 NonCon=     0 RMS=1.69D-09 Max=5.56D-08 NDo=     1
 Linear equations converged to 9.238D-09 9.238D-08 after     9 iterations.
     Accept linear search using points  1 and  2.
     Minimum is close to point  2 DX= -5.07D-06 DF=  0.00D+00 DXR=  5.07D-06 DFR=  0.00D+00 which will be used.
 LinEq1:  Iter=  0 NonCon=     1 RMS=1.09D-07 Max=1.74D-06 NDo=     1
 LinEq1:  Iter=  1 NonCon=     1 RMS=4.93D-08 Max=6.73D-07 NDo=     1
 LinEq1:  Iter=  2 NonCon=     1 RMS=1.69D-08 Max=2.68D-07 NDo=     1
 LinEq1:  Iter=  3 NonCon=     1 RMS=9.27D-09 Max=3.15D-07 NDo=     1
 LinEq1:  Iter=  4 NonCon=     1 RMS=4.19D-09 Max=8.31D-08 NDo=     1
 LinEq1:  Iter=  5 NonCon=     1 RMS=1.26D-09 Max=2.97D-08 NDo=     1
 LinEq1:  Iter=  6 NonCon=     1 RMS=4.12D-10 Max=7.89D-09 NDo=     1
 LinEq1:  Iter=  7 NonCon=     1 RMS=1.84D-10 Max=3.43D-09 NDo=     1
 LinEq1:  Iter=  8 NonCon=     0 RMS=5.61D-11 Max=1.15D-09 NDo=     1
 Linear equations converged to 1.333D-10 1.333D-09 after     8 iterations.
 SCF Done:  E(UwB97XD) =  -194.230861136     a.u. after    8 cycles
            Convg  =    0.5592D-08                    31 Fock formations.
              S**2 =  0.9990                  -V/T =  2.0065
 <Sx>= 0.0000 <Sy>= 0.0000 <Sz>= 0.0000 <S**2>= 0.9990 S= 0.6176
 <L.S>=  0.00000000000    
 Annihilation of the first spin contaminant:
 S**2 before annihilation     0.9990,   after     0.0684
 DoSCS=F DFT=T ScalE2(SS,OS)=  1.000000  1.000000
 Range of M.O.s used for correlation:     1   268
 NBasis=   268 NAE=    17 NBE=    17 NFC=     0 NFV=     0
 NROrb=    268 NOA=    17 NOB=    17 NVA=   251 NVB=   251

 **** Warning!!: The largest alpha MO coefficient is  0.20411033D+02


 **** Warning!!: The largest beta MO coefficient is  0.19502951D+02

 Symmetrizing basis deriv contribution to polar:
 IMax=3 JMax=2 DiffMx= 0.00D+00
 G2DrvN: will do    13 centers at a time, making    1 passes.
 Calling FoFCou, ICntrl=  3107 FMM=F I1Cent=   0 AccDes= 0.00D+00.
 End of G2Drv F.D. properties file   721 does not exist.
 End of G2Drv F.D. properties file   722 does not exist.
 End of G2Drv F.D. properties file   788 does not exist.
          IDoAtm=111111111111
          Differentiating once with respect to electric field.
                with respect to dipole field.
          Differentiating once with respect to nuclear coordinates.
          There are    39 degrees of freedom in the 1st order CPHF.  IDoFFX=6 NUNeed=     3.
     36 vectors produced by pass  0 Test12= 2.19D-14 2.56D-09 XBig12= 3.48D+01 1.53D+00.
 AX will form    36 AO Fock derivatives at one time.
     36 vectors produced by pass  1 Test12= 2.19D-14 2.56D-09 XBig12= 2.64D+00 4.92D-01.
     36 vectors produced by pass  2 Test12= 2.19D-14 2.56D-09 XBig12= 8.09D-02 5.59D-02.
     36 vectors produced by pass  3 Test12= 2.19D-14 2.56D-09 XBig12= 1.59D-03 7.76D-03.
     36 vectors produced by pass  4 Test12= 2.19D-14 2.56D-09 XBig12= 1.66D-05 5.49D-04.
     36 vectors produced by pass  5 Test12= 2.19D-14 2.56D-09 XBig12= 2.04D-07 5.87D-05.
     35 vectors produced by pass  6 Test12= 2.19D-14 2.56D-09 XBig12= 1.95D-09 5.53D-06.
     19 vectors produced by pass  7 Test12= 2.19D-14 2.56D-09 XBig12= 1.69D-11 4.09D-07.
      3 vectors produced by pass  8 Test12= 2.19D-14 2.56D-09 XBig12= 1.38D-13 4.78D-08.
      2 vectors produced by pass  9 Test12= 2.19D-14 2.56D-09 XBig12= 1.13D-15 3.36D-09.
 InvSVY:  IOpt=1 It=  1 EMax= 3.55D-15
 Solved reduced A of dimension   275 with    39 vectors.
 Isotropic polarizability for W=    0.000000       49.89 Bohr**3.
 End of Minotr F.D. properties file   721 does not exist.
 End of Minotr F.D. properties file   722 does not exist.
 End of Minotr F.D. properties file   788 does not exist.
 Entering OneElI...
 Calculate overlap and kinetic energy integrals
    NBasis = 300  MinDer = 2  MaxDer = 2
 Requested accuracy = 0.1000D-12
 PrsmSu:  NPrtUS=  32 ThrOK=T IAlg=1 NPAlg=1 LenDen=           0.
 PRISM was handed    12995565 working-precision words and  5004 shell-pairs
 PRISM was handed    12995565 working-precision words and  5004 shell-pairs
 PRISM was handed    12995565 working-precision words and  5004 shell-pairs
 PRISM was handed    12995565 working-precision words and  5004 shell-pairs
 PRISM was handed    12995565 working-precision words and  5004 shell-pairs
 Prism:   IPart=     0 DynPar=F LinDyn=F Incr=           1.
 PRISM was handed    12995565 working-precision words and  5004 shell-pairs
 PRISM was handed    12995565 working-precision words and  5004 shell-pairs
 PRISM was handed    12995565 working-precision words and  5004 shell-pairs
 PRISM was handed    12995565 working-precision words and  5004 shell-pairs
 PRISM was handed    12995565 working-precision words and  5004 shell-pairs
 PRISM was handed    12995565 working-precision words and  5004 shell-pairs
 PRISM was handed    12995565 working-precision words and  5004 shell-pairs
 PRISM was handed    12995565 working-precision words and  5004 shell-pairs
 PRISM was handed    12995565 working-precision words and  5004 shell-pairs
 PRISM was handed    12995565 working-precision words and  5004 shell-pairs
 PRISM was handed    12995565 working-precision words and  5004 shell-pairs
 PRISM was handed    12995565 working-precision words and  5004 shell-pairs
 PRISM was handed    12995565 working-precision words and  5004 shell-pairs
 PRISM was handed    12995565 working-precision words and  5004 shell-pairs
 PRISM was handed    12995565 working-precision words and  5004 shell-pairs
 PRISM was handed    12995565 working-precision words and  5004 shell-pairs
 PRISM was handed    12995565 working-precision words and  5004 shell-pairs
 PRISM was handed    12995565 working-precision words and  5004 shell-pairs
 PRISM was handed    12995565 working-precision words and  5004 shell-pairs
 PRISM was handed    12995565 working-precision words and  5004 shell-pairs
 PRISM was handed    12995565 working-precision words and  5004 shell-pairs
 PRISM was handed    12995565 working-precision words and  5004 shell-pairs
 IPart= 26 NShTot=         143 NBatch=          21 AvBLen=         6.8
 IPart= 16 NShTot=         148 NBatch=          21 AvBLen=         7.0
 IPart=  3 NShTot=         185 NBatch=          46 AvBLen=         4.0
 IPart= 30 NShTot=         140 NBatch=          20 AvBLen=         7.0
 PRISM was handed    12995565 working-precision words and  5004 shell-pairs
 PRISM was handed    12995565 working-precision words and  5004 shell-pairs
 PRISM was handed    12995565 working-precision words and  5004 shell-pairs
 PRISM was handed    12995565 working-precision words and  5004 shell-pairs
 PRISM was handed    12995565 working-precision words and  5004 shell-pairs
 IPart= 24 NShTot=         144 NBatch=          21 AvBLen=         6.9
 IPart=  6 NShTot=         170 NBatch=          34 AvBLen=         5.0
 IPart=  4 NShTot=         175 NBatch=          37 AvBLen=         4.7
 IPart= 21 NShTot=         145 NBatch=          21 AvBLen=         6.9
 IPart= 11 NShTot=         157 NBatch=          25 AvBLen=         6.3
 IPart=  9 NShTot=         160 NBatch=          28 AvBLen=         5.7
 IPart= 17 NShTot=         146 NBatch=          21 AvBLen=         7.0
 IPart= 13 NShTot=         155 NBatch=          24 AvBLen=         6.5
 IPart= 20 NShTot=         145 NBatch=          21 AvBLen=         6.9
 IPart= 25 NShTot=         144 NBatch=          21 AvBLen=         6.9
 IPart= 29 NShTot=         141 NBatch=          20 AvBLen=         7.0
 IPart=  8 NShTot=         161 NBatch=          29 AvBLen=         5.6
 IPart= 14 NShTot=         152 NBatch=          21 AvBLen=         7.2
 IPart=  1 NShTot=         194 NBatch=          55 AvBLen=         3.5
 IPart= 27 NShTot=         143 NBatch=          21 AvBLen=         6.8
 IPart=  0 NShTot=         200 NBatch=          61 AvBLen=         3.3
 IPart= 31 NShTot=         140 NBatch=          20 AvBLen=         7.0
 IPart= 22 NShTot=         144 NBatch=          21 AvBLen=         6.9
 IPart= 23 NShTot=         144 NBatch=          21 AvBLen=         6.9
 IPart= 15 NShTot=         151 NBatch=          21 AvBLen=         7.2
 IPart= 19 NShTot=         146 NBatch=          21 AvBLen=         7.0
 IPart=  5 NShTot=         174 NBatch=          36 AvBLen=         4.8
 IPart= 12 NShTot=         155 NBatch=          24 AvBLen=         6.5
 IPart=  2 NShTot=         189 NBatch=          50 AvBLen=         3.8
 IPart= 18 NShTot=         146 NBatch=          21 AvBLen=         7.0
 IPart= 28 NShTot=         142 NBatch=          20 AvBLen=         7.1
 IPart=  7 NShTot=         168 NBatch=          33 AvBLen=         5.1
 IPart= 10 NShTot=         157 NBatch=          25 AvBLen=         6.3
 PrSmSu:  NxtVal=             33.
 Entering OneElI...
 Calculate potential energy integrals
    NBasis = 300  MinDer = 2  MaxDer = 2
 Requested accuracy = 0.1000D-12
 PrsmSu:  NPrtUS=  32 ThrOK=T IAlg=1 NPAlg=1 LenDen=           0.
 Prism:   IPart=     0 DynPar=F LinDyn=F Incr=          16.
 PRISM was handed    13013876 working-precision words and  4499 shell-pairs
 PRISM was handed    13013876 working-precision words and  4499 shell-pairs
 PRISM was handed    13013876 working-precision words and  4499 shell-pairs
 PRISM was handed    13013876 working-precision words and  4499 shell-pairs
 PRISM was handed    13013876 working-precision words and  4499 shell-pairs
 PRISM was handed    13013876 working-precision words and  4499 shell-pairs
 PRISM was handed    13013876 working-precision words and  4499 shell-pairs
 PRISM was handed    13013876 working-precision words and  4499 shell-pairs
 PRISM was handed    13013876 working-precision words and  4499 shell-pairs
 PRISM was handed    13013876 working-precision words and  4499 shell-pairs
 PRISM was handed    13013876 working-precision words and  4499 shell-pairs
 PRISM was handed    13013876 working-precision words and  4499 shell-pairs
 PRISM was handed    13013876 working-precision words and  4499 shell-pairs
 PRISM was handed    13013876 working-precision words and  4499 shell-pairs
 PRISM was handed    13013876 working-precision words and  4499 shell-pairs
 PRISM was handed    13013876 working-precision words and  4499 shell-pairs
 PRISM was handed    13013876 working-precision words and  4499 shell-pairs
 PRISM was handed    13013876 working-precision words and  4499 shell-pairs
 PRISM was handed    13013876 working-precision words and  4499 shell-pairs
 PRISM was handed    13013876 working-precision words and  4499 shell-pairs
 PRISM was handed    13013876 working-precision words and  4499 shell-pairs
 PRISM was handed    13013876 working-precision words and  4499 shell-pairs
 PRISM was handed    13013876 working-precision words and  4499 shell-pairs
 PRISM was handed    13013876 working-precision words and  4499 shell-pairs
 PRISM was handed    13013876 working-precision words and  4499 shell-pairs
 PRISM was handed    13013876 working-precision words and  4499 shell-pairs
 PRISM was handed    13013876 working-precision words and  4499 shell-pairs
 PRISM was handed    13013876 working-precision words and  4499 shell-pairs
 PRISM was handed    13013876 working-precision words and  4499 shell-pairs
 PRISM was handed    13013876 working-precision words and  4499 shell-pairs
 PRISM was handed    13013876 working-precision words and  4499 shell-pairs
 PRISM was handed    13013876 working-precision words and  4499 shell-pairs
 IPart=  5 NShTot=        1872 NBatch=         156 AvBLen=        12.0
 IPart= 25 NShTot=        1524 NBatch=         127 AvBLen=        12.0
 IPart= 26 NShTot=        1524 NBatch=         127 AvBLen=        12.0
 IPart=  3 NShTot=        1968 NBatch=         164 AvBLen=        12.0
 IPart= 23 NShTot=        1560 NBatch=         130 AvBLen=        12.0
 IPart= 13 NShTot=        1656 NBatch=         138 AvBLen=        12.0
 IPart= 18 NShTot=        1620 NBatch=         135 AvBLen=        12.0
 IPart=  4 NShTot=        1896 NBatch=         158 AvBLen=        12.0
 IPart= 17 NShTot=        1620 NBatch=         135 AvBLen=        12.0
 IPart=  9 NShTot=        1704 NBatch=         142 AvBLen=        12.0
 IPart= 30 NShTot=        1500 NBatch=         125 AvBLen=        12.0
 IPart= 28 NShTot=        1500 NBatch=         125 AvBLen=        12.0
 IPart= 24 NShTot=        1560 NBatch=         130 AvBLen=        12.0
 IPart=  8 NShTot=        1740 NBatch=         145 AvBLen=        12.0
 IPart= 15 NShTot=        1644 NBatch=         137 AvBLen=        12.0
 IPart= 29 NShTot=        1500 NBatch=         125 AvBLen=        12.0
 IPart=  2 NShTot=        2016 NBatch=         168 AvBLen=        12.0
 IPart= 11 NShTot=        1668 NBatch=         139 AvBLen=        12.0
 IPart= 14 NShTot=        1656 NBatch=         138 AvBLen=        12.0
 IPart= 21 NShTot=        1596 NBatch=         133 AvBLen=        12.0
 IPart=  0 NShTot=        2148 NBatch=         179 AvBLen=        12.0
 IPart= 12 NShTot=        1668 NBatch=         139 AvBLen=        12.0
 IPart= 20 NShTot=        1608 NBatch=         134 AvBLen=        12.0
 IPart= 31 NShTot=        1500 NBatch=         125 AvBLen=        12.0
 IPart= 10 NShTot=        1692 NBatch=         141 AvBLen=        12.0
 IPart= 16 NShTot=        1620 NBatch=         135 AvBLen=        12.0
 IPart=  6 NShTot=        1860 NBatch=         155 AvBLen=        12.0
 IPart= 22 NShTot=        1560 NBatch=         130 AvBLen=        12.0
 IPart=  1 NShTot=        2064 NBatch=         172 AvBLen=        12.0
 IPart= 27 NShTot=        1500 NBatch=         125 AvBLen=        12.0
 IPart=  7 NShTot=        1824 NBatch=         152 AvBLen=        12.0
 IPart= 19 NShTot=        1620 NBatch=         135 AvBLen=        12.0
 PrSmSu:  NxtVal=            513.
 Polarizability after L701:
                1             2             3 
      1  0.478349D+02
      2 -0.663395D+00  0.509687D+02
      3  0.146334D+01  0.192419D+01  0.508656D+02
 Dipole Derivatives after L701:
                 1             2             3             4             5 
      1   0.160431D+00 -0.135819D+00 -0.865596D-01 -0.265146D+00  0.274008D-01
      2  -0.150959D+00 -0.319836D+00  0.208919D-01  0.300396D-01 -0.335585D+00
      3  -0.775466D-01 -0.440198D-01  0.850998D+00  0.112197D+00 -0.743940D-01
                 6             7             8             9            10 
      1   0.107471D+00 -0.505832D-01  0.335511D-02 -0.406817D-03 -0.261462D-01
      2  -0.101522D+00  0.218826D-01  0.171566D+00  0.249074D-01  0.883004D-01
      3  -0.114025D+01  0.548026D-01  0.311126D-01  0.138835D-01 -0.495116D-01
                11            12            13            14            15 
      1   0.976779D-01  0.395887D-02  0.188518D+00  0.538170D-02 -0.278912D-01
      2   0.132792D+00  0.362394D-01  0.558830D-02  0.345224D+00  0.122760D-01
      3   0.574725D-01 -0.241711D-01 -0.435227D-01  0.265050D-01  0.302024D+00
                16            17            18            19            20 
      1   0.882131D-01 -0.115634D+00 -0.472572D-02  0.229363D-01  0.648493D-01
      2  -0.110013D+00 -0.346870D+00 -0.309227D-01  0.315683D-01  0.910322D-01
      3  -0.115096D-01 -0.436048D-01  0.117884D+00 -0.814027D-02  0.249467D-01
                21            22            23            24            25 
      1  -0.142065D-01  0.118165D-01  0.294995D-01 -0.289631D-01 -0.933578D-01
      2   0.228490D-01  0.284433D-01  0.143086D+00  0.108399D-01  0.433300D-01
      3   0.173093D-01  0.332588D-02  0.111171D-01 -0.106822D+00  0.196565D-01
                26            27            28            29            30 
      1   0.393879D-01  0.489454D-01  0.308508D-01 -0.278072D-02 -0.222680D-01
      2   0.139034D+00  0.463995D-02  0.234567D-01  0.665792D-01 -0.659872D-01
      3   0.110610D-01 -0.453247D-02 -0.467604D-03 -0.763672D-01 -0.110283D+00
                31            32            33            34            35 
      1   0.378954D-01  0.552348D-01 -0.366554D-01 -0.105427D+00 -0.685538D-01
      2   0.220158D-01 -0.155378D+00  0.226576D-01 -0.336527D-01  0.683554D-01
      3  -0.348025D-01  0.431044D-01  0.636650D-01  0.355188D-01  0.330664D-01
                36 
      1   0.613008D-01
      2   0.431309D-01
      3   0.202996D-01
 Hessian after L701:
                1             2             3             4             5 
      1  0.102124D+02
      2  0.643421D+00  0.124572D+02
      3  0.535543D+00  0.128382D+00  0.368003D+01
      4 -0.670695D+01  0.583611D-01 -0.433102D+00  0.907090D+01
      5  0.456615D-01 -0.659274D+01  0.166153D+00  0.278673D+00  0.113036D+02
      6 -0.513688D+00  0.167530D+00  0.161889D+01  0.174602D+01 -0.503321D+00
      7 -0.136782D+01 -0.988014D-01 -0.895999D+00  0.134785D+00  0.361590D-02
      8 -0.373890D-01 -0.324164D+01  0.745081D-03 -0.438723D-02  0.228922D-01
      9 -0.942056D+00  0.457106D-01 -0.279120D+01  0.245341D-01 -0.160937D-01
     10 -0.192201D+01 -0.638760D+00  0.934573D+00  0.102305D+00 -0.656400D-01
     11 -0.678237D+00 -0.281100D+01 -0.542041D+00 -0.707948D-01  0.248844D-01
     12  0.977677D+00 -0.523540D+00 -0.238773D+01  0.801329D-01 -0.642350D-01
     13  0.200756D-01 -0.160714D-01 -0.176396D+00 -0.239651D+01 -0.278103D+00
     14 -0.133446D-01 -0.138270D+00  0.157847D-01 -0.297607D+00 -0.498238D+01
     15 -0.867980D-01  0.866234D-02  0.452577D-01 -0.145096D+01  0.143585D+00
     16 -0.106931D+00  0.452719D-01  0.224174D-01 -0.808568D-01  0.130229D-01
     17  0.670265D-01  0.107239D+00  0.126974D+00  0.417958D-01  0.555253D-01
     18  0.316503D-01  0.962760D-01 -0.625765D-01  0.326236D-01  0.983616D-01
     19 -0.973291D-01  0.235940D-02  0.664979D-02 -0.922633D-01 -0.753541D-03
     20 -0.262838D-01  0.147462D+00  0.675537D-01 -0.107154D-01  0.111023D+00
     21 -0.362714D-02  0.651149D-01 -0.772434D-01 -0.191230D-02  0.132288D+00
     22 -0.844426D-02  0.455998D-02  0.374315D-02 -0.588345D-02  0.267603D-02
     23  0.409979D-02  0.583231D-02  0.139525D-01  0.243386D-02  0.137414D-02
     24  0.679225D-02  0.254971D-01  0.214110D-01  0.953598D-02  0.233382D-01
     25  0.661757D-02  0.283586D-01  0.175667D-01  0.875906D-02  0.292738D-01
     26  0.103941D-01  0.674898D-02  0.773780D-02  0.881844D-02  0.426479D-02
     27 -0.177124D-02 -0.146741D-02 -0.132239D-01  0.174725D-02  0.460478D-02
     28 -0.206385D-01 -0.226518D-02  0.311234D-03 -0.214657D-01 -0.156540D-02
     29 -0.491623D-02  0.243924D-01 -0.269965D-02 -0.267024D-02  0.223004D-01
     30  0.370290D-02 -0.303102D-01 -0.235459D-01 -0.171931D-02 -0.140047D-01
     31 -0.732465D-02 -0.265858D-02 -0.791324D-03 -0.671423D-02 -0.260935D-02
     32 -0.337914D-02  0.265116D-01  0.107096D-01  0.144803D-02  0.254363D-01
     33  0.453466D-05  0.115932D-02 -0.753043D-02 -0.153570D-03  0.498563D-02
     34 -0.163635D-02 -0.237761D-01 -0.145160D-01 -0.610248D-02 -0.242509D-01
     35 -0.705308D-02  0.830039D-02  0.674800D-02 -0.535576D-02  0.377290D-02
     36 -0.743011D-02  0.169857D-01 -0.252918D-02 -0.674619D-02  0.243375D-01
                6             7             8             9            10 
      6  0.269236D+01
      7 -0.406818D-01  0.136099D+01
      8  0.693114D-02 -0.392618D-01  0.313943D+01
      9 -0.946241D-01  0.100975D+01 -0.258227D-01  0.280251D+01
     10  0.134626D+00 -0.176246D+00  0.620794D-01 -0.306996D-01  0.198990D+01
     11 -0.893497D-01  0.568187D-01  0.503071D-01  0.316146D-02  0.700290D+00
     12  0.252079D-01 -0.200265D-01  0.323221D-03  0.784111D-01 -0.104139D+01
     13 -0.134778D+01  0.492790D-01 -0.275367D-02 -0.589601D-01  0.248439D-01
     14  0.154723D+00 -0.630157D-02 -0.174746D-01  0.611135D-02 -0.207379D-02
     15 -0.420716D+01 -0.715054D-01  0.317317D-02  0.369654D-01  0.108758D-01
     16  0.137021D-01 -0.134928D-02  0.924711D-02  0.187204D-02 -0.652750D-02
     17  0.994963D-01  0.328920D-01  0.103330D-01 -0.195882D-02 -0.196651D-01
     18  0.379507D-03  0.643471D-02  0.643169D-02 -0.103453D-01 -0.133679D-02
     19  0.280591D-02 -0.808115D-03  0.929063D-02 -0.332187D-02 -0.863830D-02
     20  0.104459D+00  0.332860D-01  0.259138D-01 -0.775830D-02 -0.241453D-01
     21 -0.246785D-01  0.909011D-02  0.625524D-02 -0.169009D-01 -0.516867D-02
     22  0.277415D-02  0.836601D-03  0.125827D-02  0.197523D-03 -0.145535D-02
     23  0.937876D-02  0.309744D-02  0.943158D-03  0.571198D-03 -0.190012D-02
     24  0.183898D-01  0.110303D-01  0.377571D-02 -0.258982D-02 -0.745327D-02
     25  0.199104D-01  0.110815D-01  0.403561D-02 -0.292847D-02 -0.763475D-02
     26  0.112141D-01  0.281974D-02  0.617411D-03 -0.969268D-04 -0.738078D-03
     27 -0.656971D-02 -0.272810D-02 -0.328387D-03 -0.283319D-03  0.197575D-02
     28 -0.146031D-03 -0.596252D-03  0.137337D-02 -0.750870D-03 -0.987553D-03
     29  0.165320D-01  0.203755D-02  0.222271D-02 -0.117263D-02 -0.154567D-02
     30 -0.243264D-01 -0.941841D-02 -0.472090D-02  0.215838D-02  0.718268D-02
     31 -0.789711D-03 -0.944385D-03  0.201640D-03  0.107035D-03  0.165160D-03
     32  0.107048D-01  0.852590D-02  0.363873D-02 -0.315227D-02 -0.641473D-02
     33 -0.447372D-02 -0.405385D-03 -0.221070D-04 -0.701785D-03  0.454190D-03
     34 -0.167478D-01 -0.920337D-02 -0.369431D-02  0.225349D-02  0.629078D-02
     35  0.117018D-01  0.127155D-02  0.282047D-02  0.500729D-03 -0.148681D-02
     36  0.660824D-02  0.445711D-02  0.325888D-02 -0.339477D-02 -0.363535D-02
               11            12            13            14            15 
     11  0.263327D+01
     12  0.599114D+00  0.238459D+01
     13  0.270593D-02  0.957857D-04  0.230950D+01
     14  0.234998D-01  0.114872D-01  0.325885D+00  0.509543D+01
     15  0.108599D-01 -0.706169D-01  0.160407D+01 -0.213451D+00  0.417877D+01
     16 -0.500105D-02  0.363687D-02 -0.577149D-03 -0.260568D-02 -0.503545D-02
     17  0.327818D-01 -0.672114D-02 -0.104273D-01  0.560198D-02  0.182522D-01
     18  0.914505D-02 -0.118277D-01 -0.578449D-02  0.942821D-02  0.635752D-02
     19 -0.565795D-02  0.376714D-05 -0.468550D-02 -0.348718D-02 -0.105953D-02
     20  0.288789D-01 -0.110555D-01 -0.143429D-01  0.977558D-02  0.188930D-01
     21  0.653189D-02 -0.136514D-01 -0.117002D-01  0.120476D-01  0.778587D-02
     22  0.292262D-03 -0.978188D-04 -0.579686D-03  0.245554D-04  0.168590D-03
     23  0.297848D-02  0.284243D-03 -0.734839D-03  0.240969D-03  0.147127D-02
     24  0.914955D-02 -0.414438D-02 -0.528498D-02  0.290047D-02  0.667439D-02
     25  0.926381D-02 -0.439703D-02 -0.555708D-02  0.321166D-02  0.668772D-02
     26  0.386400D-02 -0.651665D-03 -0.545304D-03  0.762705D-03  0.204217D-02
     27 -0.186410D-02 -0.258034D-03  0.964262D-03  0.549914D-03 -0.121092D-02
     28 -0.152815D-02  0.539212D-03 -0.323262D-03 -0.653295D-03 -0.551459D-03
     29  0.293314D-02 -0.110861D-02 -0.425522D-03  0.826488D-04  0.666991D-03
     30 -0.775802D-02  0.329717D-02  0.426507D-02 -0.203364D-02 -0.552659D-02
     31 -0.956948D-03  0.432621D-03  0.208194D-03 -0.519293D-03 -0.651875D-03
     32  0.624180D-02 -0.404062D-02 -0.501534D-02  0.271367D-02  0.536620D-02
     33 -0.354398D-03 -0.382636D-03 -0.229588D-03  0.483294D-03 -0.191112D-03
     34 -0.719457D-02  0.339685D-02  0.432224D-02 -0.252957D-02 -0.524245D-02
     35  0.135809D-02  0.143962D-03 -0.171629D-03  0.151637D-04  0.479481D-03
     36  0.340512D-02 -0.289478D-02 -0.325705D-02  0.196954D-02  0.290085D-02
               16            17            18            19            20 
     16  0.603745D+01
     17  0.101518D+01  0.984704D+01
     18 -0.115121D+01  0.324117D+00  0.678232D+01
     19 -0.178562D+01 -0.859271D+00  0.193126D+01  0.936812D+01
     20 -0.907709D+00 -0.428486D+01 -0.620255D+00  0.611388D+00  0.105293D+02
     21  0.191929D+01 -0.584571D+00 -0.333606D+01 -0.110303D+01  0.190252D+00
     22 -0.299134D+01  0.807099D-02  0.334457D-01 -0.107210D-01  0.210810D-02
     23  0.135204D-01 -0.294872D+01 -0.598477D-01 -0.344217D-02 -0.434227D-02
     24 -0.900827D-02 -0.953628D-01 -0.736626D+00  0.632865D-02 -0.471687D-02
     25 -0.113106D+01 -0.286285D+00 -0.847292D+00  0.441151D-01 -0.785078D-02
     26 -0.227921D+00 -0.297240D+01  0.107354D+00 -0.576025D-02 -0.188498D-02
     27 -0.771342D+00  0.117028D+00 -0.271143D+01 -0.593133D-01  0.959033D-02
     28 -0.150304D-01  0.173792D-02 -0.492049D-02 -0.311846D+01  0.240725D-02
     29  0.254602D-01 -0.844532D-02  0.721235D-01 -0.102969D-01 -0.283683D+01
     30  0.442954D-01  0.346003D-01  0.988861D-01 -0.617719D-01  0.789047D+00
     31 -0.258983D-01 -0.173241D-01 -0.174321D-01 -0.283503D+01 -0.240747D+00
     32 -0.416260D-01  0.175953D+00 -0.384063D-01 -0.240451D+00 -0.864980D+00
     33 -0.142081D-01 -0.223072D-01 -0.546593D-02  0.308181D-01 -0.268134D+00
     34  0.107745D+00  0.262742D-01 -0.744203D-02 -0.145867D+01  0.582605D+00
     35  0.631656D-01 -0.200591D-01 -0.472809D-02  0.506082D+00 -0.285945D+01
     36 -0.544104D-01 -0.954819D-02 -0.136157D-01 -0.749370D+00 -0.267875D+00
               21            22            23            24            25 
     21  0.101351D+02
     22 -0.293179D-01  0.303399D+01
     23  0.582453D-02 -0.240884D-01  0.288786D+01
     24  0.715228D-01 -0.125095D+00  0.475729D-01  0.654087D+00
     25 -0.197861D-01  0.182979D-02  0.665248D-02  0.880296D-01  0.101924D+01
     26 -0.348180D-02  0.259681D-02  0.568389D-01 -0.540510D-02  0.220082D+00
     27  0.941619D-02  0.113569D+00 -0.141522D-01 -0.854266D-01  0.747137D+00
     28 -0.259790D-01 -0.746744D-02  0.100163D-02  0.162935D-01 -0.100582D-01
     29  0.691103D+00  0.284364D-02 -0.109851D-01  0.851295D-02  0.867451D-02
     30 -0.123896D+01  0.155992D-01 -0.733936D-03  0.569317D-01  0.593016D-02
     31  0.336239D-01 -0.178471D-02 -0.120195D-02  0.425230D-02  0.367268D-02
     32 -0.284416D+00 -0.317502D-02  0.304799D-02 -0.218312D-01 -0.195815D-01
     33 -0.282886D+01  0.425876D-03 -0.376694D-02  0.585568D-02  0.203493D-02
     34 -0.761480D+00 -0.898107D-02  0.561853D-03  0.457921D-02  0.589899D-01
     35 -0.236949D+00  0.283282D-02  0.493112D-02  0.656901D-02  0.416514D-02
     36 -0.268751D+01 -0.154119D-01 -0.554716D-03 -0.608536D-02 -0.128928D-01
               26            27            28            29            30 
     26  0.290351D+01
     27 -0.119976D+00  0.282508D+01
     28 -0.107353D-02 -0.152731D-01  0.317450D+01
     29  0.410784D-02  0.546873D-03 -0.226833D-01  0.279676D+01
     30 -0.741614D-03 -0.471569D-02 -0.446573D-01 -0.737169D+00  0.117061D+01
     31 -0.328832D-02 -0.272197D-02  0.159106D-01  0.644805D-02  0.173750D-02
     32  0.488852D-02  0.550404D-02  0.624360D-03 -0.301208D-01 -0.906053D-02
     33 -0.542470D-04 -0.214953D-02  0.337013D-02 -0.657575D-01  0.743760D-02
     34 -0.538397D-02 -0.122429D-01  0.461988D-02 -0.292615D-02  0.348540D-01
     35 -0.113189D-01 -0.368209D-04  0.226243D-01  0.335842D-01 -0.171151D-01
     36  0.205914D-02 -0.923038D-02  0.717642D-01  0.184220D-01 -0.422402D-01
               31            32            33            34            35 
     31  0.284901D+01
     32  0.323959D+00  0.672865D+00
     33 -0.301958D-01  0.317231D+00  0.282471D+01
     34  0.873052D-02 -0.149146D-01  0.808465D-02  0.129390D+01
     35 -0.613032D-01 -0.261962D-01  0.365372D-01 -0.524771D+00  0.286224D+01
     36  0.124294D-01  0.113913D-01  0.117484D-01  0.764503D+00  0.196149D+00
               36 
     36  0.274624D+01
 ICntrl=    100127.
 Calling FoFJK, ICntrl=    100127 FMM=F ISym2X=0 I1Cent= 0 IOpClX= 1 NMat=1 NMatS=1 NMatT=0.
 FoFJK:  IHMeth= 1 ICntrl=  100127 DoSepK=T KAlg= 0 I1Cent=   0 FoldK=F
 IRaf=         1 NMat=   1 IRICut=       1 DoRegI=T DoRafI=F ISym2E= 0.
 FoFCou: FMM=F IPFlag=           0 FMFlag=      100000 FMFlg1=         800
         NFxFlg=           0 DoJE=F BraDBF=F KetDBF=F FulRan=T
         wScrn=  0.000000 ICntrl=  100527 IOpCl=  0 I1Cent=           0 NGrid=           0
         NMat0=    1 NMatS0=      1 NMatT0=    0 NMatD0=    1 NMtDS0=    0 NMtDT0=    0
 Symmetry not used in FoFCou.
 FoFCou:  KetSym=F NOpSet=  1 NOpAb=1 NOp=  1.
 FoFCou:  CnvScl= 1.00D+00 Thresh= 1.00D-10 IAcrcy=      10.
 PrismS was handed   418928546 working-precision words and  4805 shell-pairs
 FoFCou: LinMIO=F DoNuc=F BraDBF=F KetDBF=F HaveP=T PDBF=F HaveZ=T HaveW=F
         NIJTC =      10 NIJTAt=       0 NIJTCD=       0 NIJTT =      10
         IJTBeg=       1 IJTEnd=      10 KLTBeg=       1 KLTEnd=      10
         IPTBeg=       1 IPTEnd=      10 IPTBCv=       1 IPTECv=      10
         IZTBeg=       1 IZTEnd=      10 IZTBCv=       1 IZTECv=      10
         IWTBeg=      11 IWTEnd=      10 IWTBCv=      11 IWTECv=      10
         INTBeg=       1 INTEnd=       0 IFTBCv=       1 IFTECv=      10
 NCel replicated for PrismC:     1
 CoulSu:  IncDef=  1024 NBBP=       11546415 NTPThr=   100 NPartT=   32 Incr=        1024 LDynOK=F.
 CoulSu:  NPrtUS=  32 ThrOK=T IAlg=1 NPAlg=1 LenDen=           0 LWGrdD=           0 DoCopy=F.
 Enter PrismC: JobTyp=22 DoJE=F Cont=F.
 Enter PrismC: JobTyp=22 DoJE=F Cont=F.
 Enter PrismC: JobTyp=22 DoJE=F Cont=F.
 PrismC was handed    13004879 working-precision words and  4805 shell-pairs
 Enter PrismC: JobTyp=22 DoJE=F Cont=F.
 Enter PrismC: JobTyp=22 DoJE=F Cont=F.
 PrismC:  IPart=     0 DynPar=T LinDyn=F Incr=        1024 UseFst=F UseS4=T IGathr=2.
 PrismC was handed    13004879 working-precision words and  4805 shell-pairs
 Enter PrismC: JobTyp=22 DoJE=F Cont=F.
 PrismC was handed    13004879 working-precision words and  4805 shell-pairs
 Enter PrismC: JobTyp=22 DoJE=F Cont=F.
 PrismC was handed    13004879 working-precision words and  4805 shell-pairs
 Enter PrismC: JobTyp=22 DoJE=F Cont=F.
 PrismC was handed    13004879 working-precision words and  4805 shell-pairs
 Enter PrismC: JobTyp=22 DoJE=F Cont=F.
 Enter PrismC: JobTyp=22 DoJE=F Cont=F.
 PrismC was handed    13004879 working-precision words and  4805 shell-pairs
 Enter PrismC: JobTyp=22 DoJE=F Cont=F.
 PrismC was handed    13004879 working-precision words and  4805 shell-pairs
 Enter PrismC: JobTyp=22 DoJE=F Cont=F.
 PrismC was handed    13004879 working-precision words and  4805 shell-pairs
 Enter PrismC: JobTyp=22 DoJE=F Cont=F.
 Enter PrismC: JobTyp=22 DoJE=F Cont=F.
 PrismC was handed    13004879 working-precision words and  4805 shell-pairs
 Enter PrismC: JobTyp=22 DoJE=F Cont=F.
 Enter PrismC: JobTyp=22 DoJE=F Cont=F.
 PrismC was handed    13004879 working-precision words and  4805 shell-pairs
 Enter PrismC: JobTyp=22 DoJE=F Cont=F.
 Enter PrismC: JobTyp=22 DoJE=F Cont=F.
 PrismC was handed    13004879 working-precision words and  4805 shell-pairs
 Enter PrismC: JobTyp=22 DoJE=F Cont=F.
 PrismC was handed    13004879 working-precision words and  4805 shell-pairs
 Enter PrismC: JobTyp=22 DoJE=F Cont=F.
 Enter PrismC: JobTyp=22 DoJE=F Cont=F.
 PrismC was handed    13004879 working-precision words and  4805 shell-pairs
 Enter PrismC: JobTyp=22 DoJE=F Cont=F.
 PrismC was handed    13004879 working-precision words and  4805 shell-pairs
 PrismC was handed    13004879 working-precision words and  4805 shell-pairs
 Enter PrismC: JobTyp=22 DoJE=F Cont=F.
 PrismC was handed    13004879 working-precision words and  4805 shell-pairs
 Enter PrismC: JobTyp=22 DoJE=F Cont=F.
 Enter PrismC: JobTyp=22 DoJE=F Cont=F.
 Enter PrismC: JobTyp=22 DoJE=F Cont=F.
 Enter PrismC: JobTyp=22 DoJE=F Cont=F.
 PrismC was handed    13004879 working-precision words and  4805 shell-pairs
 Enter PrismC: JobTyp=22 DoJE=F Cont=F.
 Enter PrismC: JobTyp=22 DoJE=F Cont=F.
 PrismC was handed    13004879 working-precision words and  4805 shell-pairs
 Enter PrismC: JobTyp=22 DoJE=F Cont=F.
 PrismC was handed    13004879 working-precision words and  4805 shell-pairs
 Enter PrismC: JobTyp=22 DoJE=F Cont=F.
 PrismC was handed    13004879 working-precision words and  4805 shell-pairs
 Enter PrismC: JobTyp=22 DoJE=F Cont=F.
 PrismC was handed    13004879 working-precision words and  4805 shell-pairs
 PrismC was handed    13004879 working-precision words and  4805 shell-pairs
 PrismC was handed    13004879 working-precision words and  4805 shell-pairs
 PrismC was handed    13004879 working-precision words and  4805 shell-pairs
 PrismC was handed    13004879 working-precision words and  4805 shell-pairs
 PrismC was handed    13004879 working-precision words and  4805 shell-pairs
 PrismC was handed    13004879 working-precision words and  4805 shell-pairs
 PrismC was handed    13004879 working-precision words and  4805 shell-pairs
 PrismC was handed    13004879 working-precision words and  4805 shell-pairs
 PrismC was handed    13004879 working-precision words and  4805 shell-pairs
 PrismC was handed    13004879 working-precision words and  4805 shell-pairs
 PrismC was handed    13004879 working-precision words and  4805 shell-pairs
 IPart= 29 NShTot=      246757 NShNF=      246757 NShFF=           0 NBatch=        5040 AvBLen=        49.0
 IPart=  0 NShTot=      236849 NShNF=      236849 NShFF=           0 NBatch=        4714 AvBLen=        50.2
 IPart= 19 NShTot=      230845 NShNF=      230845 NShFF=           0 NBatch=        4781 AvBLen=        48.3
 IPart=  6 NShTot=      249830 NShNF=      249830 NShFF=           0 NBatch=        4904 AvBLen=        50.9
 IPart=  3 NShTot=      235288 NShNF=      235288 NShFF=           0 NBatch=        4795 AvBLen=        49.1
 IPart= 18 NShTot=      228221 NShNF=      228221 NShFF=           0 NBatch=        4978 AvBLen=        45.8
 IPart=  7 NShTot=      245906 NShNF=      245906 NShFF=           0 NBatch=        4939 AvBLen=        49.8
 IPart= 11 NShTot=      244107 NShNF=      244107 NShFF=           0 NBatch=        5049 AvBLen=        48.3
 IPart= 20 NShTot=      250693 NShNF=      250693 NShFF=           0 NBatch=        4915 AvBLen=        51.0
 IPart= 26 NShTot=      221868 NShNF=      221868 NShFF=           0 NBatch=        4587 AvBLen=        48.4
 IPart=  9 NShTot=      255761 NShNF=      255761 NShFF=           0 NBatch=        5106 AvBLen=        50.1
 IPart= 24 NShTot=      239973 NShNF=      239973 NShFF=           0 NBatch=        5089 AvBLen=        47.2
 IPart=  1 NShTot=      244338 NShNF=      244338 NShFF=           0 NBatch=        4911 AvBLen=        49.8
 IPart= 15 NShTot=      239348 NShNF=      239348 NShFF=           0 NBatch=        4824 AvBLen=        49.6
 IPart= 25 NShTot=      234476 NShNF=      234476 NShFF=           0 NBatch=        4790 AvBLen=        49.0
 IPart= 12 NShTot=      242989 NShNF=      242989 NShFF=           0 NBatch=        4952 AvBLen=        49.1
 IPart= 22 NShTot=      240278 NShNF=      240278 NShFF=           0 NBatch=        5076 AvBLen=        47.3
 IPart=  8 NShTot=      251413 NShNF=      251413 NShFF=           0 NBatch=        5057 AvBLen=        49.7
 IPart= 27 NShTot=      246945 NShNF=      246945 NShFF=           0 NBatch=        4902 AvBLen=        50.4
 IPart= 23 NShTot=      246867 NShNF=      246867 NShFF=           0 NBatch=        4816 AvBLen=        51.3
 IPart= 21 NShTot=      254646 NShNF=      254646 NShFF=           0 NBatch=        4831 AvBLen=        52.7
 IPart=  2 NShTot=      253067 NShNF=      253067 NShFF=           0 NBatch=        5155 AvBLen=        49.1
 IPart= 28 NShTot=      251778 NShNF=      251778 NShFF=           0 NBatch=        5128 AvBLen=        49.1
 IPart= 13 NShTot=      238558 NShNF=      238558 NShFF=           0 NBatch=        4707 AvBLen=        50.7
 IPart= 30 NShTot=      228856 NShNF=      228856 NShFF=           0 NBatch=        4401 AvBLen=        52.0
 IPart=  5 NShTot=      246247 NShNF=      246247 NShFF=           0 NBatch=        4901 AvBLen=        50.2
 IPart= 17 NShTot=      241779 NShNF=      241779 NShFF=           0 NBatch=        5056 AvBLen=        47.8
 IPart= 31 NShTot=      244985 NShNF=      244985 NShFF=           0 NBatch=        5133 AvBLen=        47.7
 IPart=  4 NShTot=      246367 NShNF=      246367 NShFF=           0 NBatch=        5031 AvBLen=        49.0
 IPart= 16 NShTot=      242267 NShNF=      242267 NShFF=           0 NBatch=        4918 AvBLen=        49.3
 IPart= 10 NShTot=      239139 NShNF=      239139 NShFF=           0 NBatch=        5007 AvBLen=        47.8
 IPart= 14 NShTot=      250038 NShNF=      250038 NShFF=           0 NBatch=        5198 AvBLen=        48.1
 CoulSu:  NxtVal=       12553217.
 FoFCou: FMM=F IPFlag=           0 FMFlag=      100000 FMFlg1=         800
         NFxFlg=           0 DoJE=F BraDBF=F KetDBF=F FulRan=T
         wScrn=  0.000000 ICntrl=  100127 IOpCl=  1 I1Cent=           0 NGrid=           0
         NMat0=    1 NMatS0=      0 NMatT0=    1 NMatD0=    1 NMtDS0=    0 NMtDT0=    0
         CW=    0.222036    0.777964
         WU=    0.000000   12.500000
 Symmetry not used in FoFCou.
 FoFCou:  KetSym=F NOpSet=  1 NOpAb=1 NOp=  1.
 FoFCou:  CnvScl= 1.00D+00 Thresh= 1.00D-10 IAcrcy=      10.
 PrismS was handed   418923580 working-precision words and  4805 shell-pairs
 FoFCou: LinMIO=F DoNuc=F BraDBF=F KetDBF=F HaveP=T PDBF=F HaveZ=T HaveW=F
         NIJTC =      10 NIJTAt=       0 NIJTCD=       0 NIJTT =      10
         IJTBeg=       1 IJTEnd=      10 KLTBeg=       1 KLTEnd=      10
         IPTBeg=       1 IPTEnd=      10 IPTBCv=       1 IPTECv=      10
         IZTBeg=       1 IZTEnd=      10 IZTBCv=       1 IZTECv=      10
         IWTBeg=      11 IWTEnd=      10 IWTBCv=      11 IWTECv=      10
         INTBeg=       1 INTEnd=       0 IFTBCv=       1 IFTECv=      10
 NCel replicated for PrismC:     1
 CoulSu:  IncDef=  1024 NBBP=       11546415 NTPThr=   100 NPartT=   32 Incr=        1024 LDynOK=F.
 CoulSu:  NPrtUS=  32 ThrOK=T IAlg=1 NPAlg=1 LenDen=           0 LWGrdD=           0 DoCopy=F.
 Enter PrismC: JobTyp=22 DoJE=F Cont=F.
 Linear combination for Coulomb/exchange, wScrn=  0.000000
 Enter PrismC: JobTyp=22 DoJE=F Cont=F.
 Linear combination for Coulomb/exchange, wScrn=  0.000000
 Enter PrismC: JobTyp=22 DoJE=F Cont=F.
 Enter PrismC: JobTyp=22 DoJE=F Cont=F.
 Linear combination for Coulomb/exchange, wScrn=  0.000000
 Enter PrismC: JobTyp=22 DoJE=F Cont=F.
 Linear combination for Coulomb/exchange, wScrn=  0.000000
 CW=    0.222036    0.777964
 Enter PrismC: JobTyp=22 DoJE=F Cont=F.
 Linear combination for Coulomb/exchange, wScrn=  0.000000
 CW=    0.222036    0.777964
 WU=    0.000000   12.500000
 Linear combination for Coulomb/exchange, wScrn=  0.000000
 CW=    0.222036    0.777964
 WU=    0.000000   12.500000
 Enter PrismC: JobTyp=22 DoJE=F Cont=F.
 Enter PrismC: JobTyp=22 DoJE=F Cont=F.
 Linear combination for Coulomb/exchange, wScrn=  0.000000
 CW=    0.222036    0.777964
 WU=    0.000000   12.500000
 Enter PrismC: JobTyp=22 DoJE=F Cont=F.
 Linear combination for Coulomb/exchange, wScrn=  0.000000
 CW=    0.222036    0.777964
 WU=    0.000000   12.500000
 Enter PrismC: JobTyp=22 DoJE=F Cont=F.
 Linear combination for Coulomb/exchange, wScrn=  0.000000
 CW=    0.222036    0.777964
 WU=    0.000000   12.500000
 Enter PrismC: JobTyp=22 DoJE=F Cont=F.
 Enter PrismC: JobTyp=22 DoJE=F Cont=F.
 Linear combination for Coulomb/exchange, wScrn=  0.000000
 CW=    0.222036    0.777964
 WU=    0.000000   12.500000
 WU=    0.000000   12.500000
 Enter PrismC: JobTyp=22 DoJE=F Cont=F.
 Linear combination for Coulomb/exchange, wScrn=  0.000000
 CW=    0.222036    0.777964
 WU=    0.000000   12.500000
 CW=    0.222036    0.777964
 WU=    0.000000   12.500000
 Enter PrismC: JobTyp=22 DoJE=F Cont=F.
 Enter PrismC: JobTyp=22 DoJE=F Cont=F.
 Linear combination for Coulomb/exchange, wScrn=  0.000000
 CW=    0.222036    0.777964
 WU=    0.000000   12.500000
 PrismC was handed    13004724 working-precision words and  4805 shell-pairs
 Enter PrismC: JobTyp=22 DoJE=F Cont=F.
 Linear combination for Coulomb/exchange, wScrn=  0.000000
 CW=    0.222036    0.777964
 WU=    0.000000   12.500000
 Linear combination for Coulomb/exchange, wScrn=  0.000000
 CW=    0.222036    0.777964
 WU=    0.000000   12.500000
 PrismC was handed    13004724 working-precision words and  4805 shell-pairs
 Enter PrismC: JobTyp=22 DoJE=F Cont=F.
 Linear combination for Coulomb/exchange, wScrn=  0.000000
 CW=    0.222036    0.777964
 WU=    0.000000   12.500000
 PrismC was handed    13004724 working-precision words and  4805 shell-pairs
 Enter PrismC: JobTyp=22 DoJE=F Cont=F.
 Linear combination for Coulomb/exchange, wScrn=  0.000000
 CW=    0.222036    0.777964
 WU=    0.000000   12.500000
 PrismC was handed    13004724 working-precision words and  4805 shell-pairs
 Enter PrismC: JobTyp=22 DoJE=F Cont=F.
 Enter PrismC: JobTyp=22 DoJE=F Cont=F.
 Linear combination for Coulomb/exchange, wScrn=  0.000000
 CW=    0.222036    0.777964
 WU=    0.000000   12.500000
 PrismC was handed    13004724 working-precision words and  4805 shell-pairs
 Linear combination for Coulomb/exchange, wScrn=  0.000000
 CW=    0.222036    0.777964
 WU=    0.000000   12.500000
 PrismC was handed    13004724 working-precision words and  4805 shell-pairs
 PrismC was handed    13004724 working-precision words and  4805 shell-pairs
 Enter PrismC: JobTyp=22 DoJE=F Cont=F.
 Enter PrismC: JobTyp=22 DoJE=F Cont=F.
 Linear combination for Coulomb/exchange, wScrn=  0.000000
 CW=    0.222036    0.777964
 WU=    0.000000   12.500000
 PrismC was handed    13004724 working-precision words and  4805 shell-pairs
 Enter PrismC: JobTyp=22 DoJE=F Cont=F.
 Linear combination for Coulomb/exchange, wScrn=  0.000000
 CW=    0.222036    0.777964
 WU=    0.000000   12.500000
 PrismC was handed    13004724 working-precision words and  4805 shell-pairs
 PrismC was handed    13004724 working-precision words and  4805 shell-pairs
 Linear combination for Coulomb/exchange, wScrn=  0.000000
 CW=    0.222036    0.777964
 WU=    0.000000   12.500000
 CW=    0.222036    0.777964
 WU=    0.000000   12.500000
 PrismC:  IPart=     0 DynPar=T LinDyn=F Incr=        1024 UseFst=F UseS4=T IGathr=2.
 PrismC was handed    13004724 working-precision words and  4805 shell-pairs
 PrismC was handed    13004724 working-precision words and  4805 shell-pairs
 PrismC was handed    13004724 working-precision words and  4805 shell-pairs
 Enter PrismC: JobTyp=22 DoJE=F Cont=F.
 Linear combination for Coulomb/exchange, wScrn=  0.000000
 CW=    0.222036    0.777964
 WU=    0.000000   12.500000
 Enter PrismC: JobTyp=22 DoJE=F Cont=F.
 Linear combination for Coulomb/exchange, wScrn=  0.000000
 CW=    0.222036    0.777964
 WU=    0.000000   12.500000
 PrismC was handed    13004724 working-precision words and  4805 shell-pairs
 CW=    0.222036    0.777964
 WU=    0.000000   12.500000
 PrismC was handed    13004724 working-precision words and  4805 shell-pairs
 Linear combination for Coulomb/exchange, wScrn=  0.000000
 CW=    0.222036    0.777964
 WU=    0.000000   12.500000
 PrismC was handed    13004724 working-precision words and  4805 shell-pairs
 Enter PrismC: JobTyp=22 DoJE=F Cont=F.
 Linear combination for Coulomb/exchange, wScrn=  0.000000
 CW=    0.222036    0.777964
 WU=    0.000000   12.500000
 PrismC was handed    13004724 working-precision words and  4805 shell-pairs
 Enter PrismC: JobTyp=22 DoJE=F Cont=F.
 Linear combination for Coulomb/exchange, wScrn=  0.000000
 CW=    0.222036    0.777964
 WU=    0.000000   12.500000
 PrismC was handed    13004724 working-precision words and  4805 shell-pairs
 Enter PrismC: JobTyp=22 DoJE=F Cont=F.
 Linear combination for Coulomb/exchange, wScrn=  0.000000
 CW=    0.222036    0.777964
 WU=    0.000000   12.500000
 PrismC was handed    13004724 working-precision words and  4805 shell-pairs
 PrismC was handed    13004724 working-precision words and  4805 shell-pairs
 Enter PrismC: JobTyp=22 DoJE=F Cont=F.
 Linear combination for Coulomb/exchange, wScrn=  0.000000
 CW=    0.222036    0.777964
 WU=    0.000000   12.500000
 PrismC was handed    13004724 working-precision words and  4805 shell-pairs
 PrismC was handed    13004724 working-precision words and  4805 shell-pairs
 Enter PrismC: JobTyp=22 DoJE=F Cont=F.
 Linear combination for Coulomb/exchange, wScrn=  0.000000
 CW=    0.222036    0.777964
 WU=    0.000000   12.500000
 PrismC was handed    13004724 working-precision words and  4805 shell-pairs
 PrismC was handed    13004724 working-precision words and  4805 shell-pairs
 Linear combination for Coulomb/exchange, wScrn=  0.000000
 CW=    0.222036    0.777964
 WU=    0.000000   12.500000
 PrismC was handed    13004724 working-precision words and  4805 shell-pairs
 PrismC was handed    13004724 working-precision words and  4805 shell-pairs
 Enter PrismC: JobTyp=22 DoJE=F Cont=F.
 Linear combination for Coulomb/exchange, wScrn=  0.000000
 CW=    0.222036    0.777964
 WU=    0.000000   12.500000
 PrismC was handed    13004724 working-precision words and  4805 shell-pairs
 PrismC was handed    13004724 working-precision words and  4805 shell-pairs
 PrismC was handed    13004724 working-precision words and  4805 shell-pairs
 Enter PrismC: JobTyp=22 DoJE=F Cont=F.
 PrismC was handed    13004724 working-precision words and  4805 shell-pairs
 PrismC was handed    13004724 working-precision words and  4805 shell-pairs
 Linear combination for Coulomb/exchange, wScrn=  0.000000
 CW=    0.222036    0.777964
 WU=    0.000000   12.500000
 PrismC was handed    13004724 working-precision words and  4805 shell-pairs
 IPart= 21 NShTot=      257449 NShNF=      257449 NShFF=           0 NBatch=        6234 AvBLen=        41.3
 IPart=  0 NShTot=      243960 NShNF=      243960 NShFF=           0 NBatch=        6242 AvBLen=        39.1
 IPart= 16 NShTot=      254973 NShNF=      254973 NShFF=           0 NBatch=        6309 AvBLen=        40.4
 IPart= 22 NShTot=      305550 NShNF=      305550 NShFF=           0 NBatch=        6256 AvBLen=        48.8
 IPart= 15 NShTot=      272722 NShNF=      272722 NShFF=           0 NBatch=        6130 AvBLen=        44.5
 IPart= 25 NShTot=      208003 NShNF=      208003 NShFF=           0 NBatch=        5492 AvBLen=        37.9
 IPart= 13 NShTot=      225976 NShNF=      225976 NShFF=           0 NBatch=        5555 AvBLen=        40.7
 IPart= 10 NShTot=      243274 NShNF=      243274 NShFF=           0 NBatch=        5974 AvBLen=        40.7
 IPart= 11 NShTot=      263015 NShNF=      263015 NShFF=           0 NBatch=        6399 AvBLen=        41.1
 IPart= 26 NShTot=      212303 NShNF=      212303 NShFF=           0 NBatch=        6054 AvBLen=        35.1
 IPart=  8 NShTot=      240987 NShNF=      240987 NShFF=           0 NBatch=        5986 AvBLen=        40.3
 IPart= 27 NShTot=      206398 NShNF=      206398 NShFF=           0 NBatch=        5363 AvBLen=        38.5
 IPart=  3 NShTot=      236165 NShNF=      236165 NShFF=           0 NBatch=        6239 AvBLen=        37.9
 IPart= 17 NShTot=      238787 NShNF=      238787 NShFF=           0 NBatch=        6030 AvBLen=        39.6
 IPart= 14 NShTot=      256043 NShNF=      256043 NShFF=           0 NBatch=        6348 AvBLen=        40.3
 IPart= 24 NShTot=      262985 NShNF=      262985 NShFF=           0 NBatch=        6583 AvBLen=        39.9
 IPart= 29 NShTot=      259585 NShNF=      259585 NShFF=           0 NBatch=        6024 AvBLen=        43.1
 IPart= 31 NShTot=      253047 NShNF=      253047 NShFF=           0 NBatch=        6454 AvBLen=        39.2
 IPart= 23 NShTot=      267749 NShNF=      267749 NShFF=           0 NBatch=        6455 AvBLen=        41.5
 IPart= 28 NShTot=      205336 NShNF=      205336 NShFF=           0 NBatch=        5334 AvBLen=        38.5
 IPart=  6 NShTot=      248219 NShNF=      248219 NShFF=           0 NBatch=        6362 AvBLen=        39.0
 IPart=  2 NShTot=      254997 NShNF=      254997 NShFF=           0 NBatch=        6268 AvBLen=        40.7
 IPart= 12 NShTot=      248755 NShNF=      248755 NShFF=           0 NBatch=        6067 AvBLen=        41.0
 IPart= 18 NShTot=      194043 NShNF=      194043 NShFF=           0 NBatch=        5466 AvBLen=        35.5
 IPart= 30 NShTot=      290217 NShNF=      290217 NShFF=           0 NBatch=        6759 AvBLen=        42.9
 IPart= 19 NShTot=      202603 NShNF=      202603 NShFF=           0 NBatch=        5546 AvBLen=        36.5
 IPart=  9 NShTot=      261473 NShNF=      261473 NShFF=           0 NBatch=        6624 AvBLen=        39.5
 IPart=  5 NShTot=      256250 NShNF=      256250 NShFF=           0 NBatch=        5950 AvBLen=        43.1
 IPart=  4 NShTot=      244130 NShNF=      244130 NShFF=           0 NBatch=        6374 AvBLen=        38.3
 IPart=  7 NShTot=      264711 NShNF=      264711 NShFF=           0 NBatch=        6409 AvBLen=        41.3
 IPart=  1 NShTot=      254268 NShNF=      254268 NShFF=           0 NBatch=        6346 AvBLen=        40.1
 IPart= 20 NShTot=      218043 NShNF=      218043 NShFF=           0 NBatch=        5564 AvBLen=        39.2
 CoulSu:  NxtVal=       12553217.
 ReadGW:  IGet=0 IStart=           1 Next=           1 LGW=           0.
 Remaining memory in FofDFT      399.83 Mw
 CkSvGd:  ISavGI=        -1 IRadAn=       5 IRASav=       5 ISavGd=        -1.
 CalDSu:  NPrtUS=  32 ThrOK=T IAlg=1 NPAlg=2 DoDPD=T LenP=       45150 LenD1P=             0.
 IPart=  0 IRanGd=          0 ScrnBf=T ScrnGd=T RCrit=4.00D+00 DoMicB=T.
 IPart= 15         6467 of         8550 points in      15 batches and       82 microbatches, Max-NSigAt=      12 Max-NSgAt2=      12
 IPart=  1         7333 of         8528 points in      15 batches and       57 microbatches, Max-NSigAt=      12 Max-NSgAt2=      12
 IPart= 12         7585 of         8360 points in      14 batches and       53 microbatches, Max-NSigAt=      12 Max-NSgAt2=      12
 IPart= 30         8513 of         9502 points in      16 batches and       46 microbatches, Max-NSigAt=      12 Max-NSgAt2=      12
 IPart= 18         6656 of         7530 points in      13 batches and       71 microbatches, Max-NSigAt=      12 Max-NSgAt2=      12
 IPart= 25         5845 of         6980 points in      12 batches and       82 microbatches, Max-NSigAt=      12 Max-NSgAt2=      12
 IPart= 26         7607 of         9558 points in      16 batches and       57 microbatches, Max-NSigAt=      12 Max-NSgAt2=      12
 IPart=  6         7721 of         8308 points in      14 batches and       39 microbatches, Max-NSigAt=      12 Max-NSgAt2=      12
 IPart= 24         7011 of         7738 points in      13 batches and       44 microbatches, Max-NSigAt=      12 Max-NSgAt2=      12
 IPart= 13         8182 of         9418 points in      17 batches and       45 microbatches, Max-NSigAt=      12 Max-NSgAt2=      12
 IPart= 23         8195 of         9598 points in      17 batches and       40 microbatches, Max-NSigAt=      12 Max-NSgAt2=      12
 IPart= 14         7872 of         8722 points in      15 batches and       51 microbatches, Max-NSigAt=      12 Max-NSgAt2=      12
 IPart=  3         7622 of         8340 points in      14 batches and       45 microbatches, Max-NSigAt=      12 Max-NSgAt2=      12
 IPart= 31         6715 of         7744 points in      14 batches and       68 microbatches, Max-NSigAt=      12 Max-NSgAt2=      12
 IPart= 28         7121 of         8352 points in      14 batches and       63 microbatches, Max-NSigAt=      12 Max-NSgAt2=      12
 IPart=  8         8953 of         9302 points in      16 batches and       33 microbatches, Max-NSigAt=      12 Max-NSgAt2=      12
 IPart= 22         8535 of         8942 points in      15 batches and       35 microbatches, Max-NSigAt=      12 Max-NSgAt2=      12
 IPart= 20         6838 of         7410 points in      13 batches and       50 microbatches, Max-NSigAt=      12 Max-NSgAt2=      12
 IPart=  4         6657 of         7072 points in      12 batches and       36 microbatches, Max-NSigAt=      12 Max-NSgAt2=      12
 IPart=  2         9093 of        10854 points in      19 batches and       40 microbatches, Max-NSigAt=      12 Max-NSgAt2=      12
 IPart=  7         5444 of         6600 points in      11 batches and       73 microbatches, Max-NSigAt=      12 Max-NSgAt2=      12
 IPart= 16         7294 of         8788 points in      15 batches and       61 microbatches, Max-NSigAt=      12 Max-NSgAt2=      12
 IPart= 19         9054 of         9806 points in      17 batches and       35 microbatches, Max-NSigAt=      12 Max-NSgAt2=      12
 IPart= 21         7508 of         7786 points in      14 batches and       39 microbatches, Max-NSigAt=      12 Max-NSgAt2=      12
 IPart= 11         7881 of         9400 points in      16 batches and       74 microbatches, Max-NSigAt=      12 Max-NSgAt2=      12
 IPart= 10         7601 of         8934 points in      16 batches and       76 microbatches, Max-NSigAt=      12 Max-NSgAt2=      12
 IPart=  0         8564 of        10130 points in      18 batches and       38 microbatches, Max-NSigAt=      12 Max-NSgAt2=      12
 IPart= 29         7839 of         8110 points in      14 batches and       37 microbatches, Max-NSigAt=      12 Max-NSgAt2=      12
 IPart=  5         8309 of         9024 points in      16 batches and       49 microbatches, Max-NSigAt=      12 Max-NSgAt2=      12
 IPart=  9         7212 of         7776 points in      13 batches and       49 microbatches, Max-NSigAt=      12 Max-NSgAt2=      12
 IPart= 17         8803 of         9562 points in      16 batches and       48 microbatches, Max-NSigAt=      12 Max-NSgAt2=      12
 IPart= 27         7616 of         8930 points in      15 batches and       51 microbatches, Max-NSigAt=      12 Max-NSgAt2=      12
 Polarizability after L703:
                1             2             3 
      1  0.478349D+02
      2 -0.663395D+00  0.509687D+02
      3  0.146334D+01  0.192419D+01  0.508656D+02
 Dipole Derivatives after L703:
                 1             2             3             4             5 
      1   0.160431D+00 -0.135819D+00 -0.865596D-01 -0.265146D+00  0.274008D-01
      2  -0.150959D+00 -0.319836D+00  0.208919D-01  0.300396D-01 -0.335585D+00
      3  -0.775466D-01 -0.440198D-01  0.850998D+00  0.112197D+00 -0.743940D-01
                 6             7             8             9            10 
      1   0.107471D+00 -0.505832D-01  0.335511D-02 -0.406817D-03 -0.261462D-01
      2  -0.101522D+00  0.218826D-01  0.171566D+00  0.249074D-01  0.883004D-01
      3  -0.114025D+01  0.548026D-01  0.311126D-01  0.138835D-01 -0.495116D-01
                11            12            13            14            15 
      1   0.976779D-01  0.395887D-02  0.188518D+00  0.538170D-02 -0.278912D-01
      2   0.132792D+00  0.362394D-01  0.558830D-02  0.345224D+00  0.122760D-01
      3   0.574725D-01 -0.241711D-01 -0.435227D-01  0.265050D-01  0.302024D+00
                16            17            18            19            20 
      1   0.882131D-01 -0.115634D+00 -0.472572D-02  0.229363D-01  0.648493D-01
      2  -0.110013D+00 -0.346870D+00 -0.309227D-01  0.315683D-01  0.910322D-01
      3  -0.115096D-01 -0.436048D-01  0.117884D+00 -0.814027D-02  0.249467D-01
                21            22            23            24            25 
      1  -0.142065D-01  0.118165D-01  0.294995D-01 -0.289631D-01 -0.933578D-01
      2   0.228490D-01  0.284433D-01  0.143086D+00  0.108399D-01  0.433300D-01
      3   0.173093D-01  0.332588D-02  0.111171D-01 -0.106822D+00  0.196565D-01
                26            27            28            29            30 
      1   0.393879D-01  0.489454D-01  0.308508D-01 -0.278072D-02 -0.222680D-01
      2   0.139034D+00  0.463995D-02  0.234567D-01  0.665792D-01 -0.659872D-01
      3   0.110610D-01 -0.453247D-02 -0.467604D-03 -0.763672D-01 -0.110283D+00
                31            32            33            34            35 
      1   0.378954D-01  0.552348D-01 -0.366554D-01 -0.105427D+00 -0.685538D-01
      2   0.220158D-01 -0.155378D+00  0.226576D-01 -0.336527D-01  0.683554D-01
      3  -0.348025D-01  0.431044D-01  0.636650D-01  0.355188D-01  0.330664D-01
                36 
      1   0.613008D-01
      2   0.431309D-01
      3   0.202996D-01
 Hessian after L703:
                1             2             3             4             5 
      1  0.657048D+00
      2 -0.138625D+00  0.798233D-01
      3 -0.191267D-01 -0.567344D-01  0.602706D+00
      4 -0.982030D-01  0.196081D-01  0.330688D-01  0.579742D+00
      5  0.184015D-01 -0.862644D-02 -0.145972D-01 -0.691835D-01  0.184057D-01
      6 -0.145358D-01  0.518054D-02 -0.374733D+00 -0.151396D+00  0.121014D-01
      7 -0.324172D+00  0.214025D-01  0.102063D+00  0.525891D-02 -0.153061D-02
      8  0.471381D-02 -0.101785D-01  0.459671D-02  0.247537D-03 -0.227309D-02
      9  0.852332D-01  0.264966D-02 -0.850572D-01  0.367201D-01 -0.165712D-02
     10 -0.231746D+00  0.973289D-01 -0.109481D+00  0.868450D-02 -0.136893D-02
     11  0.114057D+00 -0.589429D-01  0.653356D-01 -0.526204D-02  0.354382D-02
     12 -0.997580D-01  0.549922D-01 -0.121688D+00 -0.232127D-01  0.148619D-01
     13 -0.277424D-02 -0.513668D-04 -0.662284D-02 -0.495505D+00  0.536977D-01
     14  0.100771D-02 -0.188241D-02  0.818799D-03  0.546110D-01 -0.113684D-01
     15  0.479462D-01 -0.637661D-02 -0.212954D-01  0.104869D+00 -0.107912D-01
     16 -0.129524D-03  0.472269D-05  0.341682D-03 -0.554314D-04  0.104653D-03
     17  0.491304D-03  0.545485D-03  0.612865D-03 -0.358525D-04  0.150574D-03
     18  0.406708D-03  0.542624D-03 -0.274989D-04 -0.922803D-04 -0.477770D-04
     19  0.924600D-04  0.216927D-03 -0.993016D-04 -0.363137D-04 -0.728484D-05
     20 -0.424022D-04 -0.678614D-03  0.395165D-03  0.781500D-04  0.133148D-03
     21  0.402924D-04  0.284160D-03  0.300518D-03 -0.216669D-05  0.155636D-03
     22  0.188955D-04  0.280858D-04 -0.530061D-04  0.188911D-04 -0.704141D-05
     23  0.601953D-04  0.902622D-04 -0.159574D-03 -0.423616D-04  0.107998D-04
     24 -0.291105D-04 -0.450752D-04 -0.137353D-03 -0.461446D-05 -0.300775D-04
     25 -0.862882D-05  0.156485D-03 -0.500483D-04  0.710956D-04  0.757326D-05
     26 -0.161286D-03  0.766526D-04 -0.107925D-03  0.672417D-04 -0.978524D-05
     27 -0.141161D-04 -0.167113D-04  0.987404D-04  0.227430D-04  0.405314D-04
     28  0.107612D-04 -0.304605D-04 -0.136098D-03 -0.122072D-03 -0.588382D-04
     29  0.204503D-04 -0.137226D-03 -0.103320D-03 -0.403043D-04  0.674238D-04
     30 -0.169074D-03 -0.423024D-03  0.131198D-03  0.971708D-04  0.111378D-04
     31 -0.468580D-04  0.216586D-04 -0.458085D-04  0.435377D-04 -0.300238D-04
     32 -0.464295D-04 -0.240596D-03  0.215905D-03  0.552266D-04 -0.286686D-04
     33 -0.770474D-04 -0.192940D-03 -0.507478D-04  0.340696D-04  0.184480D-04
     34 -0.902037D-04 -0.605400D-04  0.141416D-03  0.103397D-03 -0.251872D-04
     35  0.123318D-03  0.151004D-03 -0.272629D-03 -0.103232D-03 -0.506321D-05
     36  0.835875D-04  0.139620D-03 -0.247053D-03 -0.103998D-03 -0.657737D-04
                6             7             8             9            10 
      6  0.499029D+00
      7  0.466743D-03  0.326407D+00
      8  0.124592D-02 -0.158964D-01  0.855592D-02
      9 -0.187286D-01 -0.109072D+00 -0.166279D-02  0.101494D+00
     10  0.610762D-02 -0.995929D-02  0.104428D-01 -0.131979D-01  0.230520D+00
     11 -0.706505D-03 -0.380889D-02  0.720978D-03 -0.266618D-03 -0.104605D+00
     12 -0.265871D-01  0.814254D-02 -0.428626D-02  0.881395D-02  0.117324D+00
     13  0.159283D+00  0.239180D-02  0.499035D-03  0.299109D-03  0.251233D-02
     14 -0.177020D-01 -0.226369D-03  0.309691D-02  0.923161D-03 -0.163477D-02
     15 -0.791091D-01 -0.163055D-02  0.677767D-04 -0.649920D-02 -0.694136D-03
     16 -0.221361D-03 -0.643769D-04 -0.137476D-03 -0.202899D-04 -0.377382D-04
     17  0.755131D-04  0.169392D-03  0.145630D-03 -0.751278D-05 -0.241259D-03
     18  0.921045D-04  0.000000D+00 -0.123441D-04  0.215565D-04 -0.109850D-03
     19  0.219400D-03  0.121638D-04 -0.938258D-04 -0.561800D-04 -0.693266D-04
     20 -0.615186D-03  0.223992D-04  0.106214D-03  0.188994D-04  0.278778D-04
     21 -0.229101D-03 -0.916749D-05  0.115765D-05  0.000000D+00 -0.365405D-04
     22  0.618311D-04  0.663218D-05  0.152659D-04 -0.117802D-04  0.132053D-04
     23  0.234159D-03 -0.383672D-04 -0.287658D-04 -0.935859D-05  0.210033D-04
     24  0.215726D-03 -0.138500D-04  0.466044D-05 -0.159712D-04  0.256330D-04
     25  0.774644D-04  0.431794D-04  0.478109D-04  0.167634D-04  0.260409D-04
     26  0.653326D-04  0.428225D-05 -0.513001D-04  0.172406D-04  0.449620D-04
     27 -0.120712D-03 -0.126940D-04  0.517744D-05 -0.222506D-04  0.160166D-04
     28  0.145162D-03 -0.428581D-04 -0.759609D-04  0.352130D-04 -0.322383D-04
     29  0.686543D-04 -0.553434D-04 -0.766637D-04  0.124023D-04 -0.924667D-05
     30 -0.176525D-03  0.735355D-04  0.133426D-03 -0.231087D-04  0.694228D-04
     31  0.370070D-04  0.412026D-04  0.892932D-04  0.143887D-04  0.451300D-04
     32 -0.283583D-03  0.435775D-04  0.101596D-03  0.304396D-05  0.238451D-04
     33  0.944302D-04  0.228528D-04  0.255557D-04 -0.116992D-04  0.330275D-04
     34 -0.245061D-03  0.781863D-04  0.148196D-03  0.389802D-04  0.426205D-04
     35  0.335685D-03 -0.861019D-04 -0.118900D-03 -0.210019D-04 -0.300050D-04
     36  0.253112D-03 -0.314762D-04 -0.118991D-03  0.277103D-04 -0.558891D-04
               11            12            13            14            15 
     11  0.553242D-01
     12 -0.652376D-01  0.137884D+00
     13 -0.354493D-03 -0.249839D-02  0.493390D+00
     14 -0.620881D-03 -0.283872D-03 -0.537834D-01  0.108069D-01
     15  0.876874D-03  0.162476D-02 -0.150465D+00  0.162010D-01  0.105227D+00
     16  0.158184D-03 -0.294584D-05  0.583094D-04  0.713352D-04  0.640691D-04
     17  0.157429D-03 -0.760349D-04 -0.209945D-04  0.798127D-04  0.155963D-03
     18 -0.375446D-04 -0.229152D-05 -0.120008D-05 -0.432084D-05  0.100637D-04
     19  0.421413D-04  0.205522D-04 -0.409421D-05 -0.676213D-05  0.217969D-04
     20 -0.363631D-04 -0.972404D-05 -0.444440D-04 -0.645132D-04  0.378774D-04
     21  0.394098D-04 -0.450182D-04  0.644947D-04 -0.128090D-03 -0.115058D-04
     22 -0.459854D-04  0.119200D-04 -0.242776D-04 -0.358999D-04 -0.212933D-04
     23 -0.606948D-04 -0.139247D-04  0.281116D-04  0.135348D-04 -0.257721D-04
     24 -0.331396D-04 -0.182089D-04  0.687662D-05  0.647150D-04 -0.168932D-05
     25 -0.129590D-03 -0.547321D-05 -0.171211D-04 -0.890466D-04 -0.623062D-04
     26 -0.103972D-03  0.273931D-04 -0.136962D-04 -0.541315D-04 -0.885877D-04
     27  0.249599D-04  0.000000D+00 -0.831477D-05 -0.595494D-04  0.996798D-05
     28  0.607953D-04  0.118389D-04  0.169128D-04  0.139429D-03  0.271672D-05
     29  0.106568D-04  0.174107D-04  0.494430D-04 -0.576509D-04 -0.938842D-04
     30 -0.174661D-04 -0.214576D-04 -0.503637D-04  0.682875D-04  0.505953D-04
     31 -0.522446D-04 -0.134399D-04 -0.591639D-05 -0.747282D-05 -0.213210D-04
     32 -0.306762D-05 -0.142416D-04 -0.376302D-04  0.353260D-04  0.540902D-04
     33 -0.219323D-04  0.316065D-05 -0.236532D-04  0.331829D-04  0.151036D-04
     34 -0.595484D-04 -0.199041D-04 -0.379849D-04 -0.457431D-04 -0.921311D-05
     35  0.107675D-04  0.227569D-04  0.318006D-04  0.155471D-04 -0.175165D-04
     36  0.439494D-04  0.355076D-04  0.160896D-04  0.686972D-04 -0.208451D-04
               16            17            18            19            20 
     16  0.557124D+00
     17 -0.105388D+00  0.794184D-01
     18 -0.438981D-01 -0.340934D-01  0.606962D+00
     19 -0.187788D+00  0.425820D-01 -0.683715D-01  0.522045D+00
     20  0.368476D-01 -0.525502D-01  0.222060D-01  0.135411D-01  0.481403D+00
     21 -0.679790D-01  0.257227D-01 -0.134231D+00 -0.319877D-01  0.143327D-01
     22 -0.551201D-01  0.876606D-02  0.175497D-01  0.446199D-02 -0.880618D-03
     23  0.983698D-02 -0.125518D-01  0.751667D-02 -0.264473D-02  0.355205D-02
     24  0.169331D-01  0.118110D-01 -0.347592D+00  0.365140D-02 -0.207914D-02
     25 -0.285599D+00  0.410794D-01  0.115867D+00 -0.135159D-01 -0.203835D-03
     26  0.377996D-01 -0.156112D-01 -0.986319D-02  0.742576D-02  0.270730D-02
     27  0.116633D+00 -0.126092D-01 -0.113522D+00 -0.158174D-01  0.147493D-02
     28  0.247227D-02 -0.815756D-02 -0.268237D-01 -0.508720D-01  0.290176D-02
     29  0.395876D-03  0.288989D-02  0.120311D-01  0.316022D-02 -0.831638D-01
     30 -0.342200D-03 -0.321341D-02 -0.175286D-01  0.148210D-01 -0.960969D-01
     31 -0.680819D-02  0.245069D-01 -0.589895D-02 -0.410922D-01  0.191176D-01
     32  0.901224D-02 -0.438060D-02  0.612431D-02  0.770779D-02 -0.283232D+00
     33 -0.505038D-02  0.163714D-01 -0.413504D-02  0.351810D-03  0.263307D-01
     34 -0.240523D-01 -0.375136D-02  0.113721D-01 -0.233234D+00 -0.713651D-01
     35  0.112944D-01  0.170650D-02 -0.436203D-02 -0.719233D-01 -0.681763D-01
     36 -0.164572D-01 -0.474986D-02  0.995442D-02  0.972461D-01  0.340047D-01
               21            22            23            24            25 
     21  0.548350D+00
     22 -0.232232D-01  0.504429D-01
     23  0.955370D-02 -0.900259D-02  0.631829D-02
     24 -0.891058D-02 -0.154645D-01 -0.115607D-01  0.363323D+00
     25  0.113009D-01  0.237948D-02  0.377967D-04 -0.251644D-02  0.299046D+00
     26 -0.619230D-02 -0.546284D-03  0.323925D-02  0.415159D-03 -0.427943D-01
     27  0.993918D-02  0.246274D-01 -0.302691D-02 -0.709325D-02 -0.122198D+00
     28  0.137714D-01 -0.342131D-02  0.113710D-02 -0.210294D-02  0.105330D-02
     29 -0.970454D-01  0.186793D-02 -0.833869D-05  0.148481D-02 -0.414615D-03
     30 -0.270182D+00 -0.329160D-02 -0.649057D-03 -0.235213D-03  0.392638D-04
     31 -0.281586D-03 -0.297898D-03  0.791373D-04 -0.226056D-03 -0.842967D-03
     32  0.188576D-01  0.537546D-03 -0.654885D-03  0.733488D-04  0.282232D-03
     33 -0.437008D-01 -0.703234D-03 -0.104791D-02 -0.452633D-03 -0.127712D-04
     34  0.983422D-01  0.152161D-02  0.527713D-03 -0.259516D-03 -0.263635D-02
     35  0.344187D-01 -0.696472D-03  0.802603D-04 -0.105560D-03  0.202011D-02
     36 -0.101280D+00  0.517746D-03 -0.811307D-03  0.918504D-03 -0.245582D-02
               26            27            28            29            30 
     26  0.102450D-01
     27  0.129634D-01  0.110621D+00
     28 -0.536142D-03  0.687263D-03  0.514422D-01
     29  0.989389D-04 -0.533035D-03 -0.783468D-02  0.903539D-01
     30  0.876494D-03  0.131000D-02 -0.112511D-01  0.103495D+00  0.294974D+00
     31 -0.939645D-03 -0.398311D-03 -0.156131D-03  0.245786D-02  0.215676D-03
     32 -0.568029D-03  0.549193D-03  0.247545D-04 -0.137520D-01  0.909701D-03
     33  0.550424D-03 -0.782864D-04  0.170490D-02 -0.303683D-01  0.293047D-02
     34 -0.350514D-03 -0.353684D-02 -0.348815D-03  0.402412D-03 -0.211747D-03
     35  0.312628D-04  0.118715D-02  0.124298D-01  0.377489D-02 -0.509438D-02
     36  0.133655D-02 -0.114273D-02  0.239553D-01  0.110344D-01 -0.112292D-01
               31            32            33            34            35 
     31  0.475596D-01
     32 -0.175489D-01  0.313874D+00
     33  0.405170D-02 -0.269865D-01  0.470217D-01
     34  0.156063D-02 -0.542851D-04 -0.331279D-03  0.257093D+00
     35 -0.276942D-01 -0.111510D-01  0.152880D-01  0.746340D-01  0.736810D-01
     36  0.256669D-02  0.497131D-03 -0.163573D-02 -0.105281D+00 -0.413791D-01
               36 
     36  0.104366D+00
 FrcOut:
 IF    =   646 IFX   =   711 IFXYZ =   747
 IFFX  =   783 IFFFX =  1449 IFLen =    65
 IFFLen=   666 IFFFLn=     0 IEDerv=  1449
 LEDerv=  1781 IFroze=  3636 ICStrt=147961
 DipoleDeriv   = 1.60430553D-01-1.50958871D-01-7.75465802D-02
                -1.35819013D-01-3.19835850D-01-4.40197605D-02
                -8.65595602D-02 2.08919199D-02 8.50998014D-01
                -2.65145993D-01 3.00396248D-02 1.12197101D-01
                 2.74008369D-02-3.35584816D-01-7.43940156D-02
                 1.07471265D-01-1.01522144D-01-1.14025448D+00
                -5.05831903D-02 2.18826123D-02 5.48026183D-02
                 3.35510530D-03 1.71565937D-01 3.11126014D-02
                -4.06816974D-04 2.49073993D-02 1.38834757D-02
                -2.61462038D-02 8.83004082D-02-4.95115917D-02
                 9.76779372D-02 1.32792454D-01 5.74725257D-02
                 3.95887299D-03 3.62394153D-02-2.41710538D-02
                 1.88517761D-01 5.58830248D-03-4.35227488D-02
                 5.38170499D-03 3.45223575D-01 2.65050292D-02
                -2.78911709D-02 1.22759857D-02 3.02024004D-01
                 8.82130681D-02-1.10013493D-01-1.15096125D-02
                -1.15633579D-01-3.46869975D-01-4.36048235D-02
                -4.72571706D-03-3.09227367D-02 1.17883693D-01
                 2.29363367D-02 3.15682639D-02-8.14027319D-03
                 6.48493031D-02 9.10322345D-02 2.49467495D-02
                -1.42065273D-02 2.28489582D-02 1.73092901D-02
                 1.18165229D-02 2.84433074D-02 3.32588064D-03
                 2.94995488D-02 1.43085940D-01 1.11171200D-02
                -2.89630950D-02 1.08399195D-02-1.06821729D-01
                -9.33577817D-02 4.33299915D-02 1.96564823D-02
                 3.93879145D-02 1.39033849D-01 1.10609755D-02
                 4.89453514D-02 4.63994838D-03-4.53247487D-03
                 3.08508071D-02 2.34566978D-02-4.67604372D-04
                -2.78071711D-03 6.65791662D-02-7.63671946D-02
                -2.22679773D-02-6.59871715D-02-1.10283324D-01
                 3.78954476D-02 2.20158471D-02-3.48024893D-02
                 5.52348080D-02-1.55377885D-01 4.31043805D-02
                -3.66553877D-02 2.26575763D-02 6.36649968D-02
                -1.05427327D-01-3.36526918D-02 3.55188178D-02
                -6.85538493D-02 6.83553710D-02 3.30664123D-02
                 6.13007634D-02 4.31309296D-02 2.02995842D-02
 -------------------------------------------------------------------
 Center     Atomic                   Forces (Hartrees/Bohr)
 Number     Number              X              Y              Z
 -------------------------------------------------------------------
      1        6          -0.000426503   -0.000198395   -0.000911045
      2        8           0.000011218   -0.000381925    0.000445291
      3        1          -0.000067335   -0.000203645   -0.000023775
      4        1           0.000184113   -0.000181584    0.000063609
      5        1           0.000012147    0.000028359   -0.000085848
      6        6           0.000237306    0.001002381    0.000409997
      7        6           0.000163250   -0.000496284    0.000672761
      8        1          -0.000007037    0.000106434   -0.000037584
      9        1           0.000021523   -0.000044108    0.000044684
     10        1           0.000071886    0.000453517   -0.000443843
     11        1          -0.000032344   -0.000238122   -0.000265278
     12        1          -0.000168225    0.000153371    0.000131032
 -------------------------------------------------------------------
 Cartesian Forces:  Max     0.001002381 RMS     0.000337402
 Force constants in Cartesian coordinates: 
                1             2             3             4             5 
      1  0.657048D+00
      2 -0.138625D+00  0.798233D-01
      3 -0.191267D-01 -0.567344D-01  0.602706D+00
      4 -0.982030D-01  0.196081D-01  0.330688D-01  0.579742D+00
      5  0.184015D-01 -0.862644D-02 -0.145972D-01 -0.691835D-01  0.184057D-01
      6 -0.145358D-01  0.518054D-02 -0.374733D+00 -0.151396D+00  0.121014D-01
      7 -0.324172D+00  0.214025D-01  0.102063D+00  0.525891D-02 -0.153061D-02
      8  0.471381D-02 -0.101785D-01  0.459671D-02  0.247537D-03 -0.227309D-02
      9  0.852332D-01  0.264966D-02 -0.850572D-01  0.367201D-01 -0.165712D-02
     10 -0.231746D+00  0.973289D-01 -0.109481D+00  0.868450D-02 -0.136893D-02
     11  0.114057D+00 -0.589429D-01  0.653356D-01 -0.526204D-02  0.354382D-02
     12 -0.997580D-01  0.549922D-01 -0.121688D+00 -0.232127D-01  0.148619D-01
     13 -0.277424D-02 -0.513668D-04 -0.662284D-02 -0.495505D+00  0.536977D-01
     14  0.100771D-02 -0.188241D-02  0.818799D-03  0.546110D-01 -0.113684D-01
     15  0.479462D-01 -0.637661D-02 -0.212954D-01  0.104869D+00 -0.107912D-01
     16 -0.129524D-03  0.472269D-05  0.341682D-03 -0.554314D-04  0.104653D-03
     17  0.491304D-03  0.545485D-03  0.612865D-03 -0.358525D-04  0.150574D-03
     18  0.406708D-03  0.542624D-03 -0.274989D-04 -0.922803D-04 -0.477770D-04
     19  0.924600D-04  0.216927D-03 -0.993016D-04 -0.363137D-04 -0.728484D-05
     20 -0.424022D-04 -0.678614D-03  0.395165D-03  0.781500D-04  0.133148D-03
     21  0.402924D-04  0.284160D-03  0.300518D-03 -0.216669D-05  0.155636D-03
     22  0.188955D-04  0.280858D-04 -0.530061D-04  0.188911D-04 -0.704141D-05
     23  0.601953D-04  0.902622D-04 -0.159574D-03 -0.423616D-04  0.107998D-04
     24 -0.291105D-04 -0.450752D-04 -0.137353D-03 -0.461446D-05 -0.300775D-04
     25 -0.862882D-05  0.156485D-03 -0.500483D-04  0.710956D-04  0.757326D-05
     26 -0.161286D-03  0.766526D-04 -0.107925D-03  0.672417D-04 -0.978524D-05
     27 -0.141161D-04 -0.167113D-04  0.987404D-04  0.227430D-04  0.405314D-04
     28  0.107612D-04 -0.304605D-04 -0.136098D-03 -0.122072D-03 -0.588382D-04
     29  0.204503D-04 -0.137226D-03 -0.103320D-03 -0.403043D-04  0.674238D-04
     30 -0.169074D-03 -0.423024D-03  0.131198D-03  0.971708D-04  0.111378D-04
     31 -0.468580D-04  0.216586D-04 -0.458085D-04  0.435377D-04 -0.300238D-04
     32 -0.464295D-04 -0.240596D-03  0.215905D-03  0.552266D-04 -0.286686D-04
     33 -0.770474D-04 -0.192940D-03 -0.507478D-04  0.340696D-04  0.184480D-04
     34 -0.902037D-04 -0.605400D-04  0.141416D-03  0.103397D-03 -0.251872D-04
     35  0.123318D-03  0.151004D-03 -0.272629D-03 -0.103232D-03 -0.506321D-05
     36  0.835875D-04  0.139620D-03 -0.247053D-03 -0.103998D-03 -0.657737D-04
                6             7             8             9            10 
      6  0.499029D+00
      7  0.466743D-03  0.326407D+00
      8  0.124592D-02 -0.158964D-01  0.855592D-02
      9 -0.187286D-01 -0.109072D+00 -0.166279D-02  0.101494D+00
     10  0.610762D-02 -0.995929D-02  0.104428D-01 -0.131979D-01  0.230520D+00
     11 -0.706505D-03 -0.380889D-02  0.720978D-03 -0.266618D-03 -0.104605D+00
     12 -0.265871D-01  0.814254D-02 -0.428626D-02  0.881395D-02  0.117324D+00
     13  0.159283D+00  0.239180D-02  0.499035D-03  0.299109D-03  0.251233D-02
     14 -0.177020D-01 -0.226369D-03  0.309691D-02  0.923161D-03 -0.163477D-02
     15 -0.791091D-01 -0.163055D-02  0.677767D-04 -0.649920D-02 -0.694136D-03
     16 -0.221361D-03 -0.643769D-04 -0.137476D-03 -0.202899D-04 -0.377382D-04
     17  0.755131D-04  0.169392D-03  0.145630D-03 -0.751278D-05 -0.241259D-03
     18  0.921045D-04  0.000000D+00 -0.123441D-04  0.215565D-04 -0.109850D-03
     19  0.219400D-03  0.121638D-04 -0.938258D-04 -0.561800D-04 -0.693266D-04
     20 -0.615186D-03  0.223992D-04  0.106214D-03  0.188994D-04  0.278778D-04
     21 -0.229101D-03 -0.916749D-05  0.115765D-05  0.000000D+00 -0.365405D-04
     22  0.618311D-04  0.663218D-05  0.152659D-04 -0.117802D-04  0.132053D-04
     23  0.234159D-03 -0.383672D-04 -0.287658D-04 -0.935859D-05  0.210033D-04
     24  0.215726D-03 -0.138500D-04  0.466044D-05 -0.159712D-04  0.256330D-04
     25  0.774644D-04  0.431794D-04  0.478109D-04  0.167634D-04  0.260409D-04
     26  0.653326D-04  0.428225D-05 -0.513001D-04  0.172406D-04  0.449620D-04
     27 -0.120712D-03 -0.126940D-04  0.517744D-05 -0.222506D-04  0.160166D-04
     28  0.145162D-03 -0.428581D-04 -0.759609D-04  0.352130D-04 -0.322383D-04
     29  0.686543D-04 -0.553434D-04 -0.766637D-04  0.124023D-04 -0.924667D-05
     30 -0.176525D-03  0.735355D-04  0.133426D-03 -0.231087D-04  0.694228D-04
     31  0.370070D-04  0.412026D-04  0.892932D-04  0.143887D-04  0.451300D-04
     32 -0.283583D-03  0.435775D-04  0.101596D-03  0.304396D-05  0.238451D-04
     33  0.944302D-04  0.228528D-04  0.255557D-04 -0.116992D-04  0.330275D-04
     34 -0.245061D-03  0.781863D-04  0.148196D-03  0.389802D-04  0.426205D-04
     35  0.335685D-03 -0.861019D-04 -0.118900D-03 -0.210019D-04 -0.300050D-04
     36  0.253112D-03 -0.314762D-04 -0.118991D-03  0.277103D-04 -0.558891D-04
               11            12            13            14            15 
     11  0.553242D-01
     12 -0.652376D-01  0.137884D+00
     13 -0.354493D-03 -0.249839D-02  0.493390D+00
     14 -0.620881D-03 -0.283872D-03 -0.537834D-01  0.108069D-01
     15  0.876874D-03  0.162476D-02 -0.150465D+00  0.162010D-01  0.105227D+00
     16  0.158184D-03 -0.294584D-05  0.583094D-04  0.713352D-04  0.640691D-04
     17  0.157429D-03 -0.760349D-04 -0.209945D-04  0.798127D-04  0.155963D-03
     18 -0.375446D-04 -0.229152D-05 -0.120008D-05 -0.432084D-05  0.100637D-04
     19  0.421413D-04  0.205522D-04 -0.409421D-05 -0.676213D-05  0.217969D-04
     20 -0.363631D-04 -0.972404D-05 -0.444440D-04 -0.645132D-04  0.378774D-04
     21  0.394098D-04 -0.450182D-04  0.644947D-04 -0.128090D-03 -0.115058D-04
     22 -0.459854D-04  0.119200D-04 -0.242776D-04 -0.358999D-04 -0.212933D-04
     23 -0.606948D-04 -0.139247D-04  0.281116D-04  0.135348D-04 -0.257721D-04
     24 -0.331396D-04 -0.182089D-04  0.687662D-05  0.647150D-04 -0.168932D-05
     25 -0.129590D-03 -0.547321D-05 -0.171211D-04 -0.890466D-04 -0.623062D-04
     26 -0.103972D-03  0.273931D-04 -0.136962D-04 -0.541315D-04 -0.885877D-04
     27  0.249599D-04  0.000000D+00 -0.831477D-05 -0.595494D-04  0.996798D-05
     28  0.607953D-04  0.118389D-04  0.169128D-04  0.139429D-03  0.271672D-05
     29  0.106568D-04  0.174107D-04  0.494430D-04 -0.576509D-04 -0.938842D-04
     30 -0.174661D-04 -0.214576D-04 -0.503637D-04  0.682875D-04  0.505953D-04
     31 -0.522446D-04 -0.134399D-04 -0.591639D-05 -0.747282D-05 -0.213210D-04
     32 -0.306762D-05 -0.142416D-04 -0.376302D-04  0.353260D-04  0.540902D-04
     33 -0.219323D-04  0.316065D-05 -0.236532D-04  0.331829D-04  0.151036D-04
     34 -0.595484D-04 -0.199041D-04 -0.379849D-04 -0.457431D-04 -0.921311D-05
     35  0.107675D-04  0.227569D-04  0.318006D-04  0.155471D-04 -0.175165D-04
     36  0.439494D-04  0.355076D-04  0.160896D-04  0.686972D-04 -0.208451D-04
               16            17            18            19            20 
     16  0.557124D+00
     17 -0.105388D+00  0.794184D-01
     18 -0.438981D-01 -0.340934D-01  0.606962D+00
     19 -0.187788D+00  0.425820D-01 -0.683715D-01  0.522045D+00
     20  0.368476D-01 -0.525502D-01  0.222060D-01  0.135411D-01  0.481403D+00
     21 -0.679790D-01  0.257227D-01 -0.134231D+00 -0.319877D-01  0.143327D-01
     22 -0.551201D-01  0.876606D-02  0.175497D-01  0.446199D-02 -0.880618D-03
     23  0.983698D-02 -0.125518D-01  0.751667D-02 -0.264473D-02  0.355205D-02
     24  0.169331D-01  0.118110D-01 -0.347592D+00  0.365140D-02 -0.207914D-02
     25 -0.285599D+00  0.410794D-01  0.115867D+00 -0.135159D-01 -0.203835D-03
     26  0.377996D-01 -0.156112D-01 -0.986319D-02  0.742576D-02  0.270730D-02
     27  0.116633D+00 -0.126092D-01 -0.113522D+00 -0.158174D-01  0.147493D-02
     28  0.247227D-02 -0.815756D-02 -0.268237D-01 -0.508720D-01  0.290176D-02
     29  0.395876D-03  0.288989D-02  0.120311D-01  0.316022D-02 -0.831638D-01
     30 -0.342200D-03 -0.321341D-02 -0.175286D-01  0.148210D-01 -0.960969D-01
     31 -0.680819D-02  0.245069D-01 -0.589895D-02 -0.410922D-01  0.191176D-01
     32  0.901224D-02 -0.438060D-02  0.612431D-02  0.770779D-02 -0.283232D+00
     33 -0.505038D-02  0.163714D-01 -0.413504D-02  0.351810D-03  0.263307D-01
     34 -0.240523D-01 -0.375136D-02  0.113721D-01 -0.233234D+00 -0.713651D-01
     35  0.112944D-01  0.170650D-02 -0.436203D-02 -0.719233D-01 -0.681763D-01
     36 -0.164572D-01 -0.474986D-02  0.995442D-02  0.972461D-01  0.340047D-01
               21            22            23            24            25 
     21  0.548350D+00
     22 -0.232232D-01  0.504429D-01
     23  0.955370D-02 -0.900259D-02  0.631829D-02
     24 -0.891058D-02 -0.154645D-01 -0.115607D-01  0.363323D+00
     25  0.113009D-01  0.237948D-02  0.377967D-04 -0.251644D-02  0.299046D+00
     26 -0.619230D-02 -0.546284D-03  0.323925D-02  0.415159D-03 -0.427943D-01
     27  0.993918D-02  0.246274D-01 -0.302691D-02 -0.709325D-02 -0.122198D+00
     28  0.137714D-01 -0.342131D-02  0.113710D-02 -0.210294D-02  0.105330D-02
     29 -0.970454D-01  0.186793D-02 -0.833869D-05  0.148481D-02 -0.414615D-03
     30 -0.270182D+00 -0.329160D-02 -0.649057D-03 -0.235213D-03  0.392638D-04
     31 -0.281586D-03 -0.297898D-03  0.791373D-04 -0.226056D-03 -0.842967D-03
     32  0.188576D-01  0.537546D-03 -0.654885D-03  0.733488D-04  0.282232D-03
     33 -0.437008D-01 -0.703234D-03 -0.104791D-02 -0.452633D-03 -0.127712D-04
     34  0.983422D-01  0.152161D-02  0.527713D-03 -0.259516D-03 -0.263635D-02
     35  0.344187D-01 -0.696472D-03  0.802603D-04 -0.105560D-03  0.202011D-02
     36 -0.101280D+00  0.517746D-03 -0.811307D-03  0.918504D-03 -0.245582D-02
               26            27            28            29            30 
     26  0.102450D-01
     27  0.129634D-01  0.110621D+00
     28 -0.536142D-03  0.687263D-03  0.514422D-01
     29  0.989389D-04 -0.533035D-03 -0.783468D-02  0.903539D-01
     30  0.876494D-03  0.131000D-02 -0.112511D-01  0.103495D+00  0.294974D+00
     31 -0.939645D-03 -0.398311D-03 -0.156131D-03  0.245786D-02  0.215676D-03
     32 -0.568029D-03  0.549193D-03  0.247545D-04 -0.137520D-01  0.909701D-03
     33  0.550424D-03 -0.782864D-04  0.170490D-02 -0.303683D-01  0.293047D-02
     34 -0.350514D-03 -0.353684D-02 -0.348815D-03  0.402412D-03 -0.211747D-03
     35  0.312628D-04  0.118715D-02  0.124298D-01  0.377489D-02 -0.509438D-02
     36  0.133655D-02 -0.114273D-02  0.239553D-01  0.110344D-01 -0.112292D-01
               31            32            33            34            35 
     31  0.475596D-01
     32 -0.175489D-01  0.313874D+00
     33  0.405170D-02 -0.269865D-01  0.470217D-01
     34  0.156063D-02 -0.542851D-04 -0.331279D-03  0.257093D+00
     35 -0.276942D-01 -0.111510D-01  0.152880D-01  0.746340D-01  0.736810D-01
     36  0.256669D-02  0.497131D-03 -0.163573D-02 -0.105281D+00 -0.413791D-01
               36 
     36  0.104366D+00
 Cartesian forces in FCRed:
 I=    1 X=  -4.265030444102D-04 Y=  -1.983952982901D-04 Z=  -9.110454433401D-04
 I=    2 X=   1.121835066398D-05 Y=  -3.819248704300D-04 Z=   4.452913101005D-04
 I=    3 X=  -6.733472499798D-05 Y=  -2.036450615967D-04 Z=  -2.377485346439D-05
 I=    4 X=   1.841133558242D-04 Y=  -1.815839111046D-04 Z=   6.360865799371D-05
 I=    5 X=   1.214719201492D-05 Y=   2.835934492801D-05 Z=  -8.584829216796D-05
 I=    6 X=   2.373056020768D-04 Y=   1.002381367854D-03 Z=   4.099972420359D-04
 I=    7 X=   1.632499390658D-04 Y=  -4.962837342526D-04 Z=   6.727606162111D-04
 I=    8 X=  -7.037284215194D-06 Y=   1.064342588555D-04 Z=  -3.758397607845D-05
 I=    9 X=   2.152292577851D-05 Y=  -4.410811051425D-05 Z=   4.468359816179D-05
 I=   10 X=   7.188634649380D-05 Y=   4.535165175822D-04 Z=  -4.438427442710D-04
 I=   11 X=  -3.234375407435D-05 Y=  -2.381215599532D-04 Z=  -2.652779771567D-04
 I=   12 X=  -1.682249045545D-04 Y=   1.533710569436D-04 Z=   1.310318623400D-04
 Cartesian force constants in FCRed: 
                1             2             3             4             5 
      1  0.657048D+00
      2 -0.138625D+00  0.798233D-01
      3 -0.191267D-01 -0.567344D-01  0.602706D+00
      4 -0.982030D-01  0.196081D-01  0.330688D-01  0.579742D+00
      5  0.184015D-01 -0.862644D-02 -0.145972D-01 -0.691835D-01  0.184057D-01
      6 -0.145358D-01  0.518054D-02 -0.374733D+00 -0.151396D+00  0.121014D-01
      7 -0.324172D+00  0.214025D-01  0.102063D+00  0.525891D-02 -0.153061D-02
      8  0.471381D-02 -0.101785D-01  0.459671D-02  0.247537D-03 -0.227309D-02
      9  0.852332D-01  0.264966D-02 -0.850572D-01  0.367201D-01 -0.165712D-02
     10 -0.231746D+00  0.973289D-01 -0.109481D+00  0.868450D-02 -0.136893D-02
     11  0.114057D+00 -0.589429D-01  0.653356D-01 -0.526204D-02  0.354382D-02
     12 -0.997580D-01  0.549922D-01 -0.121688D+00 -0.232127D-01  0.148619D-01
     13 -0.277424D-02 -0.513668D-04 -0.662284D-02 -0.495505D+00  0.536977D-01
     14  0.100771D-02 -0.188241D-02  0.818799D-03  0.546110D-01 -0.113684D-01
     15  0.479462D-01 -0.637661D-02 -0.212954D-01  0.104869D+00 -0.107912D-01
     16 -0.129524D-03  0.472269D-05  0.341682D-03 -0.554314D-04  0.104653D-03
     17  0.491304D-03  0.545485D-03  0.612865D-03 -0.358525D-04  0.150574D-03
     18  0.406708D-03  0.542624D-03 -0.274989D-04 -0.922803D-04 -0.477770D-04
     19  0.924600D-04  0.216927D-03 -0.993016D-04 -0.363137D-04 -0.728484D-05
     20 -0.424022D-04 -0.678614D-03  0.395165D-03  0.781500D-04  0.133148D-03
     21  0.402924D-04  0.284160D-03  0.300518D-03 -0.216669D-05  0.155636D-03
     22  0.188955D-04  0.280858D-04 -0.530061D-04  0.188911D-04 -0.704141D-05
     23  0.601953D-04  0.902622D-04 -0.159574D-03 -0.423616D-04  0.107998D-04
     24 -0.291105D-04 -0.450752D-04 -0.137353D-03 -0.461446D-05 -0.300775D-04
     25 -0.862882D-05  0.156485D-03 -0.500483D-04  0.710956D-04  0.757326D-05
     26 -0.161286D-03  0.766526D-04 -0.107925D-03  0.672417D-04 -0.978524D-05
     27 -0.141161D-04 -0.167113D-04  0.987404D-04  0.227430D-04  0.405314D-04
     28  0.107612D-04 -0.304605D-04 -0.136098D-03 -0.122072D-03 -0.588382D-04
     29  0.204503D-04 -0.137226D-03 -0.103320D-03 -0.403043D-04  0.674238D-04
     30 -0.169074D-03 -0.423024D-03  0.131198D-03  0.971708D-04  0.111378D-04
     31 -0.468580D-04  0.216586D-04 -0.458085D-04  0.435377D-04 -0.300238D-04
     32 -0.464295D-04 -0.240596D-03  0.215905D-03  0.552266D-04 -0.286686D-04
     33 -0.770474D-04 -0.192940D-03 -0.507478D-04  0.340696D-04  0.184480D-04
     34 -0.902037D-04 -0.605400D-04  0.141416D-03  0.103397D-03 -0.251872D-04
     35  0.123318D-03  0.151004D-03 -0.272629D-03 -0.103232D-03 -0.506321D-05
     36  0.835875D-04  0.139620D-03 -0.247053D-03 -0.103998D-03 -0.657737D-04
                6             7             8             9            10 
      6  0.499029D+00
      7  0.466743D-03  0.326407D+00
      8  0.124592D-02 -0.158964D-01  0.855592D-02
      9 -0.187286D-01 -0.109072D+00 -0.166279D-02  0.101494D+00
     10  0.610762D-02 -0.995929D-02  0.104428D-01 -0.131979D-01  0.230520D+00
     11 -0.706505D-03 -0.380889D-02  0.720978D-03 -0.266618D-03 -0.104605D+00
     12 -0.265871D-01  0.814254D-02 -0.428626D-02  0.881395D-02  0.117324D+00
     13  0.159283D+00  0.239180D-02  0.499035D-03  0.299109D-03  0.251233D-02
     14 -0.177020D-01 -0.226369D-03  0.309691D-02  0.923161D-03 -0.163477D-02
     15 -0.791091D-01 -0.163055D-02  0.677767D-04 -0.649920D-02 -0.694136D-03
     16 -0.221361D-03 -0.643769D-04 -0.137476D-03 -0.202899D-04 -0.377382D-04
     17  0.755131D-04  0.169392D-03  0.145630D-03 -0.751278D-05 -0.241259D-03
     18  0.921045D-04  0.000000D+00 -0.123441D-04  0.215565D-04 -0.109850D-03
     19  0.219400D-03  0.121638D-04 -0.938258D-04 -0.561800D-04 -0.693266D-04
     20 -0.615186D-03  0.223992D-04  0.106214D-03  0.188994D-04  0.278778D-04
     21 -0.229101D-03 -0.916749D-05  0.115765D-05  0.000000D+00 -0.365405D-04
     22  0.618311D-04  0.663218D-05  0.152659D-04 -0.117802D-04  0.132053D-04
     23  0.234159D-03 -0.383672D-04 -0.287658D-04 -0.935859D-05  0.210033D-04
     24  0.215726D-03 -0.138500D-04  0.466044D-05 -0.159712D-04  0.256330D-04
     25  0.774644D-04  0.431794D-04  0.478109D-04  0.167634D-04  0.260409D-04
     26  0.653326D-04  0.428225D-05 -0.513001D-04  0.172406D-04  0.449620D-04
     27 -0.120712D-03 -0.126940D-04  0.517744D-05 -0.222506D-04  0.160166D-04
     28  0.145162D-03 -0.428581D-04 -0.759609D-04  0.352130D-04 -0.322383D-04
     29  0.686543D-04 -0.553434D-04 -0.766637D-04  0.124023D-04 -0.924667D-05
     30 -0.176525D-03  0.735355D-04  0.133426D-03 -0.231087D-04  0.694228D-04
     31  0.370070D-04  0.412026D-04  0.892932D-04  0.143887D-04  0.451300D-04
     32 -0.283583D-03  0.435775D-04  0.101596D-03  0.304396D-05  0.238451D-04
     33  0.944302D-04  0.228528D-04  0.255557D-04 -0.116992D-04  0.330275D-04
     34 -0.245061D-03  0.781863D-04  0.148196D-03  0.389802D-04  0.426205D-04
     35  0.335685D-03 -0.861019D-04 -0.118900D-03 -0.210019D-04 -0.300050D-04
     36  0.253112D-03 -0.314762D-04 -0.118991D-03  0.277103D-04 -0.558891D-04
               11            12            13            14            15 
     11  0.553242D-01
     12 -0.652376D-01  0.137884D+00
     13 -0.354493D-03 -0.249839D-02  0.493390D+00
     14 -0.620881D-03 -0.283872D-03 -0.537834D-01  0.108069D-01
     15  0.876874D-03  0.162476D-02 -0.150465D+00  0.162010D-01  0.105227D+00
     16  0.158184D-03 -0.294584D-05  0.583094D-04  0.713352D-04  0.640691D-04
     17  0.157429D-03 -0.760349D-04 -0.209945D-04  0.798127D-04  0.155963D-03
     18 -0.375446D-04 -0.229152D-05 -0.120008D-05 -0.432084D-05  0.100637D-04
     19  0.421413D-04  0.205522D-04 -0.409421D-05 -0.676213D-05  0.217969D-04
     20 -0.363631D-04 -0.972404D-05 -0.444440D-04 -0.645132D-04  0.378774D-04
     21  0.394098D-04 -0.450182D-04  0.644947D-04 -0.128090D-03 -0.115058D-04
     22 -0.459854D-04  0.119200D-04 -0.242776D-04 -0.358999D-04 -0.212933D-04
     23 -0.606948D-04 -0.139247D-04  0.281116D-04  0.135348D-04 -0.257721D-04
     24 -0.331396D-04 -0.182089D-04  0.687662D-05  0.647150D-04 -0.168932D-05
     25 -0.129590D-03 -0.547321D-05 -0.171211D-04 -0.890466D-04 -0.623062D-04
     26 -0.103972D-03  0.273931D-04 -0.136962D-04 -0.541315D-04 -0.885877D-04
     27  0.249599D-04  0.000000D+00 -0.831477D-05 -0.595494D-04  0.996798D-05
     28  0.607953D-04  0.118389D-04  0.169128D-04  0.139429D-03  0.271672D-05
     29  0.106568D-04  0.174107D-04  0.494430D-04 -0.576509D-04 -0.938842D-04
     30 -0.174661D-04 -0.214576D-04 -0.503637D-04  0.682875D-04  0.505953D-04
     31 -0.522446D-04 -0.134399D-04 -0.591639D-05 -0.747282D-05 -0.213210D-04
     32 -0.306762D-05 -0.142416D-04 -0.376302D-04  0.353260D-04  0.540902D-04
     33 -0.219323D-04  0.316065D-05 -0.236532D-04  0.331829D-04  0.151036D-04
     34 -0.595484D-04 -0.199041D-04 -0.379849D-04 -0.457431D-04 -0.921311D-05
     35  0.107675D-04  0.227569D-04  0.318006D-04  0.155471D-04 -0.175165D-04
     36  0.439494D-04  0.355076D-04  0.160896D-04  0.686972D-04 -0.208451D-04
               16            17            18            19            20 
     16  0.557124D+00
     17 -0.105388D+00  0.794184D-01
     18 -0.438981D-01 -0.340934D-01  0.606962D+00
     19 -0.187788D+00  0.425820D-01 -0.683715D-01  0.522045D+00
     20  0.368476D-01 -0.525502D-01  0.222060D-01  0.135411D-01  0.481403D+00
     21 -0.679790D-01  0.257227D-01 -0.134231D+00 -0.319877D-01  0.143327D-01
     22 -0.551201D-01  0.876606D-02  0.175497D-01  0.446199D-02 -0.880618D-03
     23  0.983698D-02 -0.125518D-01  0.751667D-02 -0.264473D-02  0.355205D-02
     24  0.169331D-01  0.118110D-01 -0.347592D+00  0.365140D-02 -0.207914D-02
     25 -0.285599D+00  0.410794D-01  0.115867D+00 -0.135159D-01 -0.203835D-03
     26  0.377996D-01 -0.156112D-01 -0.986319D-02  0.742576D-02  0.270730D-02
     27  0.116633D+00 -0.126092D-01 -0.113522D+00 -0.158174D-01  0.147493D-02
     28  0.247227D-02 -0.815756D-02 -0.268237D-01 -0.508720D-01  0.290176D-02
     29  0.395876D-03  0.288989D-02  0.120311D-01  0.316022D-02 -0.831638D-01
     30 -0.342200D-03 -0.321341D-02 -0.175286D-01  0.148210D-01 -0.960969D-01
     31 -0.680819D-02  0.245069D-01 -0.589895D-02 -0.410922D-01  0.191176D-01
     32  0.901224D-02 -0.438060D-02  0.612431D-02  0.770779D-02 -0.283232D+00
     33 -0.505038D-02  0.163714D-01 -0.413504D-02  0.351810D-03  0.263307D-01
     34 -0.240523D-01 -0.375136D-02  0.113721D-01 -0.233234D+00 -0.713651D-01
     35  0.112944D-01  0.170650D-02 -0.436203D-02 -0.719233D-01 -0.681763D-01
     36 -0.164572D-01 -0.474986D-02  0.995442D-02  0.972461D-01  0.340047D-01
               21            22            23            24            25 
     21  0.548350D+00
     22 -0.232232D-01  0.504429D-01
     23  0.955370D-02 -0.900259D-02  0.631829D-02
     24 -0.891058D-02 -0.154645D-01 -0.115607D-01  0.363323D+00
     25  0.113009D-01  0.237948D-02  0.377967D-04 -0.251644D-02  0.299046D+00
     26 -0.619230D-02 -0.546284D-03  0.323925D-02  0.415159D-03 -0.427943D-01
     27  0.993918D-02  0.246274D-01 -0.302691D-02 -0.709325D-02 -0.122198D+00
     28  0.137714D-01 -0.342131D-02  0.113710D-02 -0.210294D-02  0.105330D-02
     29 -0.970454D-01  0.186793D-02 -0.833869D-05  0.148481D-02 -0.414615D-03
     30 -0.270182D+00 -0.329160D-02 -0.649057D-03 -0.235213D-03  0.392638D-04
     31 -0.281586D-03 -0.297898D-03  0.791373D-04 -0.226056D-03 -0.842967D-03
     32  0.188576D-01  0.537546D-03 -0.654885D-03  0.733488D-04  0.282232D-03
     33 -0.437008D-01 -0.703234D-03 -0.104791D-02 -0.452633D-03 -0.127712D-04
     34  0.983422D-01  0.152161D-02  0.527713D-03 -0.259516D-03 -0.263635D-02
     35  0.344187D-01 -0.696472D-03  0.802603D-04 -0.105560D-03  0.202011D-02
     36 -0.101280D+00  0.517746D-03 -0.811307D-03  0.918504D-03 -0.245582D-02
               26            27            28            29            30 
     26  0.102450D-01
     27  0.129634D-01  0.110621D+00
     28 -0.536142D-03  0.687263D-03  0.514422D-01
     29  0.989389D-04 -0.533035D-03 -0.783468D-02  0.903539D-01
     30  0.876494D-03  0.131000D-02 -0.112511D-01  0.103495D+00  0.294974D+00
     31 -0.939645D-03 -0.398311D-03 -0.156131D-03  0.245786D-02  0.215676D-03
     32 -0.568029D-03  0.549193D-03  0.247545D-04 -0.137520D-01  0.909701D-03
     33  0.550424D-03 -0.782864D-04  0.170490D-02 -0.303683D-01  0.293047D-02
     34 -0.350514D-03 -0.353684D-02 -0.348815D-03  0.402412D-03 -0.211747D-03
     35  0.312628D-04  0.118715D-02  0.124298D-01  0.377489D-02 -0.509438D-02
     36  0.133655D-02 -0.114273D-02  0.239553D-01  0.110344D-01 -0.112292D-01
               31            32            33            34            35 
     31  0.475596D-01
     32 -0.175489D-01  0.313874D+00
     33  0.405170D-02 -0.269865D-01  0.470217D-01
     34  0.156063D-02 -0.542851D-04 -0.331279D-03  0.257093D+00
     35 -0.276942D-01 -0.111510D-01  0.152880D-01  0.746340D-01  0.736810D-01
     36  0.256669D-02  0.497131D-03 -0.163573D-02 -0.105281D+00 -0.413791D-01
               36 
     36  0.104366D+00
 Red2BG:  D1=  9.34D-02 OD1=  5.09D-02 B2RMS=  0.00D+00 IAprox=0
 FormGI is forming the generalized inverse of G from B-inverse, IUseBI=4.
 Internal forces: 
                 1 
      1   0.354632D-03
      2  -0.406022D-04
      3  -0.244057D-03
      4  -0.913192D-03
      5  -0.528877D-04
      6  -0.348747D-04
      7  -0.385898D-04
      8  -0.762532D-04
      9   0.249169D-04
     10   0.399729D-04
     11  -0.511270D-05
     12  -0.272593D-03
     13   0.205692D-03
     14  -0.147896D-03
     15  -0.224435D-04
     16   0.972850D-04
     17  -0.257415D-03
     18  -0.186317D-03
     19  -0.141422D-04
     20   0.262705D-04
     21  -0.142368D-03
     22  -0.563173D-04
     23  -0.371594D-04
     24   0.924534D-04
     25  -0.104654D-03
     26   0.147365D-04
     27  -0.299710D-03
     28   0.339236D-04
     29   0.190251D-04
     30   0.244594D-03
     31   0.527692D-04
     32  -0.271464D-04
     33   0.189758D-04
     34   0.341582D-04
     35   0.184062D-04
     36   0.487369D-04
     37  -0.127417D-03
     38  -0.786804D-04
     39  -0.214360D-04
     40  -0.212071D-04
     41  -0.191448D-03
     42  -0.288533D-04
     43  -0.454384D-04
     44  -0.553942D-04
     45   0.275560D-04
     46  -0.122139D-03
     47  -0.595049D-04
     48  -0.137272D-03
     49  -0.618440D-05
     50  -0.478245D-05
     51   0.228819D-04
     52  -0.114390D-03
     53   0.166975D-04
     54   0.180994D-04
     55   0.131088D-03
     56   0.132490D-03
     57   0.897964D-04
     58   0.851133D-04
     59   0.672119D-04
     60   0.625288D-04
     61  -0.478275D-04
     62  -0.525105D-04
     63  -0.280887D-03
     64   0.485531D-04
     65  -0.245478D-03
 Internal force constants: 
                1             2             3             4             5 
      1  0.448301D+00
      2  0.792126D-02  0.331348D+00
      3  0.874884D-02 -0.726525D-04  0.359998D+00
      4  0.937966D-03 -0.302825D-02 -0.380138D-03  0.692562D-02
      5 -0.159982D-02 -0.808773D-02  0.446884D-03 -0.386918D-02  0.398498D-02
      6 -0.118808D-03 -0.151119D-02  0.838120D-03  0.296463D-03  0.267084D-03
      7  0.183905D-02  0.214489D-01 -0.394913D-03  0.978260D-04 -0.754562D-03
      8 -0.112318D-02 -0.771771D-02  0.631480D-04 -0.303942D-02  0.132241D-03
      9  0.739524D-04  0.501873D-02  0.364169D-03  0.129631D-01 -0.280236D-03
     10 -0.209210D-03 -0.864748D-04  0.210979D-04  0.606448D-03 -0.203317D-03
     11 -0.604036D-04  0.147742D-03  0.507096D-04 -0.475352D-04  0.128615D-03
     12  0.412306D-03  0.934300D-02 -0.104432D-03  0.173722D-01 -0.225979D-01
     13  0.236747D-03  0.367812D-05  0.416965D-05  0.770663D-04  0.240157D-03
     14 -0.654973D-03  0.646380D-02  0.543748D-05  0.434714D-02 -0.623776D-02
     15  0.160279D-01  0.877006D-02 -0.497162D-02  0.760416D-03  0.853845D-03
     16  0.100378D-01 -0.105768D-01  0.189726D-02 -0.115178D-02 -0.331120D-02
     17 -0.216089D-02  0.110672D-01 -0.832296D-03  0.896656D-03 -0.111631D-02
     18 -0.926540D-03  0.116502D-01 -0.166217D-02 -0.300136D-02  0.280095D-02
     19 -0.226596D-01  0.593734D-02  0.424914D-02  0.343814D-03  0.239071D-02
     20 -0.226210D-02  0.714555D-02 -0.199270D-02  0.905216D-03 -0.943456D-03
     21  0.529551D-01  0.280421D-02 -0.415058D-03  0.679094D-03 -0.208432D-04
     22  0.209350D-02 -0.180829D-01 -0.456777D-03 -0.110296D-02  0.565048D-03
     23  0.722965D-03  0.254799D-02 -0.171087D-03  0.205977D-02 -0.327455D-02
     24 -0.312780D-04 -0.395450D-03  0.282553D-04  0.221322D-02 -0.929873D-03
     25  0.103912D-03  0.540439D-03 -0.841412D-05 -0.867555D-03  0.678343D-03
     26 -0.652450D-04 -0.146233D-03 -0.250700D-04 -0.133162D-02  0.246325D-03
     27 -0.267750D-02 -0.896346D-02  0.483366D-03  0.658303D-02 -0.255684D-02
     28  0.148414D-02  0.517547D-03 -0.293082D-03 -0.521588D-02  0.256524D-02
     29 -0.297833D-02  0.604159D-02  0.734665D-03 -0.933334D-03  0.943987D-03
     30  0.103007D-03  0.342644D-02  0.217427D-04  0.726604D-04 -0.703759D-03
     31  0.423332D-02  0.551933D-02 -0.935367D-03 -0.385602D-02  0.114245D-02
     32  0.202961D-03 -0.638613D-02 -0.919057D-04  0.322981D-02 -0.143063D-02
     33  0.229710D-02  0.190040D-01 -0.435400D-03 -0.485168D-02  0.380011D-02
     34 -0.221251D-02 -0.542488D-02  0.430657D-03 -0.357378D-02  0.401799D-02
     35 -0.393659D-03  0.105331D-01  0.158226D-03  0.141641D-02 -0.692829D-03
     36  0.121699D-02  0.118237D-01  0.867506D-03 -0.276759D-03  0.488815D-03
     37 -0.140983D-02 -0.108808D-01 -0.362896D-02 -0.130074D-04 -0.552122D-03
     38 -0.192846D-03  0.942984D-03 -0.276145D-02 -0.289766D-03 -0.633064D-04
     39 -0.224839D-03 -0.215404D-01 -0.176975D-02  0.357165D-02  0.218860D-03
     40  0.273285D-03 -0.117518D-01  0.878061D-04  0.818792D-03  0.227982D-03
     41 -0.661415D-02 -0.279135D-02 -0.605476D-03  0.223658D-03 -0.541192D-03
     42  0.451761D-02  0.369869D-02  0.236656D-02 -0.185910D-03 -0.161508D-02
     43 -0.138058D-02 -0.617820D-02  0.160741D-02 -0.420983D-02  0.259143D-04
     44 -0.118905D-01 -0.272485D-02  0.928480D-03 -0.133909D-02  0.247546D-02
     45  0.228363D-02  0.846085D-02 -0.481867D-03 -0.873607D-03 -0.140440D-02
     46  0.102203D-01  0.902419D-02 -0.215579D-02  0.132439D-02 -0.665544D-03
     47 -0.179704D-02 -0.629830D-02  0.416510D-03  0.448882D-02 -0.303648D-02
     48  0.601699D-03  0.214997D-02 -0.160808D-03 -0.653800D-03  0.357993D-03
     49 -0.741387D-04  0.783845D-03 -0.456040D-05  0.357586D-03 -0.527893D-03
     50 -0.826375D-03 -0.289533D-02  0.177358D-03  0.290926D-03  0.344648D-04
     51  0.581251D-04 -0.221986D-04 -0.467538D-04  0.151173D-04 -0.251268D-04
     52  0.659824D-03  0.212777D-02 -0.207562D-03 -0.638683D-03  0.332866D-03
     53 -0.160136D-04  0.761647D-03 -0.513142D-04  0.372704D-03 -0.553020D-03
     54 -0.768250D-03 -0.291753D-02  0.130604D-03  0.306043D-03  0.933794D-05
     55 -0.675838D-03 -0.136613D-02  0.156248D-03  0.101139D-02 -0.885886D-03
     56 -0.142807D-02 -0.504530D-02  0.338166D-03  0.944727D-03 -0.323528D-03
     57 -0.159323D-03  0.232499D-01  0.207365D-03  0.133656D-02 -0.121803D-02
     58  0.739908D-03 -0.219794D-01 -0.217538D-03  0.153355D-02 -0.223063D-03
     59 -0.446236D-03  0.257501D-01  0.263611D-03  0.376038D-02 -0.237978D-02
     60  0.452995D-03 -0.194792D-01 -0.161293D-03  0.395737D-02 -0.138481D-02
     61 -0.273840D-02  0.288100D-01  0.802347D-03  0.182140D-02 -0.919565D-03
     62 -0.183917D-02 -0.164193D-01  0.377443D-03  0.201839D-02  0.754019D-04
     63 -0.155631D-02  0.453271D-02  0.229877D-03  0.157857D-02 -0.723823D-03
     64  0.841707D-03  0.800268D-02 -0.213868D-03 -0.342964D-02  0.108452D-02
     65 -0.138354D-02  0.459931D-02  0.249760D-03 -0.328944D-02  0.206601D-02
                6             7             8             9            10 
      6  0.550557D+00
      7 -0.347903D-03  0.486344D-02
      8 -0.187736D-03 -0.375498D-02  0.660954D-02
      9 -0.198346D-03 -0.468026D-02 -0.523203D-02  0.307041D+00
     10  0.463152D-05  0.347239D-03 -0.629907D-03  0.301194D-02  0.364414D+00
     11  0.907848D-05 -0.499797D-03  0.385388D-03  0.309522D-02  0.109200D-02
     12  0.259865D-04 -0.100160D-01  0.219800D-01 -0.180671D-02 -0.651682D-03
     13 -0.524742D-04  0.147795D-04 -0.163202D-03  0.149963D-01  0.123444D-03
     14 -0.141313D-03  0.201288D-01 -0.133745D-01  0.340254D-02  0.612172D-03
     15  0.484195D-02 -0.284994D-03 -0.928128D-03 -0.885989D-02 -0.191693D-03
     16 -0.492039D-02  0.263025D-02  0.148327D-02  0.651319D-02  0.473427D-04
     17 -0.193618D-03  0.608214D-03 -0.120381D-03  0.117051D-01  0.366021D-03
     18  0.984373D-03  0.144545D-03 -0.804731D-03 -0.984928D-02 -0.352083D-03
     19  0.297095D-03 -0.221036D-02 -0.530856D-03  0.425125D-02  0.145146D-03
     20  0.136008D-03 -0.678811D-03  0.137444D-02  0.509107D-02 -0.241393D-05
     21  0.169256D-01  0.572320D-04 -0.683787D-03 -0.345394D-03  0.311256D-05
     22  0.783143D-03 -0.780349D-03  0.181294D-02  0.137424D-02 -0.298799D-03
     23  0.983522D-04  0.135164D-02  0.131083D-02  0.886476D-03  0.760130D-05
     24 -0.429532D-04  0.975474D-03 -0.179110D-02  0.843773D-02  0.401909D-02
     25  0.219318D-04 -0.128579D-02  0.121921D-02  0.909176D-02 -0.104824D-01
     26  0.187799D-04  0.309888D-03  0.559014D-03 -0.173889D-01  0.650653D-02
     27 -0.239225D-03  0.439363D-02 -0.817734D-02 -0.517921D-02  0.181591D-02
     28  0.240586D-03 -0.174076D-03  0.313829D-02  0.159545D-01  0.159032D-03
     29 -0.455973D-03 -0.485389D-02  0.404923D-02  0.352028D-02 -0.134064D-02
     30 -0.563660D-04 -0.266881D-02  0.307319D-02 -0.744145D-02 -0.817971D-03
     31  0.517989D-03  0.696659D-03  0.230373D-02  0.182901D-02 -0.123331D-04
     32  0.342352D-04  0.265016D-02 -0.424522D-02 -0.963978D-02  0.140067D-03
     33  0.143242D-03  0.245644D-02 -0.265267D-02 -0.604722D-02 -0.436621D-03
     34 -0.218046D-03  0.841072D-03 -0.263975D-02 -0.444927D-02 -0.296484D-03
     35 -0.257444D-03 -0.162629D-02  0.420792D-03 -0.524507D-02 -0.817544D-04
     36 -0.862858D-04 -0.472898D-03  0.329024D-03  0.397296D-02 -0.547404D-05
     37 -0.681967D-03  0.338380D-03  0.120667D-03 -0.511784D-02 -0.378810D-04
     38 -0.768253D-03 -0.134518D-03  0.449690D-03 -0.114488D-02 -0.433550D-04
     39  0.144362D-02 -0.190780D-02 -0.165458D-02  0.308316D-01  0.288697D-03
     40 -0.179924D-03 -0.150633D-03 -0.107898D-02 -0.284094D-02  0.164151D-03
     41  0.103356D-03 -0.897214D-03  0.137216D-02 -0.895458D-02 -0.168890D-03
     42 -0.643295D-03  0.154022D-03  0.181928D-02 -0.317237D-02 -0.160969D-03
     43 -0.306220D-02  0.708179D-03  0.293544D-02  0.108004D-02 -0.239053D-03
     44  0.204083D-02 -0.225176D-02  0.131210D-02 -0.204972D-02 -0.849057D-04
     45  0.203487D-03 -0.302818D-02  0.559696D-02 -0.341631D-02 -0.318367D-03
     46  0.105714D-02  0.696807D-03 -0.167756D-02 -0.259797D-02 -0.850136D-04
     47 -0.157343D-03 -0.450327D-02  0.332121D-02  0.218091D-02  0.336880D-04
     48  0.916140D-04  0.336026D-03 -0.942926D-04  0.121326D-02 -0.583287D-03
     49  0.211833D-04 -0.199183D-03  0.404454D-03 -0.924669D-03 -0.284717D-03
     50 -0.808738D-04 -0.235431D-03 -0.120413D-03  0.352013D-04 -0.907191D-03
     51 -0.177121D-04  0.208144D-04 -0.661542D-04 -0.168816D-03  0.883316D-03
     52  0.739018D-04  0.356841D-03 -0.160447D-03  0.104444D-02  0.300029D-03
     53  0.347119D-05 -0.178369D-03  0.338299D-03 -0.109348D-02  0.598599D-03
     54 -0.985860D-04 -0.214617D-03 -0.186568D-03 -0.133615D-03 -0.238752D-04
     55 -0.704307D-04 -0.535210D-03  0.498746D-03 -0.213793D-02  0.298570D-03
     56 -0.172488D-03 -0.571457D-03 -0.261207D-04 -0.117806D-02 -0.323904D-03
     57 -0.652398D-04  0.385483D-02 -0.319819D-02  0.669790D-02  0.801753D-03
     58  0.365845D-03  0.990409D-03 -0.181002D-02  0.526026D-02  0.789455D-03
     59 -0.180893D-03  0.318297D-02 -0.417186D-02 -0.496422D-02  0.512516D-04
     60  0.250192D-03  0.318545D-03 -0.278369D-02 -0.640187D-02  0.389536D-04
     61 -0.437994D-03  0.111603D-02 -0.188537D-02  0.899645D-02  0.301236D-03
     62 -0.690874D-05 -0.174840D-02 -0.497202D-03  0.755880D-02  0.288938D-03
     63 -0.217001D-03  0.358575D-02 -0.462084D-02 -0.102981D-01  0.920345D-03
     64  0.253121D-04  0.759360D-03  0.142434D-02 -0.736126D-02 -0.478769D-03
     65 -0.171975D-03  0.219668D-02 -0.110997D-02  0.515038D-02  0.402310D-03
               11            12            13            14            15 
     11  0.364609D+00
     12  0.604030D-03  0.257314D+00
     13  0.123040D-03  0.371194D-02  0.317732D+00
     14 -0.483933D-03  0.152682D-01  0.352826D-02  0.286520D+00
     15 -0.194669D-03  0.283778D-02  0.142858D-03 -0.631702D-02  0.588414D-01
     16  0.166649D-05  0.116945D-03  0.199799D-03  0.272566D-02 -0.315277D-01
     17 -0.147461D-03  0.908427D-02  0.517610D-03 -0.732817D-02 -0.191840D-02
     18  0.110437D-03 -0.211645D-01 -0.561440D-03 -0.867200D-02  0.926508D-02
     19  0.182317D-03 -0.243948D-02 -0.206322D-03  0.164725D-02 -0.234062D-01
     20  0.176210D-03  0.145721D-01  0.369250D-03 -0.145184D-02  0.179676D-02
     21  0.817915D-04  0.160907D-03 -0.739812D-04 -0.355396D-03  0.118280D-01
     22  0.242983D-03  0.936468D-02  0.715883D-03  0.254632D-01  0.850260D-02
     23 -0.394252D-04  0.324343D-01  0.721019D-03  0.358919D-01  0.193547D-02
     24 -0.104825D-01  0.198716D-02  0.524628D-03 -0.197622D-02 -0.116321D-03
     25  0.396659D-02 -0.150717D-02  0.559472D-03  0.277189D-02 -0.607819D-03
     26  0.655959D-02 -0.480308D-03 -0.103957D-02 -0.793869D-03  0.714992D-03
     27 -0.142029D-02 -0.102629D-01 -0.285864D-02 -0.323016D-02 -0.657148D-02
     28  0.118366D-03  0.462061D-02  0.687351D-03 -0.191539D-02  0.536683D-02
     29  0.195992D-02 -0.634491D-03 -0.158691D-02  0.297280D-02 -0.105580D-01
     30  0.312581D-03  0.626549D-02  0.242044D-02  0.139924D-02 -0.466535D-03
     31 -0.299844D-03 -0.390556D-03 -0.906705D-03 -0.354469D-02  0.127849D-01
     32 -0.724815D-03  0.112630D-02  0.263313D-02  0.452984D-02  0.498546D-03
     33  0.288937D-04 -0.396717D-01  0.125049D-02  0.184024D-02  0.457528D-02
     34  0.610601D-04 -0.393729D-01  0.105875D-02  0.358205D-02 -0.493199D-02
     35 -0.140486D-03  0.476196D-02  0.125662D-02 -0.384666D-01 -0.239905D-02
     36  0.807875D-04  0.170978D-02  0.224104D-03 -0.475404D-02  0.255639D-02
     37 -0.233447D-04 -0.502964D-03 -0.241768D-03  0.392175D-02 -0.337357D-02
     38  0.574427D-04  0.120681D-02 -0.176643D-04 -0.832294D-03 -0.817183D-03
     39  0.419856D-03 -0.141493D-02  0.133529D-02  0.101191D-01  0.972882D-02
     40 -0.218644D-03 -0.288358D-02 -0.160056D-03  0.548687D-02  0.348650D-04
     41 -0.105731D-04  0.127250D-01 -0.282046D-03  0.500129D-02 -0.446412D-02
     42 -0.415898D-04  0.140194D-01  0.853603D-04  0.120790D-02 -0.256368D-02
     43 -0.153423D-04 -0.288213D-02  0.341694D-03 -0.845730D-03 -0.254338D-01
     44 -0.130742D-03  0.554556D-02  0.341187D-03  0.151658D-02  0.525990D-02
     45 -0.139921D-03  0.301966D-01  0.787804D-03 -0.369305D-01  0.759122D-02
     46  0.281246D-03 -0.560792D-02 -0.779925D-03 -0.312344D-02  0.179482D-01
     47  0.384060D-03  0.331182D-01 -0.748533D-03 -0.323472D-01 -0.495353D-02
     48 -0.113647D-03 -0.360375D-02 -0.212655D-02 -0.159138D-02  0.190752D-02
     49 -0.598549D-03  0.550785D-03 -0.517622D-03 -0.330308D-02  0.505315D-03
     50 -0.111897D-03  0.469325D-02  0.222426D-02  0.317472D-02 -0.237069D-02
     51  0.892149D-03 -0.406622D-04  0.299238D-03 -0.472899D-04 -0.219063D-04
     52  0.778502D-03 -0.364441D-02 -0.182731D-02 -0.163867D-02  0.188561D-02
     53  0.293600D-03  0.510123D-03 -0.218384D-03 -0.335037D-02  0.483409D-03
     54  0.780252D-03  0.465258D-02  0.252350D-02  0.312743D-02 -0.239260D-02
     55 -0.484903D-03  0.415453D-02  0.160893D-02 -0.171169D-02 -0.140220D-02
     56  0.175004D-05  0.829699D-02  0.435081D-02  0.476610D-02 -0.427821D-02
     57 -0.813437D-03  0.326474D-02  0.197341D-02  0.518283D-03  0.748173D-03
     58 -0.878040D-03  0.399037D-02  0.197826D-02 -0.898348D-03  0.391093D-02
     59 -0.310337D-03 -0.385665D-03  0.125152D-02  0.390414D-02 -0.160929D-02
     60 -0.374940D-03  0.339959D-03  0.125637D-02  0.248751D-02  0.155346D-02
     61  0.513888D-03 -0.461083D-02 -0.256135D-02 -0.342381D-03 -0.801372D-02
     62  0.449285D-03 -0.388521D-02 -0.255650D-02 -0.175901D-02 -0.485097D-02
     63 -0.956389D-03 -0.146397D-01 -0.287883D-02 -0.107800D-02 -0.259256D-02
     64 -0.249487D-03 -0.969649D-03  0.242128D-02  0.351566D-02  0.377018D-02
     65 -0.108792D-03 -0.858002D-02 -0.125133D-02  0.133110D-02 -0.199530D-02
               16            17            18            19            20 
     16  0.486971D-01
     17 -0.447918D-03  0.305430D-02
     18 -0.103584D-01 -0.107438D-02  0.551056D-02
     19 -0.168239D-01  0.215427D-02  0.116849D-02  0.368290D-01
     20 -0.409847D-02  0.132762D-02 -0.210688D-04  0.196315D-02  0.192969D-02
     21 -0.620640D-02 -0.568689D-03  0.174802D-02 -0.480380D-02  0.375918D-03
     22 -0.381051D-02 -0.193220D-02 -0.212570D-03 -0.426618D-02  0.312213D-03
     23 -0.188376D-03  0.359851D-03 -0.335739D-02 -0.168185D-02  0.164827D-02
     24  0.159646D-03  0.187007D-02 -0.136579D-02 -0.741828D-05  0.208438D-03
     25  0.124692D-03 -0.120421D-02  0.725837D-03  0.497721D-03  0.108786D-03
     26 -0.280431D-03 -0.664651D-03  0.633681D-03 -0.483970D-03 -0.318717D-03
     27  0.150741D-02  0.434116D-02 -0.342898D-02  0.420922D-02 -0.123785D-02
     28 -0.109418D-02  0.264216D-02  0.280362D-03 -0.343168D-02  0.833229D-03
     29  0.142907D-02 -0.535444D-02  0.228939D-02  0.822487D-02  0.162227D-03
     30 -0.165061D-03 -0.320950D-02  0.116097D-02  0.513919D-03  0.386845D-03
     31 -0.215339D-02  0.891926D-03  0.130329D-02 -0.928184D-02  0.499894D-03
     32  0.306628D-03  0.589857D-03 -0.153631D-02 -0.103124D-02 -0.606993D-03
     33 -0.174158D-02 -0.234803D-02  0.536692D-02 -0.230651D-02 -0.194841D-02
     34  0.529523D-03 -0.265762D-02  0.334846D-02  0.379630D-02 -0.240260D-02
     35  0.535635D-03  0.161127D-02  0.480300D-03  0.188172D-02  0.485759D-03
     36 -0.270140D-02  0.175503D-03  0.650846D-03  0.889013D-03  0.366329D-03
     37  0.480005D-02 -0.989800D-04 -0.728177D-03 -0.241697D-02  0.136033D-03
     38  0.209865D-02  0.765232D-04 -0.773309D-04 -0.152795D-02  0.502362D-03
     39 -0.959996D-02 -0.646350D-03  0.764812D-03 -0.199890D-03  0.767621D-03
     40 -0.104508D-03 -0.697680D-03 -0.603265D-03  0.797279D-04 -0.624754D-03
     41 -0.503389D-02  0.543559D-03 -0.247412D-03  0.822704D-02  0.142001D-02
     42  0.859650D-02 -0.134530D-03 -0.271438D-02 -0.515049D-02 -0.450815D-03
     43  0.256752D-01  0.429627D-03 -0.522552D-02 -0.105787D-02 -0.179058D-02
     44 -0.237142D-01  0.122506D-02  0.356452D-02  0.172836D-01  0.246296D-02
     45 -0.139947D-02  0.250382D-02 -0.539716D-03 -0.517018D-02  0.230362D-02
     46 -0.271844D-02 -0.171956D-02  0.283495D-02 -0.134997D-01 -0.610122D-03
     47  0.737263D-03  0.189113D-02 -0.279754D-02  0.386603D-02  0.188338D-02
     48 -0.248071D-03 -0.226005D-04  0.439970D-03 -0.143648D-02 -0.673953D-04
     49 -0.179625D-03  0.632739D-03 -0.217312D-03 -0.260571D-03  0.151826D-03
     50  0.435824D-03 -0.451042D-03 -0.429859D-03  0.167087D-02  0.555353D-04
     51  0.113265D-04 -0.420942D-04 -0.370193D-05  0.160231D-04 -0.379414D-04
     52 -0.236744D-03 -0.646948D-04  0.436268D-03 -0.142045D-02 -0.105337D-03
     53 -0.168298D-03  0.590645D-03 -0.221014D-03 -0.244548D-03  0.113885D-03
     54  0.447151D-03 -0.493136D-03 -0.433561D-03  0.168689D-02  0.175939D-04
     55  0.684457D-04  0.655339D-03 -0.657282D-03  0.117591D-02  0.219221D-03
     56  0.683895D-03 -0.428441D-03 -0.869829D-03  0.310735D-02  0.122931D-03
     57 -0.145946D-02  0.430509D-02 -0.994847D-03  0.104783D-02  0.682152D-03
     58 -0.615896D-03  0.274943D-02 -0.233662D-02 -0.311016D-02 -0.199784D-03
     59 -0.908297D-03  0.546551D-03 -0.412976D-04  0.240881D-02  0.144509D-03
     60 -0.647350D-04 -0.100911D-02 -0.138307D-02 -0.174918D-02 -0.737427D-03
     61 -0.159848D-03  0.103519D-02  0.539354D-03  0.774455D-02  0.416706D-03
     62  0.683713D-03 -0.520466D-03 -0.802417D-03  0.358657D-02 -0.465230D-03
     63  0.547659D-03  0.208155D-02 -0.622182D-03  0.170115D-02 -0.967668D-03
     64 -0.799090D-03 -0.483416D-03  0.128495D-02 -0.257891D-02  0.140354D-03
     65  0.259579D-03  0.250823D-02  0.889570D-04  0.173656D-02 -0.242071D-03
               21            22            23            24            25 
     21  0.176603D+00
     22  0.154765D-02  0.652637D-02
     23  0.345881D-03  0.470126D-02  0.845588D-02
     24  0.376643D-04 -0.122617D-02  0.142474D-03  0.773181D-01
     25 -0.172942D-04  0.121364D-02 -0.218182D-04 -0.420842D-01  0.772142D-01
     26 -0.290192D-04  0.709774D-05 -0.121383D-03 -0.348972D-01 -0.348019D-01
     27 -0.109475D-02 -0.608626D-02 -0.187876D-02  0.672807D-02 -0.651183D-02
     28  0.659826D-03  0.281426D-02  0.871495D-03  0.501231D-03 -0.200966D-03
     29 -0.135239D-02  0.805525D-03 -0.152098D-02 -0.675577D-02  0.750984D-02
     30  0.952743D-05  0.127424D-02  0.653316D-03 -0.281542D-02  0.240468D-02
     31  0.190009D-02  0.289512D-02  0.143698D-02  0.548840D-03 -0.921467D-03
     32  0.344427D-04 -0.143950D-02  0.677896D-03  0.175161D-02 -0.234519D-02
     33  0.949174D-03 -0.621274D-03 -0.442755D-02 -0.202687D-02  0.135331D-02
     34 -0.911357D-03 -0.906421D-03 -0.480580D-02 -0.173228D-02  0.131559D-02
     35 -0.391399D-03 -0.551116D-02 -0.461094D-02  0.648792D-03 -0.978363D-03
     36  0.111403D-02 -0.850974D-05 -0.217227D-03 -0.140594D-03  0.268702D-03
     37 -0.720418D-03  0.638973D-04  0.284279D-03 -0.730328D-04 -0.156957D-03
     38  0.393616D-03  0.553875D-04  0.670518D-04 -0.213627D-03  0.111745D-03
     39  0.228807D-02  0.347640D-02  0.103959D-02  0.385880D-03  0.159409D-02
     40  0.582120D-03  0.870445D-03  0.255762D-03  0.341671D-03 -0.499494D-03
     41 -0.111074D-02  0.206873D-03  0.181870D-02 -0.315343D-03 -0.877581D-04
     42 -0.618787D-03  0.388100D-03  0.198594D-02 -0.193655D-03 -0.430939D-04
     43 -0.558668D-02 -0.254346D-02 -0.615754D-03 -0.582169D-03  0.317761D-03
     44  0.494424D-03  0.192957D-02  0.114270D-02 -0.156703D-04 -0.286885D-03
     45  0.963273D-03 -0.971846D-03  0.137076D-03  0.552018D-03 -0.112707D-02
     46  0.405508D-02  0.142115D-02 -0.921796D-03 -0.774945D-03  0.820293D-03
     47 -0.761385D-03 -0.325231D-02 -0.819210D-03  0.641706D-03 -0.131685D-03
     48  0.333396D-03  0.135837D-03 -0.243039D-03  0.255397D-03 -0.213499D-03
     49  0.516216D-04 -0.456993D-03 -0.933169D-04  0.157569D-02 -0.170578D-02
     50 -0.372964D-03  0.169405D-03  0.330403D-03 -0.434296D-03  0.264060D-03
     51 -0.763527D-04 -0.459015D-04 -0.158084D-04  0.129075D-03  0.626750D-04
     52  0.257043D-03  0.899358D-04 -0.258847D-03  0.384472D-03 -0.150824D-03
     53 -0.247311D-04 -0.502895D-03 -0.109125D-03  0.170477D-02 -0.164311D-02
     54 -0.449317D-03  0.123503D-03  0.314595D-03 -0.305221D-03  0.326735D-03
     55 -0.281774D-03 -0.592831D-03  0.149722D-03  0.132030D-02 -0.149228D-02
     56 -0.706360D-03  0.335673D-04  0.573442D-03 -0.689693D-03  0.477559D-03
     57  0.417577D-04 -0.276536D-02  0.709478D-03  0.365807D-02 -0.348821D-02
     58  0.470376D-03  0.547427D-03  0.843394D-03  0.376265D-02 -0.371641D-02
     59 -0.119474D-03 -0.341280D-02  0.334901D-03  0.844160D-03 -0.904281D-03
     60  0.309144D-03 -0.100012D-03  0.468817D-03  0.948732D-03 -0.113248D-02
     61 -0.106464D-02 -0.375471D-02 -0.145347D-02 -0.420594D-04  0.104803D-02
     62 -0.636017D-03 -0.441923D-03 -0.131956D-02  0.625125D-04  0.819833D-03
     63 -0.606031D-03 -0.361725D-02 -0.146645D-02  0.342850D-02 -0.382966D-02
     64  0.345307D-03  0.151961D-02  0.911815D-03 -0.986009D-03  0.724093D-04
     65 -0.582966D-03 -0.609382D-03 -0.859911D-03  0.113655D-02 -0.110467D-02
               26            27            28            29            30 
     26  0.690637D-01
     27 -0.215893D-03  0.274444D-01
     28 -0.331641D-03 -0.119491D-02  0.203070D-01
     29 -0.741055D-03 -0.200521D-01 -0.601041D-02  0.332781D-01
     30  0.429018D-03 -0.121309D-01 -0.116191D-01  0.120912D-01  0.178491D-01
     31  0.364634D-03 -0.240452D-02  0.368219D-02 -0.992659D-02 -0.130900D-02
     32  0.602305D-03  0.775317D-02 -0.592290D-02 -0.100618D-01 -0.406466D-02
     33  0.667477D-03 -0.529496D-02 -0.389495D-03  0.354473D-02  0.250228D-02
     34  0.414570D-03 -0.232883D-02 -0.186377D-02  0.536492D-02  0.210650D-02
     35  0.333409D-03  0.237393D-02 -0.196491D-02 -0.141763D-03  0.334414D-03
     36 -0.126100D-03 -0.173931D-02  0.101472D-02  0.668876D-03  0.310491D-03
     37  0.226060D-03  0.835947D-03 -0.994929D-03 -0.905433D-04  0.122492D-03
     38  0.999595D-04 -0.903365D-03  0.197930D-04  0.578332D-03  0.432983D-03
     39 -0.195879D-02 -0.146396D-02 -0.220009D-03  0.241722D-02  0.403775D-03
     40  0.160459D-03  0.225781D-02 -0.832200D-03 -0.142242D-02 -0.694595D-03
     41  0.401390D-03 -0.132461D-04 -0.144235D-02  0.168529D-02  0.114426D-02
     42  0.238241D-03 -0.174145D-02  0.327065D-03 -0.332649D-03  0.815733D-03
     43  0.259368D-03 -0.118014D-02  0.632885D-04  0.120566D-02  0.496883D-03
     44  0.297093D-03 -0.564842D-03  0.942745D-03 -0.185692D-02 -0.104298D-03
     45  0.570043D-03 -0.309285D-02  0.197492D-02 -0.587745D-02  0.999277D-03
     46 -0.487626D-04 -0.280728D-02  0.210172D-02  0.232643D-02 -0.419608D-03
     47 -0.505080D-03  0.177687D-02 -0.326030D-03  0.436408D-02 -0.477181D-05
     48 -0.147666D-03  0.153986D-04  0.679172D-03 -0.493624D-03 -0.315610D-02
     49  0.264838D-04  0.237630D-02 -0.111487D-02 -0.278964D-02  0.343488D-02
     50  0.652433D-04 -0.216228D-02  0.107146D-02  0.288107D-02 -0.143555D-02
     51  0.108299D-04 -0.140618D-04 -0.294853D-03  0.529619D-04  0.190332D-03
     52 -0.136836D-03  0.133688D-05  0.384319D-03 -0.440662D-03 -0.296576D-02
     53  0.373137D-04  0.236224D-02 -0.140972D-02 -0.273667D-02  0.362521D-02
     54  0.760732D-04 -0.217634D-02  0.776611D-03  0.293403D-02 -0.124521D-02
     55  0.174150D-03  0.236091D-02 -0.179404D-02 -0.229601D-02  0.659098D-02
     56  0.212910D-03 -0.217768D-02  0.392292D-03  0.337469D-02  0.172055D-02
     57 -0.175854D-03  0.108001D-01  0.543533D-02 -0.140532D-01 -0.725561D-02
     58 -0.537062D-04  0.113584D-01  0.617886D-02 -0.165442D-01 -0.795778D-02
     59  0.805897D-04  0.374473D-02 -0.112428D-01 -0.253258D-02  0.262138D-02
     60  0.202737D-03  0.430297D-02 -0.104992D-01 -0.502358D-02  0.191921D-02
     61 -0.100086D-02  0.194904D-02 -0.380617D-03  0.779443D-02 -0.920949D-03
     62 -0.878716D-03  0.250728D-02  0.362908D-03  0.530342D-02 -0.162312D-02
     63  0.398168D-03  0.144905D-01 -0.284432D-02 -0.126383D-01 -0.539230D-02
     64  0.907134D-03 -0.524203D-02  0.736340D-04 -0.239147D-02  0.284998D-02
     65 -0.599949D-04  0.606078D-02  0.146880D-01 -0.666090D-02 -0.151282D-01
               31            32            33            34            35 
     31  0.112347D-01
     32 -0.538125D-03  0.134634D-01
     33  0.740790D-03 -0.922022D-03  0.983713D-02
     34 -0.300357D-02 -0.387701D-03  0.721526D-02  0.826502D-02
     35 -0.306928D-02  0.243831D-02 -0.447679D-03 -0.568538D-03  0.800052D-02
     36  0.833347D-03 -0.106880D-02  0.675232D-03 -0.475424D-03  0.586430D-03
     37 -0.636113D-03  0.770258D-03 -0.610506D-03  0.370374D-03 -0.510675D-03
     38  0.197234D-03 -0.298539D-03  0.647267D-04 -0.105049D-03  0.757543D-04
     39 -0.802196D-03 -0.397048D-03 -0.902643D-03  0.384380D-04 -0.265932D-02
     40 -0.602969D-03  0.128113D-02 -0.481192D-03  0.505244D-03 -0.940549D-03
     41 -0.168913D-02  0.281853D-03 -0.251482D-02 -0.926412D-03 -0.533910D-04
     42  0.120016D-02 -0.113580D-03 -0.166358D-02 -0.231883D-02  0.478936D-04
     43 -0.116979D-03 -0.473375D-03 -0.706966D-03  0.165291D-02 -0.486699D-04
     44  0.147947D-02  0.245493D-03 -0.132908D-02 -0.291400D-03 -0.108865D-02
     45  0.600990D-02  0.605850D-03 -0.382604D-02 -0.639075D-02  0.483286D-02
     46  0.507361D-03 -0.181363D-02  0.326384D-02 -0.273008D-03  0.265492D-03
     47 -0.509300D-02 -0.119571D-02 -0.703598D-02 -0.497014D-02  0.633608D-02
     48  0.218162D-02  0.738273D-03  0.135529D-04 -0.631291D-03 -0.926530D-03
     49  0.138799D-02 -0.320259D-02 -0.657456D-03 -0.796609D-03 -0.226663D-03
     50 -0.352371D-02  0.308458D-02  0.307472D-03  0.108038D-02  0.144489D-02
     51 -0.396553D-04  0.122288D-03  0.000000D+00  0.145289D-04  0.591810D-04
     52  0.214196D-02  0.860561D-03  0.140896D-04 -0.616762D-03 -0.867349D-03
     53  0.134834D-02 -0.308030D-02 -0.656920D-03 -0.782080D-03 -0.167482D-03
     54 -0.356337D-02  0.320687D-02  0.308009D-03  0.109491D-02  0.150407D-02
     55 -0.793628D-03 -0.394086D-02 -0.671009D-03 -0.165318D-03  0.699867D-03
     56 -0.570533D-02  0.234631D-02  0.293919D-03  0.171167D-02  0.237142D-02
     57  0.134263D-02  0.364539D-02 -0.935242D-03 -0.240368D-02  0.195712D-02
     58  0.235623D-02  0.463935D-02 -0.348154D-02 -0.251761D-02  0.153673D-03
     59 -0.890041D-03  0.896331D-02  0.108433D-02 -0.902204D-04  0.273171D-02
     60  0.123551D-03  0.995727D-02 -0.146197D-02 -0.204155D-03  0.928262D-03
     61 -0.494413D-02 -0.431585D-02  0.556416D-03  0.735930D-03  0.120416D-02
     62 -0.393054D-02 -0.332189D-02 -0.198988D-02  0.621996D-03 -0.599294D-03
     63  0.202996D-02  0.433802D-02 -0.105052D-02 -0.669665D-03  0.212321D-03
     64  0.378987D-02  0.157816D-02  0.277759D-02  0.820874D-03 -0.548654D-03
     65  0.246272D-03 -0.153114D-03 -0.592541D-05  0.325059D-05 -0.690742D-03
               36            37            38            39            40 
     36  0.311735D-02
     37 -0.193362D-02  0.292194D-02
     38  0.118374D-02  0.988320D-03  0.217206D-02
     39 -0.621188D-03 -0.354200D-04 -0.656608D-03  0.923047D-02
     40  0.109530D-02 -0.453360D-04  0.104996D-02  0.614977D-03  0.218694D-02
     41 -0.584724D-03  0.552280D-03 -0.324436D-04 -0.222589D-03 -0.161897D-03
     42  0.392182D-03 -0.398484D-03 -0.630209D-05 -0.277750D-02 -0.168309D-03
     43 -0.153993D-02  0.271815D-02  0.117822D-02 -0.746017D-02 -0.564945D-03
     44  0.111682D-02 -0.247082D-02 -0.135400D-02  0.304379D-02  0.842959D-04
     45  0.136118D-02 -0.952784D-03  0.408400D-03 -0.280484D-02 -0.158238D-02
     46  0.486787D-03 -0.402319D-03  0.844682D-04  0.293458D-02 -0.200968D-03
     47  0.311284D-03 -0.205266D-03  0.106018D-03 -0.221998D-03 -0.583414D-03
     48  0.160501D-03 -0.127281D-03  0.332197D-04  0.533008D-04 -0.911317D-04
     49  0.658595D-04 -0.807704D-04 -0.149108D-04 -0.575154D-03 -0.963005D-05
     50 -0.151317D-03  0.161997D-03  0.106797D-04  0.408652D-03  0.909498D-04
     51  0.723988D-05 -0.158079D-04 -0.856802D-05  0.267314D-04  0.352404D-04
     52  0.167741D-03 -0.143089D-03  0.246517D-04  0.800321D-04 -0.558914D-04
     53  0.730994D-04 -0.965783D-04 -0.234789D-04 -0.548422D-03  0.256103D-04
     54 -0.144077D-03  0.146189D-03  0.211169D-05  0.435383D-03  0.126190D-03
     55 -0.946415D-04  0.465110D-04 -0.481305D-04 -0.628455D-03  0.815017D-04
     56 -0.311818D-03  0.289278D-03 -0.225400D-04  0.355351D-03  0.182082D-03
     57  0.689922D-03 -0.104674D-02 -0.356814D-03 -0.236828D-02 -0.141730D-03
     58 -0.819362D-03  0.377674D-03 -0.441688D-03  0.864751D-03  0.140818D-02
     59  0.280585D-03 -0.403249D-03 -0.122664D-03 -0.148151D-02 -0.166450D-04
     60 -0.122870D-02  0.102116D-02 -0.207538D-03  0.175152D-02  0.153327D-02
     61  0.966038D-03 -0.105223D-02 -0.861896D-04 -0.843024D-03 -0.865941D-03
     62 -0.543246D-03  0.372183D-03 -0.171063D-03  0.239001D-02  0.683971D-03
     63 -0.736918D-03  0.332476D-03 -0.404442D-03 -0.258207D-02  0.967847D-03
     64  0.436222D-03 -0.219597D-03  0.216625D-03 -0.177162D-02 -0.522720D-03
     65  0.213165D-03 -0.441927D-03 -0.228762D-03 -0.166090D-02 -0.705369D-04
               41            42            43            44            45 
     41  0.345626D-02
     42 -0.101093D-02  0.334451D-02
     43 -0.493301D-03  0.411951D-02  0.180297D-01
     44  0.512131D-02 -0.414883D-02 -0.825113D-02  0.165493D-01
     45  0.192456D-03  0.236379D-02  0.355216D-04  0.135495D-02  0.121765D-01
     46 -0.373588D-02  0.413599D-04 -0.725892D-02 -0.560987D-02 -0.343663D-03
     47  0.176858D-02  0.100598D-02 -0.702716D-03 -0.416655D-03  0.522409D-02
     48 -0.501147D-03  0.000000D+00  0.238629D-05  0.486921D-04  0.426668D-03
     49 -0.343094D-04  0.787585D-04 -0.122550D-03  0.173712D-03  0.943356D-03
     50  0.486740D-03 -0.690369D-04  0.135356D-03 -0.132093D-03 -0.927940D-03
     51  0.170318D-04  0.315817D-04 -0.226874D-04 -0.233245D-04  0.214442D-05
     52 -0.484115D-03  0.308620D-04 -0.203011D-04  0.253677D-04  0.428812D-03
     53 -0.172777D-04  0.110340D-03 -0.145237D-03  0.150388D-03  0.945500D-03
     54  0.503772D-03 -0.374552D-04  0.112669D-03 -0.155417D-03 -0.925796D-03
     55  0.466838D-03  0.794782D-04 -0.124936D-03  0.125020D-03  0.516688D-03
     56  0.987887D-03 -0.683172D-04  0.132970D-03 -0.180785D-03 -0.135461D-02
     57 -0.462585D-03 -0.105584D-03 -0.105571D-02  0.104518D-02  0.160227D-02
     58 -0.665140D-03 -0.277125D-03 -0.115128D-02  0.100367D-02  0.166002D-02
     59  0.570887D-03  0.183773D-05 -0.750691D-03  0.290866D-03  0.369318D-03
     60  0.368331D-03 -0.169704D-03 -0.846263D-03  0.249352D-03  0.427077D-03
     61  0.478125D-03 -0.840664D-03 -0.395040D-03 -0.642211D-03 -0.367510D-02
     62  0.275570D-03 -0.101220D-02 -0.490612D-03 -0.683725D-03 -0.361735D-02
     63 -0.187328D-03 -0.897247D-03  0.411846D-03  0.407212D-03 -0.106429D-02
     64 -0.105844D-03  0.685655D-03  0.118696D-02  0.131703D-02  0.253728D-02
     65 -0.767063D-03 -0.768720D-03  0.903391D-03  0.614766D-03 -0.176472D-02
               46            47            48            49            50 
     46  0.108053D-01
     47 -0.212502D-03  0.116545D-01
     48  0.439993D-03 -0.912096D-03  0.265783D-02
     49 -0.569166D-03  0.651809D-04 -0.886572D-03  0.433837D-02
     50  0.127992D-03  0.128037D-02  0.179698D-03 -0.238523D-02  0.422069D-02
     51 -0.330887D-04  0.245096D-05 -0.917355D-03 -0.885085D-03 -0.893909D-03
     52  0.406904D-03 -0.909645D-03  0.174048D-02 -0.177166D-02 -0.714212D-03
     53 -0.602254D-03  0.676318D-04 -0.180393D-02  0.345328D-02 -0.327914D-02
     54  0.949035D-04  0.128282D-02 -0.737657D-03 -0.327032D-02  0.332679D-02
     55 -0.100916D-02  0.977277D-03 -0.354440D-02  0.522494D-02 -0.256493D-02
     56 -0.312001D-03  0.219247D-02 -0.247813D-02 -0.149866D-02  0.404100D-02
     57 -0.106349D-02 -0.520598D-03 -0.694595D-03  0.109022D-02 -0.104182D-03
     58 -0.987689D-03 -0.184705D-03 -0.708480D-03  0.106669D-02 -0.462944D-04
     59 -0.168983D-02 -0.118500D-02  0.537924D-03 -0.122843D-02  0.821687D-03
     60 -0.161403D-02 -0.849111D-03  0.524038D-03 -0.125196D-02  0.879574D-03
     61  0.372800D-03  0.261260D-02  0.217313D-03  0.108308D-03 -0.358594D-03
     62  0.448604D-03  0.294849D-02  0.203428D-03  0.847753D-04 -0.300706D-03
     63 -0.255195D-02 -0.214008D-02  0.968089D-03  0.199898D-02 -0.298043D-02
     64 -0.898763D-03 -0.371626D-02 -0.250165D-03 -0.128004D-03  0.309117D-03
     65  0.245467D-03 -0.704576D-03  0.199516D-02 -0.316361D-02  0.210590D-02
               51            52            53            54            55 
     51  0.173555D-02
     52  0.818199D-03  0.255868D-02
     53  0.850469D-03 -0.953458D-03  0.430375D-02
     54  0.841644D-03  0.103987D-03 -0.242867D-02  0.416843D-02
     55  0.322698D-04 -0.351213D-02  0.525721D-02 -0.253266D-02  0.876934D-02
     56  0.234456D-04 -0.245469D-02 -0.147521D-02  0.406444D-02  0.979474D-03
     57 -0.651850D-04 -0.759780D-03  0.102503D-02 -0.169367D-03  0.178481D-02
     58 -0.681972D-04 -0.776677D-03  0.998490D-03 -0.114492D-03  0.177517D-02
     59  0.181638D-03  0.719561D-03 -0.104679D-02  0.100332D-02 -0.176635D-02
     60  0.178626D-03  0.702664D-03 -0.107334D-02  0.105820D-02 -0.177600D-02
     61 -0.352724D-04  0.182041D-03  0.730352D-04 -0.393866D-03 -0.109006D-03
     62 -0.382847D-04  0.165143D-03  0.464906D-04 -0.338991D-03 -0.118653D-03
     63  0.581151D-05  0.973901D-03  0.200479D-02 -0.297461D-02  0.103089D-02
     64  0.162343D-04 -0.233931D-03 -0.111770D-03  0.325351D-03  0.122161D-03
     65 -0.245490D-03  0.174967D-02 -0.340910D-02  0.186041D-02 -0.515877D-02
               56            57            58            59            60 
     56  0.651913D-02
     57  0.590413D-03  0.102982D-01
     58  0.662185D-03  0.726601D-02  0.108848D-01
     59  0.283763D-03  0.187103D-02 -0.195189D-02  0.117599D-01
     60  0.355536D-03 -0.116116D-02  0.166692D-02  0.793701D-02  0.107651D-01
     61 -0.575907D-03  0.624578D-03 -0.447843D-02  0.527577D-03 -0.457543D-02
     62 -0.504134D-03 -0.240761D-02 -0.859620D-03 -0.329534D-02 -0.174735D-02
     63 -0.394851D-02  0.559541D-02  0.483226D-02  0.393366D-02  0.317051D-02
     64  0.559282D-03  0.312197D-03 -0.215179D-03  0.149940D-02  0.972021D-03
     65  0.110737D-03  0.624729D-02  0.555748D-02 -0.555433D-02 -0.624414D-02
               61            62            63            64            65 
     61  0.831330D-02
     62  0.321028D-02  0.475828D-02
     63  0.636683D-03 -0.126465D-03  0.100204D-01
     64 -0.353425D-02 -0.406163D-02 -0.134714D-02  0.421478D-02
     65  0.201334D-02  0.132353D-02  0.176655D-02 -0.165547D-02  0.157766D-01
 Force constants in internal coordinates: 
                1             2             3             4             5 
      1  0.448301D+00
      2  0.792126D-02  0.331348D+00
      3  0.874884D-02 -0.726525D-04  0.359998D+00
      4  0.937966D-03 -0.302825D-02 -0.380138D-03  0.692562D-02
      5 -0.159982D-02 -0.808773D-02  0.446884D-03 -0.386918D-02  0.398498D-02
      6 -0.118808D-03 -0.151119D-02  0.838120D-03  0.296463D-03  0.267084D-03
      7  0.183905D-02  0.214489D-01 -0.394913D-03  0.978260D-04 -0.754562D-03
      8 -0.112318D-02 -0.771771D-02  0.631480D-04 -0.303942D-02  0.132241D-03
      9  0.739524D-04  0.501873D-02  0.364169D-03  0.129631D-01 -0.280236D-03
     10 -0.209210D-03 -0.864748D-04  0.210979D-04  0.606448D-03 -0.203317D-03
     11 -0.604036D-04  0.147742D-03  0.507096D-04 -0.475352D-04  0.128615D-03
     12  0.412306D-03  0.934300D-02 -0.104432D-03  0.173722D-01 -0.225979D-01
     13  0.236747D-03  0.367812D-05  0.416965D-05  0.770663D-04  0.240157D-03
     14 -0.654973D-03  0.646380D-02  0.543748D-05  0.434714D-02 -0.623776D-02
     15  0.160279D-01  0.877006D-02 -0.497162D-02  0.760416D-03  0.853845D-03
     16  0.100378D-01 -0.105768D-01  0.189726D-02 -0.115178D-02 -0.331120D-02
     17 -0.216089D-02  0.110672D-01 -0.832296D-03  0.896656D-03 -0.111631D-02
     18 -0.926540D-03  0.116502D-01 -0.166217D-02 -0.300136D-02  0.280095D-02
     19 -0.226596D-01  0.593734D-02  0.424914D-02  0.343814D-03  0.239071D-02
     20 -0.226210D-02  0.714555D-02 -0.199270D-02  0.905216D-03 -0.943456D-03
     21  0.529551D-01  0.280421D-02 -0.415058D-03  0.679094D-03 -0.208432D-04
     22  0.209350D-02 -0.180829D-01 -0.456777D-03 -0.110296D-02  0.565048D-03
     23  0.722965D-03  0.254799D-02 -0.171087D-03  0.205977D-02 -0.327455D-02
     24 -0.312780D-04 -0.395450D-03  0.282553D-04  0.221322D-02 -0.929873D-03
     25  0.103912D-03  0.540439D-03 -0.841412D-05 -0.867555D-03  0.678343D-03
     26 -0.652450D-04 -0.146233D-03 -0.250700D-04 -0.133162D-02  0.246325D-03
     27 -0.267750D-02 -0.896346D-02  0.483366D-03  0.658303D-02 -0.255684D-02
     28  0.148414D-02  0.517547D-03 -0.293082D-03 -0.521588D-02  0.256524D-02
     29 -0.297833D-02  0.604159D-02  0.734665D-03 -0.933334D-03  0.943987D-03
     30  0.103007D-03  0.342644D-02  0.217427D-04  0.726604D-04 -0.703759D-03
     31  0.423332D-02  0.551933D-02 -0.935367D-03 -0.385602D-02  0.114245D-02
     32  0.202961D-03 -0.638613D-02 -0.919057D-04  0.322981D-02 -0.143063D-02
     33  0.229710D-02  0.190040D-01 -0.435400D-03 -0.485168D-02  0.380011D-02
     34 -0.221251D-02 -0.542488D-02  0.430657D-03 -0.357378D-02  0.401799D-02
     35 -0.393659D-03  0.105331D-01  0.158226D-03  0.141641D-02 -0.692829D-03
     36  0.121699D-02  0.118237D-01  0.867506D-03 -0.276759D-03  0.488815D-03
     37 -0.140983D-02 -0.108808D-01 -0.362896D-02 -0.130074D-04 -0.552122D-03
     38 -0.192846D-03  0.942984D-03 -0.276145D-02 -0.289766D-03 -0.633064D-04
     39 -0.224839D-03 -0.215404D-01 -0.176975D-02  0.357165D-02  0.218860D-03
     40  0.273285D-03 -0.117518D-01  0.878061D-04  0.818792D-03  0.227982D-03
     41 -0.661415D-02 -0.279135D-02 -0.605476D-03  0.223658D-03 -0.541192D-03
     42  0.451761D-02  0.369869D-02  0.236656D-02 -0.185910D-03 -0.161508D-02
     43 -0.138058D-02 -0.617820D-02  0.160741D-02 -0.420983D-02  0.259143D-04
     44 -0.118905D-01 -0.272485D-02  0.928480D-03 -0.133909D-02  0.247546D-02
     45  0.228363D-02  0.846085D-02 -0.481867D-03 -0.873607D-03 -0.140440D-02
     46  0.102203D-01  0.902419D-02 -0.215579D-02  0.132439D-02 -0.665544D-03
     47 -0.179704D-02 -0.629830D-02  0.416510D-03  0.448882D-02 -0.303648D-02
     48  0.601699D-03  0.214997D-02 -0.160808D-03 -0.653800D-03  0.357993D-03
     49 -0.741387D-04  0.783845D-03 -0.456040D-05  0.357586D-03 -0.527893D-03
     50 -0.826375D-03 -0.289533D-02  0.177358D-03  0.290926D-03  0.344648D-04
     51  0.581251D-04 -0.221986D-04 -0.467538D-04  0.151173D-04 -0.251268D-04
     52  0.659824D-03  0.212777D-02 -0.207562D-03 -0.638683D-03  0.332866D-03
     53 -0.160136D-04  0.761647D-03 -0.513142D-04  0.372704D-03 -0.553020D-03
     54 -0.768250D-03 -0.291753D-02  0.130604D-03  0.306043D-03  0.933794D-05
     55 -0.675838D-03 -0.136613D-02  0.156248D-03  0.101139D-02 -0.885886D-03
     56 -0.142807D-02 -0.504530D-02  0.338166D-03  0.944727D-03 -0.323528D-03
     57 -0.159323D-03  0.232499D-01  0.207365D-03  0.133656D-02 -0.121803D-02
     58  0.739908D-03 -0.219794D-01 -0.217538D-03  0.153355D-02 -0.223063D-03
     59 -0.446236D-03  0.257501D-01  0.263611D-03  0.376038D-02 -0.237978D-02
     60  0.452995D-03 -0.194792D-01 -0.161293D-03  0.395737D-02 -0.138481D-02
     61 -0.273840D-02  0.288100D-01  0.802347D-03  0.182140D-02 -0.919565D-03
     62 -0.183917D-02 -0.164193D-01  0.377443D-03  0.201839D-02  0.754019D-04
     63 -0.155631D-02  0.453271D-02  0.229877D-03  0.157857D-02 -0.723823D-03
     64  0.841707D-03  0.800268D-02 -0.213868D-03 -0.342964D-02  0.108452D-02
     65 -0.138354D-02  0.459931D-02  0.249760D-03 -0.328944D-02  0.206601D-02
                6             7             8             9            10 
      6  0.550557D+00
      7 -0.347903D-03  0.486344D-02
      8 -0.187736D-03 -0.375498D-02  0.660954D-02
      9 -0.198346D-03 -0.468026D-02 -0.523203D-02  0.307041D+00
     10  0.463152D-05  0.347239D-03 -0.629907D-03  0.301194D-02  0.364414D+00
     11  0.907848D-05 -0.499797D-03  0.385388D-03  0.309522D-02  0.109200D-02
     12  0.259865D-04 -0.100160D-01  0.219800D-01 -0.180671D-02 -0.651682D-03
     13 -0.524742D-04  0.147795D-04 -0.163202D-03  0.149963D-01  0.123444D-03
     14 -0.141313D-03  0.201288D-01 -0.133745D-01  0.340254D-02  0.612172D-03
     15  0.484195D-02 -0.284994D-03 -0.928128D-03 -0.885989D-02 -0.191693D-03
     16 -0.492039D-02  0.263025D-02  0.148327D-02  0.651319D-02  0.473427D-04
     17 -0.193618D-03  0.608214D-03 -0.120381D-03  0.117051D-01  0.366021D-03
     18  0.984373D-03  0.144545D-03 -0.804731D-03 -0.984928D-02 -0.352083D-03
     19  0.297095D-03 -0.221036D-02 -0.530856D-03  0.425125D-02  0.145146D-03
     20  0.136008D-03 -0.678811D-03  0.137444D-02  0.509107D-02 -0.241393D-05
     21  0.169256D-01  0.572320D-04 -0.683787D-03 -0.345394D-03  0.311256D-05
     22  0.783143D-03 -0.780349D-03  0.181294D-02  0.137424D-02 -0.298799D-03
     23  0.983522D-04  0.135164D-02  0.131083D-02  0.886476D-03  0.760130D-05
     24 -0.429532D-04  0.975474D-03 -0.179110D-02  0.843773D-02  0.401909D-02
     25  0.219318D-04 -0.128579D-02  0.121921D-02  0.909176D-02 -0.104824D-01
     26  0.187799D-04  0.309888D-03  0.559014D-03 -0.173889D-01  0.650653D-02
     27 -0.239225D-03  0.439363D-02 -0.817734D-02 -0.517921D-02  0.181591D-02
     28  0.240586D-03 -0.174076D-03  0.313829D-02  0.159545D-01  0.159032D-03
     29 -0.455973D-03 -0.485389D-02  0.404923D-02  0.352028D-02 -0.134064D-02
     30 -0.563660D-04 -0.266881D-02  0.307319D-02 -0.744145D-02 -0.817971D-03
     31  0.517989D-03  0.696659D-03  0.230373D-02  0.182901D-02 -0.123331D-04
     32  0.342352D-04  0.265016D-02 -0.424522D-02 -0.963978D-02  0.140067D-03
     33  0.143242D-03  0.245644D-02 -0.265267D-02 -0.604722D-02 -0.436621D-03
     34 -0.218046D-03  0.841072D-03 -0.263975D-02 -0.444927D-02 -0.296484D-03
     35 -0.257444D-03 -0.162629D-02  0.420792D-03 -0.524507D-02 -0.817544D-04
     36 -0.862858D-04 -0.472898D-03  0.329024D-03  0.397296D-02 -0.547404D-05
     37 -0.681967D-03  0.338380D-03  0.120667D-03 -0.511784D-02 -0.378810D-04
     38 -0.768253D-03 -0.134518D-03  0.449690D-03 -0.114488D-02 -0.433550D-04
     39  0.144362D-02 -0.190780D-02 -0.165458D-02  0.308316D-01  0.288697D-03
     40 -0.179924D-03 -0.150633D-03 -0.107898D-02 -0.284094D-02  0.164151D-03
     41  0.103356D-03 -0.897214D-03  0.137216D-02 -0.895458D-02 -0.168890D-03
     42 -0.643295D-03  0.154022D-03  0.181928D-02 -0.317237D-02 -0.160969D-03
     43 -0.306220D-02  0.708179D-03  0.293544D-02  0.108004D-02 -0.239053D-03
     44  0.204083D-02 -0.225176D-02  0.131210D-02 -0.204972D-02 -0.849057D-04
     45  0.203487D-03 -0.302818D-02  0.559696D-02 -0.341631D-02 -0.318367D-03
     46  0.105714D-02  0.696807D-03 -0.167756D-02 -0.259797D-02 -0.850136D-04
     47 -0.157343D-03 -0.450327D-02  0.332121D-02  0.218091D-02  0.336880D-04
     48  0.916140D-04  0.336026D-03 -0.942926D-04  0.121326D-02 -0.583287D-03
     49  0.211833D-04 -0.199183D-03  0.404454D-03 -0.924669D-03 -0.284717D-03
     50 -0.808738D-04 -0.235431D-03 -0.120413D-03  0.352013D-04 -0.907191D-03
     51 -0.177121D-04  0.208144D-04 -0.661542D-04 -0.168816D-03  0.883316D-03
     52  0.739018D-04  0.356841D-03 -0.160447D-03  0.104444D-02  0.300029D-03
     53  0.347119D-05 -0.178369D-03  0.338299D-03 -0.109348D-02  0.598599D-03
     54 -0.985860D-04 -0.214617D-03 -0.186568D-03 -0.133615D-03 -0.238752D-04
     55 -0.704307D-04 -0.535210D-03  0.498746D-03 -0.213793D-02  0.298570D-03
     56 -0.172488D-03 -0.571457D-03 -0.261207D-04 -0.117806D-02 -0.323904D-03
     57 -0.652398D-04  0.385483D-02 -0.319819D-02  0.669790D-02  0.801753D-03
     58  0.365845D-03  0.990409D-03 -0.181002D-02  0.526026D-02  0.789455D-03
     59 -0.180893D-03  0.318297D-02 -0.417186D-02 -0.496422D-02  0.512516D-04
     60  0.250192D-03  0.318545D-03 -0.278369D-02 -0.640187D-02  0.389536D-04
     61 -0.437994D-03  0.111603D-02 -0.188537D-02  0.899645D-02  0.301236D-03
     62 -0.690874D-05 -0.174840D-02 -0.497202D-03  0.755880D-02  0.288938D-03
     63 -0.217001D-03  0.358575D-02 -0.462084D-02 -0.102981D-01  0.920345D-03
     64  0.253121D-04  0.759360D-03  0.142434D-02 -0.736126D-02 -0.478769D-03
     65 -0.171975D-03  0.219668D-02 -0.110997D-02  0.515038D-02  0.402310D-03
               11            12            13            14            15 
     11  0.364609D+00
     12  0.604030D-03  0.257314D+00
     13  0.123040D-03  0.371194D-02  0.317732D+00
     14 -0.483933D-03  0.152682D-01  0.352826D-02  0.286520D+00
     15 -0.194669D-03  0.283778D-02  0.142858D-03 -0.631702D-02  0.588414D-01
     16  0.166649D-05  0.116945D-03  0.199799D-03  0.272566D-02 -0.315277D-01
     17 -0.147461D-03  0.908427D-02  0.517610D-03 -0.732817D-02 -0.191840D-02
     18  0.110437D-03 -0.211645D-01 -0.561440D-03 -0.867200D-02  0.926508D-02
     19  0.182317D-03 -0.243948D-02 -0.206322D-03  0.164725D-02 -0.234062D-01
     20  0.176210D-03  0.145721D-01  0.369250D-03 -0.145184D-02  0.179676D-02
     21  0.817915D-04  0.160907D-03 -0.739812D-04 -0.355396D-03  0.118280D-01
     22  0.242983D-03  0.936468D-02  0.715883D-03  0.254632D-01  0.850260D-02
     23 -0.394252D-04  0.324343D-01  0.721019D-03  0.358919D-01  0.193547D-02
     24 -0.104825D-01  0.198716D-02  0.524628D-03 -0.197622D-02 -0.116321D-03
     25  0.396659D-02 -0.150717D-02  0.559472D-03  0.277189D-02 -0.607819D-03
     26  0.655959D-02 -0.480308D-03 -0.103957D-02 -0.793869D-03  0.714992D-03
     27 -0.142029D-02 -0.102629D-01 -0.285864D-02 -0.323016D-02 -0.657148D-02
     28  0.118366D-03  0.462061D-02  0.687351D-03 -0.191539D-02  0.536683D-02
     29  0.195992D-02 -0.634491D-03 -0.158691D-02  0.297280D-02 -0.105580D-01
     30  0.312581D-03  0.626549D-02  0.242044D-02  0.139924D-02 -0.466535D-03
     31 -0.299844D-03 -0.390556D-03 -0.906705D-03 -0.354469D-02  0.127849D-01
     32 -0.724815D-03  0.112630D-02  0.263313D-02  0.452984D-02  0.498546D-03
     33  0.288937D-04 -0.396717D-01  0.125049D-02  0.184024D-02  0.457528D-02
     34  0.610601D-04 -0.393729D-01  0.105875D-02  0.358205D-02 -0.493199D-02
     35 -0.140486D-03  0.476196D-02  0.125662D-02 -0.384666D-01 -0.239905D-02
     36  0.807875D-04  0.170978D-02  0.224104D-03 -0.475404D-02  0.255639D-02
     37 -0.233447D-04 -0.502964D-03 -0.241768D-03  0.392175D-02 -0.337357D-02
     38  0.574427D-04  0.120681D-02 -0.176643D-04 -0.832294D-03 -0.817183D-03
     39  0.419856D-03 -0.141493D-02  0.133529D-02  0.101191D-01  0.972882D-02
     40 -0.218644D-03 -0.288358D-02 -0.160056D-03  0.548687D-02  0.348650D-04
     41 -0.105731D-04  0.127250D-01 -0.282046D-03  0.500129D-02 -0.446412D-02
     42 -0.415898D-04  0.140194D-01  0.853603D-04  0.120790D-02 -0.256368D-02
     43 -0.153423D-04 -0.288213D-02  0.341694D-03 -0.845730D-03 -0.254338D-01
     44 -0.130742D-03  0.554556D-02  0.341187D-03  0.151658D-02  0.525990D-02
     45 -0.139921D-03  0.301966D-01  0.787804D-03 -0.369305D-01  0.759122D-02
     46  0.281246D-03 -0.560792D-02 -0.779925D-03 -0.312344D-02  0.179482D-01
     47  0.384060D-03  0.331182D-01 -0.748533D-03 -0.323472D-01 -0.495353D-02
     48 -0.113647D-03 -0.360375D-02 -0.212655D-02 -0.159138D-02  0.190752D-02
     49 -0.598549D-03  0.550785D-03 -0.517622D-03 -0.330308D-02  0.505315D-03
     50 -0.111897D-03  0.469325D-02  0.222426D-02  0.317472D-02 -0.237069D-02
     51  0.892149D-03 -0.406622D-04  0.299238D-03 -0.472899D-04 -0.219063D-04
     52  0.778502D-03 -0.364441D-02 -0.182731D-02 -0.163867D-02  0.188561D-02
     53  0.293600D-03  0.510123D-03 -0.218384D-03 -0.335037D-02  0.483409D-03
     54  0.780252D-03  0.465258D-02  0.252350D-02  0.312743D-02 -0.239260D-02
     55 -0.484903D-03  0.415453D-02  0.160893D-02 -0.171169D-02 -0.140220D-02
     56  0.175004D-05  0.829699D-02  0.435081D-02  0.476610D-02 -0.427821D-02
     57 -0.813437D-03  0.326474D-02  0.197341D-02  0.518283D-03  0.748173D-03
     58 -0.878040D-03  0.399037D-02  0.197826D-02 -0.898348D-03  0.391093D-02
     59 -0.310337D-03 -0.385665D-03  0.125152D-02  0.390414D-02 -0.160929D-02
     60 -0.374940D-03  0.339959D-03  0.125637D-02  0.248751D-02  0.155346D-02
     61  0.513888D-03 -0.461083D-02 -0.256135D-02 -0.342381D-03 -0.801372D-02
     62  0.449285D-03 -0.388521D-02 -0.255650D-02 -0.175901D-02 -0.485097D-02
     63 -0.956389D-03 -0.146397D-01 -0.287883D-02 -0.107800D-02 -0.259256D-02
     64 -0.249487D-03 -0.969649D-03  0.242128D-02  0.351566D-02  0.377018D-02
     65 -0.108792D-03 -0.858002D-02 -0.125133D-02  0.133110D-02 -0.199530D-02
               16            17            18            19            20 
     16  0.486971D-01
     17 -0.447918D-03  0.305430D-02
     18 -0.103584D-01 -0.107438D-02  0.551056D-02
     19 -0.168239D-01  0.215427D-02  0.116849D-02  0.368290D-01
     20 -0.409847D-02  0.132762D-02 -0.210688D-04  0.196315D-02  0.192969D-02
     21 -0.620640D-02 -0.568689D-03  0.174802D-02 -0.480380D-02  0.375918D-03
     22 -0.381051D-02 -0.193220D-02 -0.212570D-03 -0.426618D-02  0.312213D-03
     23 -0.188376D-03  0.359851D-03 -0.335739D-02 -0.168185D-02  0.164827D-02
     24  0.159646D-03  0.187007D-02 -0.136579D-02 -0.741828D-05  0.208438D-03
     25  0.124692D-03 -0.120421D-02  0.725837D-03  0.497721D-03  0.108786D-03
     26 -0.280431D-03 -0.664651D-03  0.633681D-03 -0.483970D-03 -0.318717D-03
     27  0.150741D-02  0.434116D-02 -0.342898D-02  0.420922D-02 -0.123785D-02
     28 -0.109418D-02  0.264216D-02  0.280362D-03 -0.343168D-02  0.833229D-03
     29  0.142907D-02 -0.535444D-02  0.228939D-02  0.822487D-02  0.162227D-03
     30 -0.165061D-03 -0.320950D-02  0.116097D-02  0.513919D-03  0.386845D-03
     31 -0.215339D-02  0.891926D-03  0.130329D-02 -0.928184D-02  0.499894D-03
     32  0.306628D-03  0.589857D-03 -0.153631D-02 -0.103124D-02 -0.606993D-03
     33 -0.174158D-02 -0.234803D-02  0.536692D-02 -0.230651D-02 -0.194841D-02
     34  0.529523D-03 -0.265762D-02  0.334846D-02  0.379630D-02 -0.240260D-02
     35  0.535635D-03  0.161127D-02  0.480300D-03  0.188172D-02  0.485759D-03
     36 -0.270140D-02  0.175503D-03  0.650846D-03  0.889013D-03  0.366329D-03
     37  0.480005D-02 -0.989800D-04 -0.728177D-03 -0.241697D-02  0.136033D-03
     38  0.209865D-02  0.765232D-04 -0.773309D-04 -0.152795D-02  0.502362D-03
     39 -0.959996D-02 -0.646350D-03  0.764812D-03 -0.199890D-03  0.767621D-03
     40 -0.104508D-03 -0.697680D-03 -0.603265D-03  0.797279D-04 -0.624754D-03
     41 -0.503389D-02  0.543559D-03 -0.247412D-03  0.822704D-02  0.142001D-02
     42  0.859650D-02 -0.134530D-03 -0.271438D-02 -0.515049D-02 -0.450815D-03
     43  0.256752D-01  0.429627D-03 -0.522552D-02 -0.105787D-02 -0.179058D-02
     44 -0.237142D-01  0.122506D-02  0.356452D-02  0.172836D-01  0.246296D-02
     45 -0.139947D-02  0.250382D-02 -0.539716D-03 -0.517018D-02  0.230362D-02
     46 -0.271844D-02 -0.171956D-02  0.283495D-02 -0.134997D-01 -0.610122D-03
     47  0.737263D-03  0.189113D-02 -0.279754D-02  0.386603D-02  0.188338D-02
     48 -0.248071D-03 -0.226005D-04  0.439970D-03 -0.143648D-02 -0.673953D-04
     49 -0.179625D-03  0.632739D-03 -0.217312D-03 -0.260571D-03  0.151826D-03
     50  0.435824D-03 -0.451042D-03 -0.429859D-03  0.167087D-02  0.555353D-04
     51  0.113265D-04 -0.420942D-04 -0.370193D-05  0.160231D-04 -0.379414D-04
     52 -0.236744D-03 -0.646948D-04  0.436268D-03 -0.142045D-02 -0.105337D-03
     53 -0.168298D-03  0.590645D-03 -0.221014D-03 -0.244548D-03  0.113885D-03
     54  0.447151D-03 -0.493136D-03 -0.433561D-03  0.168689D-02  0.175939D-04
     55  0.684457D-04  0.655339D-03 -0.657282D-03  0.117591D-02  0.219221D-03
     56  0.683895D-03 -0.428441D-03 -0.869829D-03  0.310735D-02  0.122931D-03
     57 -0.145946D-02  0.430509D-02 -0.994847D-03  0.104783D-02  0.682152D-03
     58 -0.615896D-03  0.274943D-02 -0.233662D-02 -0.311016D-02 -0.199784D-03
     59 -0.908297D-03  0.546551D-03 -0.412976D-04  0.240881D-02  0.144509D-03
     60 -0.647350D-04 -0.100911D-02 -0.138307D-02 -0.174918D-02 -0.737427D-03
     61 -0.159848D-03  0.103519D-02  0.539354D-03  0.774455D-02  0.416706D-03
     62  0.683713D-03 -0.520466D-03 -0.802417D-03  0.358657D-02 -0.465230D-03
     63  0.547659D-03  0.208155D-02 -0.622182D-03  0.170115D-02 -0.967668D-03
     64 -0.799090D-03 -0.483416D-03  0.128495D-02 -0.257891D-02  0.140354D-03
     65  0.259579D-03  0.250823D-02  0.889570D-04  0.173656D-02 -0.242071D-03
               21            22            23            24            25 
     21  0.176603D+00
     22  0.154765D-02  0.652637D-02
     23  0.345881D-03  0.470126D-02  0.845588D-02
     24  0.376643D-04 -0.122617D-02  0.142474D-03  0.773181D-01
     25 -0.172942D-04  0.121364D-02 -0.218182D-04 -0.420842D-01  0.772142D-01
     26 -0.290192D-04  0.709774D-05 -0.121383D-03 -0.348972D-01 -0.348019D-01
     27 -0.109475D-02 -0.608626D-02 -0.187876D-02  0.672807D-02 -0.651183D-02
     28  0.659826D-03  0.281426D-02  0.871495D-03  0.501231D-03 -0.200966D-03
     29 -0.135239D-02  0.805525D-03 -0.152098D-02 -0.675577D-02  0.750984D-02
     30  0.952743D-05  0.127424D-02  0.653316D-03 -0.281542D-02  0.240468D-02
     31  0.190009D-02  0.289512D-02  0.143698D-02  0.548840D-03 -0.921467D-03
     32  0.344427D-04 -0.143950D-02  0.677896D-03  0.175161D-02 -0.234519D-02
     33  0.949174D-03 -0.621274D-03 -0.442755D-02 -0.202687D-02  0.135331D-02
     34 -0.911357D-03 -0.906421D-03 -0.480580D-02 -0.173228D-02  0.131559D-02
     35 -0.391399D-03 -0.551116D-02 -0.461094D-02  0.648792D-03 -0.978363D-03
     36  0.111403D-02 -0.850974D-05 -0.217227D-03 -0.140594D-03  0.268702D-03
     37 -0.720418D-03  0.638973D-04  0.284279D-03 -0.730328D-04 -0.156957D-03
     38  0.393616D-03  0.553875D-04  0.670518D-04 -0.213627D-03  0.111745D-03
     39  0.228807D-02  0.347640D-02  0.103959D-02  0.385880D-03  0.159409D-02
     40  0.582120D-03  0.870445D-03  0.255762D-03  0.341671D-03 -0.499494D-03
     41 -0.111074D-02  0.206873D-03  0.181870D-02 -0.315343D-03 -0.877581D-04
     42 -0.618787D-03  0.388100D-03  0.198594D-02 -0.193655D-03 -0.430939D-04
     43 -0.558668D-02 -0.254346D-02 -0.615754D-03 -0.582169D-03  0.317761D-03
     44  0.494424D-03  0.192957D-02  0.114270D-02 -0.156703D-04 -0.286885D-03
     45  0.963273D-03 -0.971846D-03  0.137076D-03  0.552018D-03 -0.112707D-02
     46  0.405508D-02  0.142115D-02 -0.921796D-03 -0.774945D-03  0.820293D-03
     47 -0.761385D-03 -0.325231D-02 -0.819210D-03  0.641706D-03 -0.131685D-03
     48  0.333396D-03  0.135837D-03 -0.243039D-03  0.255397D-03 -0.213499D-03
     49  0.516216D-04 -0.456993D-03 -0.933169D-04  0.157569D-02 -0.170578D-02
     50 -0.372964D-03  0.169405D-03  0.330403D-03 -0.434296D-03  0.264060D-03
     51 -0.763527D-04 -0.459015D-04 -0.158084D-04  0.129075D-03  0.626750D-04
     52  0.257043D-03  0.899358D-04 -0.258847D-03  0.384472D-03 -0.150824D-03
     53 -0.247311D-04 -0.502895D-03 -0.109125D-03  0.170477D-02 -0.164311D-02
     54 -0.449317D-03  0.123503D-03  0.314595D-03 -0.305221D-03  0.326735D-03
     55 -0.281774D-03 -0.592831D-03  0.149722D-03  0.132030D-02 -0.149228D-02
     56 -0.706360D-03  0.335673D-04  0.573442D-03 -0.689693D-03  0.477559D-03
     57  0.417577D-04 -0.276536D-02  0.709478D-03  0.365807D-02 -0.348821D-02
     58  0.470376D-03  0.547427D-03  0.843394D-03  0.376265D-02 -0.371641D-02
     59 -0.119474D-03 -0.341280D-02  0.334901D-03  0.844160D-03 -0.904281D-03
     60  0.309144D-03 -0.100012D-03  0.468817D-03  0.948732D-03 -0.113248D-02
     61 -0.106464D-02 -0.375471D-02 -0.145347D-02 -0.420594D-04  0.104803D-02
     62 -0.636017D-03 -0.441923D-03 -0.131956D-02  0.625125D-04  0.819833D-03
     63 -0.606031D-03 -0.361725D-02 -0.146645D-02  0.342850D-02 -0.382966D-02
     64  0.345307D-03  0.151961D-02  0.911815D-03 -0.986009D-03  0.724093D-04
     65 -0.582966D-03 -0.609382D-03 -0.859911D-03  0.113655D-02 -0.110467D-02
               26            27            28            29            30 
     26  0.690637D-01
     27 -0.215893D-03  0.274444D-01
     28 -0.331641D-03 -0.119491D-02  0.203070D-01
     29 -0.741055D-03 -0.200521D-01 -0.601041D-02  0.332781D-01
     30  0.429018D-03 -0.121309D-01 -0.116191D-01  0.120912D-01  0.178491D-01
     31  0.364634D-03 -0.240452D-02  0.368219D-02 -0.992659D-02 -0.130900D-02
     32  0.602305D-03  0.775317D-02 -0.592290D-02 -0.100618D-01 -0.406466D-02
     33  0.667477D-03 -0.529496D-02 -0.389495D-03  0.354473D-02  0.250228D-02
     34  0.414570D-03 -0.232883D-02 -0.186377D-02  0.536492D-02  0.210650D-02
     35  0.333409D-03  0.237393D-02 -0.196491D-02 -0.141763D-03  0.334414D-03
     36 -0.126100D-03 -0.173931D-02  0.101472D-02  0.668876D-03  0.310491D-03
     37  0.226060D-03  0.835947D-03 -0.994929D-03 -0.905433D-04  0.122492D-03
     38  0.999595D-04 -0.903365D-03  0.197930D-04  0.578332D-03  0.432983D-03
     39 -0.195879D-02 -0.146396D-02 -0.220009D-03  0.241722D-02  0.403775D-03
     40  0.160459D-03  0.225781D-02 -0.832200D-03 -0.142242D-02 -0.694595D-03
     41  0.401390D-03 -0.132461D-04 -0.144235D-02  0.168529D-02  0.114426D-02
     42  0.238241D-03 -0.174145D-02  0.327065D-03 -0.332649D-03  0.815733D-03
     43  0.259368D-03 -0.118014D-02  0.632885D-04  0.120566D-02  0.496883D-03
     44  0.297093D-03 -0.564842D-03  0.942745D-03 -0.185692D-02 -0.104298D-03
     45  0.570043D-03 -0.309285D-02  0.197492D-02 -0.587745D-02  0.999277D-03
     46 -0.487626D-04 -0.280728D-02  0.210172D-02  0.232643D-02 -0.419608D-03
     47 -0.505080D-03  0.177687D-02 -0.326030D-03  0.436408D-02 -0.477181D-05
     48 -0.147666D-03  0.153986D-04  0.679172D-03 -0.493624D-03 -0.315610D-02
     49  0.264838D-04  0.237630D-02 -0.111487D-02 -0.278964D-02  0.343488D-02
     50  0.652433D-04 -0.216228D-02  0.107146D-02  0.288107D-02 -0.143555D-02
     51  0.108299D-04 -0.140618D-04 -0.294853D-03  0.529619D-04  0.190332D-03
     52 -0.136836D-03  0.133688D-05  0.384319D-03 -0.440662D-03 -0.296576D-02
     53  0.373137D-04  0.236224D-02 -0.140972D-02 -0.273667D-02  0.362521D-02
     54  0.760732D-04 -0.217634D-02  0.776611D-03  0.293403D-02 -0.124521D-02
     55  0.174150D-03  0.236091D-02 -0.179404D-02 -0.229601D-02  0.659098D-02
     56  0.212910D-03 -0.217768D-02  0.392292D-03  0.337469D-02  0.172055D-02
     57 -0.175854D-03  0.108001D-01  0.543533D-02 -0.140532D-01 -0.725561D-02
     58 -0.537062D-04  0.113584D-01  0.617886D-02 -0.165442D-01 -0.795778D-02
     59  0.805897D-04  0.374473D-02 -0.112428D-01 -0.253258D-02  0.262138D-02
     60  0.202737D-03  0.430297D-02 -0.104992D-01 -0.502358D-02  0.191921D-02
     61 -0.100086D-02  0.194904D-02 -0.380617D-03  0.779443D-02 -0.920949D-03
     62 -0.878716D-03  0.250728D-02  0.362908D-03  0.530342D-02 -0.162312D-02
     63  0.398168D-03  0.144905D-01 -0.284432D-02 -0.126383D-01 -0.539230D-02
     64  0.907134D-03 -0.524203D-02  0.736340D-04 -0.239147D-02  0.284998D-02
     65 -0.599949D-04  0.606078D-02  0.146880D-01 -0.666090D-02 -0.151282D-01
               31            32            33            34            35 
     31  0.112347D-01
     32 -0.538125D-03  0.134634D-01
     33  0.740790D-03 -0.922022D-03  0.983713D-02
     34 -0.300357D-02 -0.387701D-03  0.721526D-02  0.826502D-02
     35 -0.306928D-02  0.243831D-02 -0.447679D-03 -0.568538D-03  0.800052D-02
     36  0.833347D-03 -0.106880D-02  0.675232D-03 -0.475424D-03  0.586430D-03
     37 -0.636113D-03  0.770258D-03 -0.610506D-03  0.370374D-03 -0.510675D-03
     38  0.197234D-03 -0.298539D-03  0.647267D-04 -0.105049D-03  0.757543D-04
     39 -0.802196D-03 -0.397048D-03 -0.902643D-03  0.384380D-04 -0.265932D-02
     40 -0.602969D-03  0.128113D-02 -0.481192D-03  0.505244D-03 -0.940549D-03
     41 -0.168913D-02  0.281853D-03 -0.251482D-02 -0.926412D-03 -0.533910D-04
     42  0.120016D-02 -0.113580D-03 -0.166358D-02 -0.231883D-02  0.478936D-04
     43 -0.116979D-03 -0.473375D-03 -0.706966D-03  0.165291D-02 -0.486699D-04
     44  0.147947D-02  0.245493D-03 -0.132908D-02 -0.291400D-03 -0.108865D-02
     45  0.600990D-02  0.605850D-03 -0.382604D-02 -0.639075D-02  0.483286D-02
     46  0.507361D-03 -0.181363D-02  0.326384D-02 -0.273008D-03  0.265492D-03
     47 -0.509300D-02 -0.119571D-02 -0.703598D-02 -0.497014D-02  0.633608D-02
     48  0.218162D-02  0.738273D-03  0.135529D-04 -0.631291D-03 -0.926530D-03
     49  0.138799D-02 -0.320259D-02 -0.657456D-03 -0.796609D-03 -0.226663D-03
     50 -0.352371D-02  0.308458D-02  0.307472D-03  0.108038D-02  0.144489D-02
     51 -0.396553D-04  0.122288D-03  0.000000D+00  0.145289D-04  0.591810D-04
     52  0.214196D-02  0.860561D-03  0.140896D-04 -0.616762D-03 -0.867349D-03
     53  0.134834D-02 -0.308030D-02 -0.656920D-03 -0.782080D-03 -0.167482D-03
     54 -0.356337D-02  0.320687D-02  0.308009D-03  0.109491D-02  0.150407D-02
     55 -0.793628D-03 -0.394086D-02 -0.671009D-03 -0.165318D-03  0.699867D-03
     56 -0.570533D-02  0.234631D-02  0.293919D-03  0.171167D-02  0.237142D-02
     57  0.134263D-02  0.364539D-02 -0.935242D-03 -0.240368D-02  0.195712D-02
     58  0.235623D-02  0.463935D-02 -0.348154D-02 -0.251761D-02  0.153673D-03
     59 -0.890041D-03  0.896331D-02  0.108433D-02 -0.902204D-04  0.273171D-02
     60  0.123551D-03  0.995727D-02 -0.146197D-02 -0.204155D-03  0.928262D-03
     61 -0.494413D-02 -0.431585D-02  0.556416D-03  0.735930D-03  0.120416D-02
     62 -0.393054D-02 -0.332189D-02 -0.198988D-02  0.621996D-03 -0.599294D-03
     63  0.202996D-02  0.433802D-02 -0.105052D-02 -0.669665D-03  0.212321D-03
     64  0.378987D-02  0.157816D-02  0.277759D-02  0.820874D-03 -0.548654D-03
     65  0.246272D-03 -0.153114D-03 -0.592541D-05  0.325059D-05 -0.690742D-03
               36            37            38            39            40 
     36  0.311735D-02
     37 -0.193362D-02  0.292194D-02
     38  0.118374D-02  0.988320D-03  0.217206D-02
     39 -0.621188D-03 -0.354200D-04 -0.656608D-03  0.923047D-02
     40  0.109530D-02 -0.453360D-04  0.104996D-02  0.614977D-03  0.218694D-02
     41 -0.584724D-03  0.552280D-03 -0.324436D-04 -0.222589D-03 -0.161897D-03
     42  0.392182D-03 -0.398484D-03 -0.630209D-05 -0.277750D-02 -0.168309D-03
     43 -0.153993D-02  0.271815D-02  0.117822D-02 -0.746017D-02 -0.564945D-03
     44  0.111682D-02 -0.247082D-02 -0.135400D-02  0.304379D-02  0.842959D-04
     45  0.136118D-02 -0.952784D-03  0.408400D-03 -0.280484D-02 -0.158238D-02
     46  0.486787D-03 -0.402319D-03  0.844682D-04  0.293458D-02 -0.200968D-03
     47  0.311284D-03 -0.205266D-03  0.106018D-03 -0.221998D-03 -0.583414D-03
     48  0.160501D-03 -0.127281D-03  0.332197D-04  0.533008D-04 -0.911317D-04
     49  0.658595D-04 -0.807704D-04 -0.149108D-04 -0.575154D-03 -0.963005D-05
     50 -0.151317D-03  0.161997D-03  0.106797D-04  0.408652D-03  0.909498D-04
     51  0.723988D-05 -0.158079D-04 -0.856802D-05  0.267314D-04  0.352404D-04
     52  0.167741D-03 -0.143089D-03  0.246517D-04  0.800321D-04 -0.558914D-04
     53  0.730994D-04 -0.965783D-04 -0.234789D-04 -0.548422D-03  0.256103D-04
     54 -0.144077D-03  0.146189D-03  0.211169D-05  0.435383D-03  0.126190D-03
     55 -0.946415D-04  0.465110D-04 -0.481305D-04 -0.628455D-03  0.815017D-04
     56 -0.311818D-03  0.289278D-03 -0.225400D-04  0.355351D-03  0.182082D-03
     57  0.689922D-03 -0.104674D-02 -0.356814D-03 -0.236828D-02 -0.141730D-03
     58 -0.819362D-03  0.377674D-03 -0.441688D-03  0.864751D-03  0.140818D-02
     59  0.280585D-03 -0.403249D-03 -0.122664D-03 -0.148151D-02 -0.166450D-04
     60 -0.122870D-02  0.102116D-02 -0.207538D-03  0.175152D-02  0.153327D-02
     61  0.966038D-03 -0.105223D-02 -0.861896D-04 -0.843024D-03 -0.865941D-03
     62 -0.543246D-03  0.372183D-03 -0.171063D-03  0.239001D-02  0.683971D-03
     63 -0.736918D-03  0.332476D-03 -0.404442D-03 -0.258207D-02  0.967847D-03
     64  0.436222D-03 -0.219597D-03  0.216625D-03 -0.177162D-02 -0.522720D-03
     65  0.213165D-03 -0.441927D-03 -0.228762D-03 -0.166090D-02 -0.705369D-04
               41            42            43            44            45 
     41  0.345626D-02
     42 -0.101093D-02  0.334451D-02
     43 -0.493301D-03  0.411951D-02  0.180297D-01
     44  0.512131D-02 -0.414883D-02 -0.825113D-02  0.165493D-01
     45  0.192456D-03  0.236379D-02  0.355216D-04  0.135495D-02  0.121765D-01
     46 -0.373588D-02  0.413599D-04 -0.725892D-02 -0.560987D-02 -0.343663D-03
     47  0.176858D-02  0.100598D-02 -0.702716D-03 -0.416655D-03  0.522409D-02
     48 -0.501147D-03  0.000000D+00  0.238629D-05  0.486921D-04  0.426668D-03
     49 -0.343094D-04  0.787585D-04 -0.122550D-03  0.173712D-03  0.943356D-03
     50  0.486740D-03 -0.690369D-04  0.135356D-03 -0.132093D-03 -0.927940D-03
     51  0.170318D-04  0.315817D-04 -0.226874D-04 -0.233245D-04  0.214442D-05
     52 -0.484115D-03  0.308620D-04 -0.203011D-04  0.253677D-04  0.428812D-03
     53 -0.172777D-04  0.110340D-03 -0.145237D-03  0.150388D-03  0.945500D-03
     54  0.503772D-03 -0.374552D-04  0.112669D-03 -0.155417D-03 -0.925796D-03
     55  0.466838D-03  0.794782D-04 -0.124936D-03  0.125020D-03  0.516688D-03
     56  0.987887D-03 -0.683172D-04  0.132970D-03 -0.180785D-03 -0.135461D-02
     57 -0.462585D-03 -0.105584D-03 -0.105571D-02  0.104518D-02  0.160227D-02
     58 -0.665140D-03 -0.277125D-03 -0.115128D-02  0.100367D-02  0.166002D-02
     59  0.570887D-03  0.183773D-05 -0.750691D-03  0.290866D-03  0.369318D-03
     60  0.368331D-03 -0.169704D-03 -0.846263D-03  0.249352D-03  0.427077D-03
     61  0.478125D-03 -0.840664D-03 -0.395040D-03 -0.642211D-03 -0.367510D-02
     62  0.275570D-03 -0.101220D-02 -0.490612D-03 -0.683725D-03 -0.361735D-02
     63 -0.187328D-03 -0.897247D-03  0.411846D-03  0.407212D-03 -0.106429D-02
     64 -0.105844D-03  0.685655D-03  0.118696D-02  0.131703D-02  0.253728D-02
     65 -0.767063D-03 -0.768720D-03  0.903391D-03  0.614766D-03 -0.176472D-02
               46            47            48            49            50 
     46  0.108053D-01
     47 -0.212502D-03  0.116545D-01
     48  0.439993D-03 -0.912096D-03  0.265783D-02
     49 -0.569166D-03  0.651809D-04 -0.886572D-03  0.433837D-02
     50  0.127992D-03  0.128037D-02  0.179698D-03 -0.238523D-02  0.422069D-02
     51 -0.330887D-04  0.245096D-05 -0.917355D-03 -0.885085D-03 -0.893909D-03
     52  0.406904D-03 -0.909645D-03  0.174048D-02 -0.177166D-02 -0.714212D-03
     53 -0.602254D-03  0.676318D-04 -0.180393D-02  0.345328D-02 -0.327914D-02
     54  0.949035D-04  0.128282D-02 -0.737657D-03 -0.327032D-02  0.332679D-02
     55 -0.100916D-02  0.977277D-03 -0.354440D-02  0.522494D-02 -0.256493D-02
     56 -0.312001D-03  0.219247D-02 -0.247813D-02 -0.149866D-02  0.404100D-02
     57 -0.106349D-02 -0.520598D-03 -0.694595D-03  0.109022D-02 -0.104182D-03
     58 -0.987689D-03 -0.184705D-03 -0.708480D-03  0.106669D-02 -0.462944D-04
     59 -0.168983D-02 -0.118500D-02  0.537924D-03 -0.122843D-02  0.821687D-03
     60 -0.161403D-02 -0.849111D-03  0.524038D-03 -0.125196D-02  0.879574D-03
     61  0.372800D-03  0.261260D-02  0.217313D-03  0.108308D-03 -0.358594D-03
     62  0.448604D-03  0.294849D-02  0.203428D-03  0.847753D-04 -0.300706D-03
     63 -0.255195D-02 -0.214008D-02  0.968089D-03  0.199898D-02 -0.298043D-02
     64 -0.898763D-03 -0.371626D-02 -0.250165D-03 -0.128004D-03  0.309117D-03
     65  0.245467D-03 -0.704576D-03  0.199516D-02 -0.316361D-02  0.210590D-02
               51            52            53            54            55 
     51  0.173555D-02
     52  0.818199D-03  0.255868D-02
     53  0.850469D-03 -0.953458D-03  0.430375D-02
     54  0.841644D-03  0.103987D-03 -0.242867D-02  0.416843D-02
     55  0.322698D-04 -0.351213D-02  0.525721D-02 -0.253266D-02  0.876934D-02
     56  0.234456D-04 -0.245469D-02 -0.147521D-02  0.406444D-02  0.979474D-03
     57 -0.651850D-04 -0.759780D-03  0.102503D-02 -0.169367D-03  0.178481D-02
     58 -0.681972D-04 -0.776677D-03  0.998490D-03 -0.114492D-03  0.177517D-02
     59  0.181638D-03  0.719561D-03 -0.104679D-02  0.100332D-02 -0.176635D-02
     60  0.178626D-03  0.702664D-03 -0.107334D-02  0.105820D-02 -0.177600D-02
     61 -0.352724D-04  0.182041D-03  0.730352D-04 -0.393866D-03 -0.109006D-03
     62 -0.382847D-04  0.165143D-03  0.464906D-04 -0.338991D-03 -0.118653D-03
     63  0.581151D-05  0.973901D-03  0.200479D-02 -0.297461D-02  0.103089D-02
     64  0.162343D-04 -0.233931D-03 -0.111770D-03  0.325351D-03  0.122161D-03
     65 -0.245490D-03  0.174967D-02 -0.340910D-02  0.186041D-02 -0.515877D-02
               56            57            58            59            60 
     56  0.651913D-02
     57  0.590413D-03  0.102982D-01
     58  0.662185D-03  0.726601D-02  0.108848D-01
     59  0.283763D-03  0.187103D-02 -0.195189D-02  0.117599D-01
     60  0.355536D-03 -0.116116D-02  0.166692D-02  0.793701D-02  0.107651D-01
     61 -0.575907D-03  0.624578D-03 -0.447843D-02  0.527577D-03 -0.457543D-02
     62 -0.504134D-03 -0.240761D-02 -0.859620D-03 -0.329534D-02 -0.174735D-02
     63 -0.394851D-02  0.559541D-02  0.483226D-02  0.393366D-02  0.317051D-02
     64  0.559282D-03  0.312197D-03 -0.215179D-03  0.149940D-02  0.972021D-03
     65  0.110737D-03  0.624729D-02  0.555748D-02 -0.555433D-02 -0.624414D-02
               61            62            63            64            65 
     61  0.831330D-02
     62  0.321028D-02  0.475828D-02
     63  0.636683D-03 -0.126465D-03  0.100204D-01
     64 -0.353425D-02 -0.406163D-02 -0.134714D-02  0.421478D-02
     65  0.201334D-02  0.132353D-02  0.176655D-02 -0.165547D-02  0.157766D-01
 Final forces over variables, Energy=-1.94230861D+02:
  3.54631503D-04-4.06022064D-05-2.44056667D-04-9.13191795D-04
 -5.28876638D-05-3.48746642D-05-3.85898165D-05-7.62532419D-05
  2.49168756D-05 3.99729376D-05-5.11270459D-06-2.72592743D-04
  2.05692191D-04-1.47895921D-04-2.24434944D-05 9.72849653D-05
 -2.57415097D-04-1.86317462D-04-1.41422209D-05 2.62704576D-05
 -1.42367632D-04-5.63172885D-05-3.71594234D-05 9.24533764D-05
 -1.04653573D-04 1.47365086D-05-2.99710018D-04 3.39235752D-05
  1.90250501D-05 2.44594460D-04 5.27692298D-05-2.71464170D-05
  1.89758402D-05 3.41582227D-05 1.84061552D-05 4.87368619D-05
 -1.27417304D-04-7.86804423D-05-2.14360066D-05-2.12071278D-05
 -1.91447638D-04-2.88533301D-05-4.54383966D-05-5.53941870D-05
  2.75560490D-05-1.22139424D-04-5.95049416D-05-1.37272169D-04
 -6.18440463D-06-4.78244806D-06 2.28818806D-05-1.14390288D-04
  1.66974759D-05 1.80994325D-05 1.31087764D-04 1.32489721D-04
  8.97963649D-05 8.51133069D-05 6.72118681D-05 6.25288101D-05
 -4.78274824D-05-5.25105404D-05-2.80887417D-04 4.85530956D-05
 -2.45477514D-04

 GradGradGradGradGradGradGradGradGradGradGradGradGradGradGradGradGradGrad
 Berny optimization.
 Using GEDIIS/GDIIS optimizer.
 Internal  Forces:  Max     0.000913192 RMS     0.000166944
 Search for a local minimum.
 Step number   2 out of a maximum of   20
 All quantities printed in internal units (Hartrees-Bohrs-Radians)
 Mixed Optimization -- En-DIIS/RFO-DIIS
 Swapping is turned off.
 Second derivative matrix not updated -- analytic derivatives used.
 DE= -1.89D-06 DEPred=-1.08D-06 R= 1.75D+00
 TightC=F SS=  1.41D+00  RLast= 1.89D-01 DXNew= 5.0454D-01 5.6779D-01
 Trust test= 1.75D+00 RLast= 1.89D-01 DXMaxT set to 5.05D-01
 ITU=  1  0
     Eigenvalues ---    0.00007   0.00010   0.000311000.000001000.00000
     Eigenvalues --- 1000.000001000.000001000.000001000.000001000.00000
     Eigenvalues --- 1000.000001000.000001000.000001000.000001000.00000
     Eigenvalues --- 1000.000001000.000001000.000001000.000001000.00000
     Eigenvalues --- 1000.000001000.000001000.000001000.000001000.00000
     Eigenvalues --- 1000.000001000.000001000.000001000.000001000.00000
     Eigenvalues --- 1000.000001000.000001000.000001000.000001000.00000
     Eigenvalues --- 1000.000001000.000001000.000001000.000001000.00000
     Eigenvalues --- 1000.000001000.000001000.000001000.000001000.00000
     Eigenvalues --- 1000.000001000.000001000.000001000.000001000.00000
     Eigenvalues --- 1000.000001000.000001000.000001000.000001000.00000
     Eigenvalues --- 1000.000001000.000001000.000001000.000001000.00000
     Eigenvalues --- 1000.000001000.000001000.000001000.000001000.00000
 En-DIIS/RFO-DIIS IScMMF=        0 using points:     2    1
 RFO step:  Lambda=-5.76857091D-08.
 DidBck=F Rises=F RFO-DIIS coefs:    1.45615   -0.45615
 Iteration  1 RMS(Cart)=  0.02006696 RMS(Int)=  0.00030824
 Iteration  2 RMS(Cart)=  0.00027015 RMS(Int)=  0.00018206
 Iteration  3 RMS(Cart)=  0.00000004 RMS(Int)=  0.00018206
 Iteration  1 RMS(Cart)=  0.00006407 RMS(Int)=  0.00008601
 Iteration  2 RMS(Cart)=  0.00003858 RMS(Int)=  0.00009174
 Iteration  3 RMS(Cart)=  0.00002932 RMS(Int)=  0.00010325
 Iteration  4 RMS(Cart)=  0.00002362 RMS(Int)=  0.00011602
 Iteration  5 RMS(Cart)=  0.00001943 RMS(Int)=  0.00012827
 Iteration  6 RMS(Cart)=  0.00001613 RMS(Int)=  0.00013938
 Iteration  7 RMS(Cart)=  0.00001348 RMS(Int)=  0.00014921
 Iteration  8 RMS(Cart)=  0.00001132 RMS(Int)=  0.00015781
 Iteration  9 RMS(Cart)=  0.00000955 RMS(Int)=  0.00016531
 Iteration 10 RMS(Cart)=  0.00000810 RMS(Int)=  0.00017183
 Iteration 11 RMS(Cart)=  0.00000690 RMS(Int)=  0.00017750
 Iteration 12 RMS(Cart)=  0.00000591 RMS(Int)=  0.00018245
 Iteration 13 RMS(Cart)=  0.00000508 RMS(Int)=  0.00018678
 Iteration 14 RMS(Cart)=  0.00000439 RMS(Int)=  0.00019057
 Iteration 15 RMS(Cart)=  0.00000382 RMS(Int)=  0.00019389
 Iteration 16 RMS(Cart)=  0.00000334 RMS(Int)=  0.00019682
 Iteration 17 RMS(Cart)=  0.00000293 RMS(Int)=  0.00019941
 Iteration 18 RMS(Cart)=  0.00000258 RMS(Int)=  0.00020170
 Iteration 19 RMS(Cart)=  0.00000228 RMS(Int)=  0.00020373
 Iteration 20 RMS(Cart)=  0.00000202 RMS(Int)=  0.00020553
 Iteration 21 RMS(Cart)=  0.00000180 RMS(Int)=  0.00020714
 Iteration 22 RMS(Cart)=  0.00000161 RMS(Int)=  0.00020857
 Iteration 23 RMS(Cart)=  0.00000144 RMS(Int)=  0.00020986
 Iteration 24 RMS(Cart)=  0.00000130 RMS(Int)=  0.00021101
 Iteration 25 RMS(Cart)=  0.00000117 RMS(Int)=  0.00021204
 Iteration 26 RMS(Cart)=  0.00000105 RMS(Int)=  0.00021297
 Iteration 27 RMS(Cart)=  0.00000095 RMS(Int)=  0.00021380
 Variable       Old X    -DE/DX   Delta X   Delta X   Delta X     New X
                                 (Linear)    (Quad)   (Total)
    R1        2.56549   0.00035   0.00000   0.00000  -0.00000   2.56549
    R2        2.03693  -0.00004  -0.00000   0.00000   0.00000   2.03693
    R3        2.04412  -0.00024   0.00000   0.00000  -0.00000   2.04412
    R4        7.55890  -0.00091  -0.00000   0.00000  -0.00000   7.55890
    R5        6.64574  -0.00005  -0.00808  -0.00923  -0.01749   6.62825
    R6        1.80903  -0.00003   0.00000   0.00000  -0.00000   1.80903
    R7        6.83520  -0.00004  -0.04279  -0.01890  -0.06168   6.77353
    R8        6.94113  -0.00008   0.00075  -0.01972  -0.01854   6.92259
    R9        2.80039   0.00002   0.00000   0.00000  -0.00000   2.80039
   R10        2.04166   0.00004   0.00000   0.00000   0.00000   2.04166
   R11        2.04147  -0.00001   0.00000   0.00000   0.00000   2.04147
   R12        2.06150  -0.00027   0.00000   0.00000   0.00000   2.06150
   R13        2.07624   0.00021   0.00000   0.00000   0.00000   2.07624
   R14        2.06169  -0.00015   0.00000   0.00000  -0.00000   2.06169
    A1        1.98913  -0.00002   0.00000   0.00000   0.00000   1.98913
    A2        2.07773   0.00010  -0.00000   0.00000   0.00000   2.07773
    A3        1.98419  -0.00026  -0.00000   0.00000   0.00000   1.98419
    A4        1.52538  -0.00019   0.00963   0.00285   0.01330   1.53868
    A5        2.12032  -0.00001  -0.00000  -0.00000  -0.00000   2.12032
    A6        2.05646   0.00003   0.00801   0.00217   0.00898   2.06544
    A7        1.91774  -0.00014  -0.00000   0.00000   0.00000   1.91774
    A8        1.72967  -0.00006   0.00947   0.00304   0.01153   1.74120
    A9        0.48988  -0.00004   0.00141   0.00141   0.00270   0.49258
   A10        2.10998   0.00009   0.00000   0.00000  -0.00000   2.10998
   A11        2.11001  -0.00010   0.00000   0.00000  -0.00000   2.11001
   A12        2.05509   0.00001   0.00000   0.00000   0.00000   2.05509
   A13        1.95095  -0.00030   0.00001   0.00000   0.00000   1.95095
   A14        1.94864   0.00003  -0.00000   0.00000  -0.00000   1.94864
   A15        1.95096   0.00002   0.00001   0.00000   0.00000   1.95096
   A16        1.85907   0.00024  -0.00000   0.00000  -0.00000   1.85907
   A17        1.89041   0.00005  -0.00001   0.00000  -0.00000   1.89040
   A18        1.85878  -0.00003   0.00000  -0.00000   0.00000   1.85878
   A19        1.90658   0.00002   0.00637   0.00024   0.00636   1.91294
   A20        1.77662   0.00003   0.01336   0.00166   0.01519   1.79182
   A21        1.72159   0.00002  -0.00925   0.00203  -0.00737   1.71422
    D1        3.05743   0.00005  -0.00000   0.00000  -0.00000   3.05743
    D2       -2.69211  -0.00013   0.00000   0.00000  -0.00000  -2.69211
    D3        0.36532  -0.00008   0.00000  -0.00000  -0.00000   0.36532
    D4        1.82237  -0.00002  -0.00001   0.00000   0.00000   1.82237
    D5       -1.73980  -0.00002  -0.01524  -0.00432  -0.01892  -1.75872
    D6        1.77687  -0.00019   0.01523   0.00512   0.02102   1.79789
    D7       -1.82638  -0.00003   0.01522   0.00512   0.02102  -1.80536
    D8        3.12233  -0.00005  -0.03200  -0.00692  -0.03836   3.08397
    D9        0.99816  -0.00006  -0.03948  -0.00921  -0.04899   0.94917
   D10       -0.46715   0.00003   0.00137   0.00234   0.00362  -0.46353
   D11       -0.14966  -0.00012  -0.03451  -0.01161  -0.04634  -0.19599
   D12        0.46213  -0.00006  -0.00342  -0.00233  -0.00573   0.45639
   D13        2.70779  -0.00014   0.00000   0.00000   0.00000   2.70779
   D14       -1.49481  -0.00001  -0.00000  -0.00000   0.00000  -1.49481
   D15        0.58541  -0.00000   0.00000  -0.00000   0.00000   0.58541
   D16        3.00207   0.00002   0.00000   0.00000   0.00000   3.00207
   D17       -0.57333  -0.00011   0.00000  -0.00000   0.00000  -0.57332
   D18        1.50726   0.00002  -0.00000   0.00000   0.00000   1.50726
   D19       -2.69571   0.00002   0.00000   0.00000   0.00000  -2.69571
   D20        2.08059   0.00013  -0.00000   0.00000   0.00000   2.08059
   D21       -2.12238   0.00013   0.00000   0.00000   0.00000  -2.12238
   D22       -1.02339   0.00009   0.00648  -0.00385   0.00222  -1.02118
   D23       -1.30670   0.00009   0.00004  -0.00551  -0.00549  -1.31219
   D24        3.12701   0.00007   0.00648  -0.00385   0.00222   3.12923
   D25        2.84370   0.00006   0.00004  -0.00551  -0.00549   2.83821
   D26        1.13355  -0.00005   0.00649  -0.00385   0.00222   1.13577
   D27        0.85025  -0.00005   0.00005  -0.00551  -0.00549   0.84476
   D28        1.33470  -0.00028   0.01145   0.00517   0.01654   1.35124
   D29       -0.82224   0.00005   0.01145   0.00517   0.01654  -0.80570
   D30       -2.81589  -0.00025   0.01146   0.00517   0.01654  -2.79935
         Item               Value     Threshold  Converged?
 Maximum Force            0.000003     0.000450     YES
 RMS     Force            0.000001     0.000300     YES
 Maximum Displacement     0.057582     0.001800     NO 
 RMS     Displacement     0.020044     0.001200     NO 
 Predicted change in Energy=-1.514111D-07
 Optimization completed on the basis of negligible forces.
    -- Stationary point found.
                           ----------------------------
                           !   Optimized Parameters   !
                           ! (Angstroms and Degrees)  !
 --------------------------                            --------------------------
 ! Name  Definition              Value          Derivative Info.                !
 --------------------------------------------------------------------------------
 ! R1    R(1,2)                  1.3576         -DE/DX =    0.0004              !
 ! R2    R(1,3)                  1.0779         -DE/DX =    0.0                 !
 ! R3    R(1,4)                  1.0817         -DE/DX =   -0.0002              !
 ! R4    R(1,6)                  4.0            -DE/DX =   -0.0009              !
 ! R5    R(1,10)                 3.5168         -DE/DX =   -0.0001              !
 ! R6    R(2,5)                  0.9573         -DE/DX =    0.0                 !
 ! R7    R(3,10)                 3.617          -DE/DX =    0.0                 !
 ! R8    R(3,12)                 3.6731         -DE/DX =   -0.0001              !
 ! R9    R(6,7)                  1.4819         -DE/DX =    0.0                 !
 ! R10   R(6,8)                  1.0804         -DE/DX =    0.0                 !
 ! R11   R(6,9)                  1.0803         -DE/DX =    0.0                 !
 ! R12   R(7,10)                 1.0909         -DE/DX =   -0.0003              !
 ! R13   R(7,11)                 1.0987         -DE/DX =    0.0002              !
 ! R14   R(7,12)                 1.091          -DE/DX =   -0.0001              !
 ! A1    A(2,1,3)              113.9685         -DE/DX =    0.0                 !
 ! A2    A(2,1,4)              119.0449         -DE/DX =    0.0001              !
 ! A3    A(2,1,6)              113.6855         -DE/DX =   -0.0003              !
 ! A4    A(2,1,10)              87.398          -DE/DX =   -0.0002              !
 ! A5    A(3,1,4)              121.4854         -DE/DX =    0.0                 !
 ! A6    A(4,1,10)             117.8264         -DE/DX =    0.0                 !
 ! A7    A(1,2,5)              109.8782         -DE/DX =   -0.0001              !
 ! A8    A(1,3,12)              99.103          -DE/DX =   -0.0001              !
 ! A9    A(10,3,12)             28.0682         -DE/DX =    0.0                 !
 ! A10   A(7,6,8)              120.8932         -DE/DX =    0.0001              !
 ! A11   A(7,6,9)              120.8944         -DE/DX =   -0.0001              !
 ! A12   A(8,6,9)              117.7481         -DE/DX =    0.0                 !
 ! A13   A(6,7,10)             111.7811         -DE/DX =   -0.0003              !
 ! A14   A(6,7,11)             111.6487         -DE/DX =    0.0                 !
 ! A15   A(6,7,12)             111.7816         -DE/DX =    0.0                 !
 ! A16   A(10,7,11)            106.5171         -DE/DX =    0.0002              !
 ! A17   A(10,7,12)            108.3123         -DE/DX =    0.0001              !
 ! A18   A(11,7,12)            106.5001         -DE/DX =    0.0                 !
 ! A19   A(1,10,7)             109.2391         -DE/DX =    0.0                 !
 ! A20   A(3,10,7)             101.7931         -DE/DX =    0.0                 !
 ! A21   A(3,12,7)              98.6401         -DE/DX =    0.0                 !
 ! D1    D(3,1,2,5)            175.178          -DE/DX =    0.0                 !
 ! D2    D(4,1,2,3)           -154.2467         -DE/DX =   -0.0001              !
 ! D3    D(4,1,2,5)             20.9313         -DE/DX =   -0.0001              !
 ! D4    D(6,1,2,3)            104.4141         -DE/DX =    0.0                 !
 ! D5    D(10,1,2,5)           -99.6831         -DE/DX =    0.0                 !
 ! D6    D(2,1,3,12)           101.8071         -DE/DX =   -0.0002              !
 ! D7    D(4,1,3,12)          -104.644          -DE/DX =    0.0                 !
 ! D8    D(2,1,10,7)           178.8962         -DE/DX =    0.0                 !
 ! D9    D(4,1,10,7)            57.1906         -DE/DX =   -0.0001              !
 ! D10   D(12,3,10,7)          -26.7656         -DE/DX =    0.0                 !
 ! D11   D(1,3,12,7)            -8.5746         -DE/DX =   -0.0001              !
 ! D12   D(10,3,12,7)           26.4781         -DE/DX =   -0.0001              !
 ! D13   D(8,6,7,10)           155.1449         -DE/DX =   -0.0001              !
 ! D14   D(8,6,7,11)           -85.6462         -DE/DX =    0.0                 !
 ! D15   D(8,6,7,12)            33.5413         -DE/DX =    0.0                 !
 ! D16   D(9,6,7,8)            172.0059         -DE/DX =    0.0                 !
 ! D17   D(9,6,7,10)           -32.8491         -DE/DX =   -0.0001              !
 ! D18   D(9,6,7,11)            86.3597         -DE/DX =    0.0                 !
 ! D19   D(9,6,7,12)          -154.4527         -DE/DX =    0.0                 !
 ! D20   D(10,6,7,11)          119.2089         -DE/DX =    0.0001              !
 ! D21   D(10,6,7,12)         -121.6036         -DE/DX =    0.0001              !
 ! D22   D(6,7,10,1)           -58.6361         -DE/DX =    0.0001              !
 ! D23   D(6,7,10,3)           -74.8682         -DE/DX =    0.0001              !
 ! D24   D(11,7,10,1)          179.1644         -DE/DX =    0.0001              !
 ! D25   D(11,7,10,3)          162.9323         -DE/DX =    0.0001              !
 ! D26   D(12,7,10,1)           64.9479         -DE/DX =    0.0                 !
 ! D27   D(12,7,10,3)           48.7158         -DE/DX =   -0.0001              !
 ! D28   D(6,7,12,3)            76.4727         -DE/DX =   -0.0003              !
 ! D29   D(10,7,12,3)          -47.111          -DE/DX =    0.0                 !
 ! D30   D(11,7,12,3)         -161.3387         -DE/DX =   -0.0002              !
 --------------------------------------------------------------------------------
 GradGradGradGradGradGradGradGradGradGradGradGradGradGradGradGradGradGrad

                          Input orientation:                          
 ---------------------------------------------------------------------
 Center     Atomic      Atomic             Coordinates (Angstroms)
 Number     Number       Type             X           Y           Z
 ---------------------------------------------------------------------
      1          6           0        0.008630   -0.004911    0.012179
      2          8           0       -0.042007    0.009309    1.368760
      3          1           0        1.008991   -0.030742   -0.388419
      4          1           0       -0.813702    0.418729   -0.548511
      5          1           0       -0.948722    0.107722    1.659631
      6          6           0       -0.920275   -3.548803   -1.593418
      7          6           0        0.266743   -3.926033   -0.790475
      8          1           0       -0.873746   -3.519942   -2.672429
      9          1           0       -1.886651   -3.420052   -1.128027
     10          1           0        0.223285   -3.509167    0.216697
     11          1           0        0.347963   -5.015556   -0.674349
     12          1           0        1.194499   -3.594338   -1.259015
 ---------------------------------------------------------------------
                    Distance matrix (angstroms):
                    1          2          3          4          5
     1  C    0.000000
     2  O    1.357600   0.000000
     3  H    1.077899   2.047896   0.000000
     4  H    1.081700   2.106909   1.884108   0.000000
     5  H    1.908745   0.957300   2.836603   2.234020   0.000000
     6  C    3.999997   4.712326   4.189373   4.104205   4.894212
     7  C    4.010745   4.499394   3.985709   4.483622   4.873557
     8  H    4.510116   5.429421   4.575578   4.475238   5.650868
     9  H    4.068826   4.625708   4.518759   4.027815   4.593031
    10  H    3.516776   3.711779   3.617034   4.133914   4.066637
    11  H    5.068829   5.438350   5.036575   5.558485   5.777269
    12  H    3.988259   4.628220   3.673087   4.543390   5.178527
                    6          7          8          9         10
     6  C    0.000000
     7  C    1.481902   0.000000
     8  H    1.080400   2.237717   0.000000
     9  H    1.080300   2.237648   1.849631   0.000000
    10  H    2.141452   1.090900   3.090412   2.503608   0.000000
    11  H    2.145805   1.098700   2.778805   2.782977   1.754628
    12  H    2.141534   1.091000   2.506175   3.088854   1.768683
                   11         12
    11  H    0.000000
    12  H    1.754513   0.000000
 Symmetry turned off by external request.
 Stoichiometry    C3H8O
 Framework group  C1[X(C3H8O)]
 Deg. of freedom    30
 Full point group                 C1      NOp   1
 Rotational constants (GHZ):     12.8656395      1.7639885      1.6781736

 **********************************************************************

            Population analysis using the SCF density.

 **********************************************************************

 Alpha  occ. eigenvalues --  -19.28774 -10.31846 -10.28595 -10.27408  -1.15634
 Alpha  occ. eigenvalues --   -0.85374  -0.74480  -0.70044  -0.61293  -0.53640
 Alpha  occ. eigenvalues --   -0.53496  -0.49602  -0.47378  -0.45423  -0.43632
 Alpha  occ. eigenvalues --   -0.43497  -0.27807
 Alpha virt. eigenvalues --    0.03692   0.05465   0.05891   0.06776   0.08069
 Alpha virt. eigenvalues --    0.09429   0.09588   0.11020   0.11150   0.12726
 Alpha virt. eigenvalues --    0.13475   0.14821   0.17026   0.17506   0.18184
 Alpha virt. eigenvalues --    0.19172   0.22543   0.22972   0.23737   0.25403
 Alpha virt. eigenvalues --    0.26119   0.26867   0.27206   0.28919   0.29727
 Alpha virt. eigenvalues --    0.30006   0.30997   0.31499   0.31570   0.33047
 Alpha virt. eigenvalues --    0.33665   0.34817   0.36225   0.37817   0.38038
 Alpha virt. eigenvalues --    0.39236   0.39581   0.40276   0.46049   0.46600
 Alpha virt. eigenvalues --    0.47726   0.48007   0.53398   0.54701   0.55421
 Alpha virt. eigenvalues --    0.58310   0.60440   0.60511   0.60882   0.63094
 Alpha virt. eigenvalues --    0.64165   0.65562   0.66156   0.67201   0.68711
 Alpha virt. eigenvalues --    0.70248   0.71030   0.72267   0.73935   0.74962
 Alpha virt. eigenvalues --    0.76126   0.77721   0.80194   0.81343   0.85674
 Alpha virt. eigenvalues --    0.87552   0.89107   0.91061   0.91542   0.93518
 Alpha virt. eigenvalues --    0.96678   0.99030   0.99512   1.00395   1.01770
 Alpha virt. eigenvalues --    1.03200   1.08063   1.11049   1.12177   1.13780
 Alpha virt. eigenvalues --    1.16727   1.17264   1.18354   1.19435   1.22002
 Alpha virt. eigenvalues --    1.23259   1.26439   1.27044   1.29777   1.31832
 Alpha virt. eigenvalues --    1.34166   1.36017   1.38318   1.40572   1.41265
 Alpha virt. eigenvalues --    1.42132   1.45158   1.48201   1.49967   1.52380
 Alpha virt. eigenvalues --    1.53777   1.56337   1.58203   1.60414   1.61989
 Alpha virt. eigenvalues --    1.68585   1.71110   1.74061   1.82173   1.87689
 Alpha virt. eigenvalues --    1.98432   2.07849   2.09804   2.24857   2.32383
 Alpha virt. eigenvalues --    2.36749   2.38054   2.46193   2.49037   2.51509
 Alpha virt. eigenvalues --    2.52792   2.58113   2.58775   2.60385   2.65272
 Alpha virt. eigenvalues --    2.68317   2.71098   2.76117   2.79293   2.83346
 Alpha virt. eigenvalues --    2.87350   2.89530   2.91039   2.92087   2.93837
 Alpha virt. eigenvalues --    2.98755   2.99752   3.00188   3.03455   3.05953
 Alpha virt. eigenvalues --    3.07536   3.09067   3.11208   3.11811   3.13767
 Alpha virt. eigenvalues --    3.14179   3.16184   3.16798   3.19640   3.20872
 Alpha virt. eigenvalues --    3.22642   3.22927   3.25252   3.26691   3.32375
 Alpha virt. eigenvalues --    3.33998   3.40245   3.42884   3.44150   3.44452
 Alpha virt. eigenvalues --    3.49900   3.51547   3.52475   3.53308   3.54262
 Alpha virt. eigenvalues --    3.55892   3.56613   3.56920   3.61546   3.69041
 Alpha virt. eigenvalues --    3.73061   3.76144   3.79243   3.83837   3.85235
 Alpha virt. eigenvalues --    3.87232   3.92019   3.93039   3.96664   3.96711
 Alpha virt. eigenvalues --    3.99225   4.00204   4.01741   4.02469   4.05391
 Alpha virt. eigenvalues --    4.06982   4.08417   4.09699   4.11931   4.12654
 Alpha virt. eigenvalues --    4.14053   4.18129   4.19139   4.24030   4.30954
 Alpha virt. eigenvalues --    4.33178   4.33876   4.34081   4.36061   4.36604
 Alpha virt. eigenvalues --    4.40568   4.46149   4.59149   4.61221   4.74304
 Alpha virt. eigenvalues --    4.74898   4.81130   4.84097   4.87326   4.88508
 Alpha virt. eigenvalues --    4.92309   4.94319   4.96616   5.00250   5.01152
 Alpha virt. eigenvalues --    5.02737   5.06461   5.14721   5.17551   5.22080
 Alpha virt. eigenvalues --    5.27372   5.28309   5.35226   5.40785   5.42764
 Alpha virt. eigenvalues --    5.46251   5.49434   5.49574   5.63682   5.70038
 Alpha virt. eigenvalues --    5.70635   5.78560   5.87904   6.01059   6.02307
 Alpha virt. eigenvalues --    6.16509   6.17287   6.25041   6.55032   6.66031
 Alpha virt. eigenvalues --    6.74238   6.82693   6.92349   6.94452   7.16620
 Alpha virt. eigenvalues --    7.33846   7.62574  12.58847  12.77666  12.82061
 Alpha virt. eigenvalues --   13.59138
  Beta  occ. eigenvalues --  -19.29230 -10.32910 -10.27500 -10.27469  -1.16922
  Beta  occ. eigenvalues --   -0.83507  -0.77374  -0.67329  -0.62545  -0.54560
  Beta  occ. eigenvalues --   -0.52862  -0.49660  -0.47827  -0.46381  -0.44677
  Beta  occ. eigenvalues --   -0.43059  -0.25816
  Beta virt. eigenvalues --    0.02132   0.05292   0.06310   0.07040   0.07728
  Beta virt. eigenvalues --    0.09397   0.09504   0.10960   0.11538   0.12086
  Beta virt. eigenvalues --    0.14506   0.15132   0.16867   0.17395   0.18590
  Beta virt. eigenvalues --    0.18851   0.22195   0.22781   0.23588   0.25618
  Beta virt. eigenvalues --    0.25802   0.27066   0.27192   0.28964   0.29814
  Beta virt. eigenvalues --    0.30264   0.30870   0.31373   0.31760   0.33085
  Beta virt. eigenvalues --    0.33701   0.34925   0.35798   0.37831   0.38211
  Beta virt. eigenvalues --    0.38882   0.39748   0.41362   0.46450   0.46519
  Beta virt. eigenvalues --    0.47088   0.48092   0.53210   0.54122   0.55452
  Beta virt. eigenvalues --    0.58186   0.60176   0.60690   0.61469   0.62879
  Beta virt. eigenvalues --    0.64553   0.65872   0.66432   0.67072   0.68704
  Beta virt. eigenvalues --    0.70415   0.70934   0.72582   0.74174   0.75051
  Beta virt. eigenvalues --    0.76296   0.77051   0.80335   0.81323   0.86079
  Beta virt. eigenvalues --    0.87417   0.89000   0.90915   0.92129   0.93485
  Beta virt. eigenvalues --    0.96352   0.98924   0.99703   1.00775   1.01854
  Beta virt. eigenvalues --    1.03497   1.08164   1.10691   1.11630   1.13388
  Beta virt. eigenvalues --    1.16532   1.17047   1.18799   1.20419   1.22186
  Beta virt. eigenvalues --    1.23250   1.26051   1.26984   1.29877   1.31546
  Beta virt. eigenvalues --    1.34322   1.36382   1.38455   1.40319   1.41530
  Beta virt. eigenvalues --    1.42025   1.45284   1.48687   1.50227   1.52176
  Beta virt. eigenvalues --    1.53317   1.56856   1.58106   1.60598   1.62302
  Beta virt. eigenvalues --    1.69217   1.70488   1.74298   1.82850   1.87152
  Beta virt. eigenvalues --    1.97605   2.06527   2.09317   2.24651   2.27448
  Beta virt. eigenvalues --    2.36391   2.42168   2.46811   2.50516   2.51800
  Beta virt. eigenvalues --    2.52020   2.57432   2.60036   2.63143   2.65842
  Beta virt. eigenvalues --    2.67567   2.70596   2.76970   2.80160   2.84100
  Beta virt. eigenvalues --    2.85228   2.88367   2.91602   2.93434   2.94656
  Beta virt. eigenvalues --    2.97254   3.00725   3.02620   3.04458   3.06515
  Beta virt. eigenvalues --    3.08133   3.08285   3.09799   3.10373   3.12832
  Beta virt. eigenvalues --    3.14368   3.15013   3.15625   3.20140   3.21477
  Beta virt. eigenvalues --    3.23498   3.24406   3.25482   3.25927   3.29618
  Beta virt. eigenvalues --    3.35251   3.40580   3.42316   3.43197   3.44760
  Beta virt. eigenvalues --    3.49053   3.51920   3.52382   3.53362   3.55517
  Beta virt. eigenvalues --    3.56037   3.56763   3.57462   3.61855   3.69710
  Beta virt. eigenvalues --    3.71804   3.77203   3.78751   3.83445   3.85272
  Beta virt. eigenvalues --    3.87401   3.91394   3.93722   3.96081   3.96914
  Beta virt. eigenvalues --    3.99917   4.00682   4.01422   4.02370   4.05670
  Beta virt. eigenvalues --    4.06868   4.08436   4.09735   4.12042   4.13005
  Beta virt. eigenvalues --    4.14436   4.18337   4.19598   4.24349   4.31294
  Beta virt. eigenvalues --    4.33032   4.33909   4.34584   4.36147   4.36724
  Beta virt. eigenvalues --    4.39434   4.46660   4.59444   4.62554   4.73739
  Beta virt. eigenvalues --    4.75488   4.80163   4.85279   4.86669   4.89114
  Beta virt. eigenvalues --    4.92791   4.95371   4.96128   5.00166   5.00969
  Beta virt. eigenvalues --    5.03221   5.05500   5.15458   5.16555   5.22596
  Beta virt. eigenvalues --    5.26684   5.28758   5.35751   5.41587   5.41932
  Beta virt. eigenvalues --    5.45353   5.49720   5.49834   5.64255   5.69244
  Beta virt. eigenvalues --    5.71215   5.79051   5.87111   5.99946   6.02639
  Beta virt. eigenvalues --    6.16754   6.17528   6.24139   6.53991   6.64693
  Beta virt. eigenvalues --    6.73032   6.82153   6.91501   6.93037   7.15921
  Beta virt. eigenvalues --    7.33346   7.62038  12.60470  12.76213  12.81261
  Beta virt. eigenvalues --   13.59317
          Condensed to atoms (all electrons):
               1          2          3          4          5          6
     1  C    5.279469   0.135921   0.421694   0.418329   0.009450   0.005442
     2  O    0.135921   7.945968  -0.049592  -0.024578   0.215091  -0.000596
     3  H    0.421694  -0.049592   0.494547  -0.025838   0.006758  -0.000712
     4  H    0.418329  -0.024578  -0.025838   0.487125  -0.014680  -0.000818
     5  H    0.009450   0.215091   0.006758  -0.014680   0.612617  -0.000295
     6  C    0.005442  -0.000596  -0.000712  -0.000818  -0.000295   5.455375
     7  C   -0.009807   0.000884   0.000327   0.000617   0.000343   0.267694
     8  H   -0.000332  -0.000012   0.000016   0.000021   0.000001   0.425377
     9  H   -0.001484   0.000088   0.000007   0.000012   0.000018   0.423031
    10  H    0.000405   0.000271  -0.000068   0.000090  -0.000098  -0.028142
    11  H    0.000924  -0.000107  -0.000002  -0.000008  -0.000001  -0.040857
    12  H   -0.001601   0.000320   0.000017   0.000023   0.000004  -0.027106
               7          8          9         10         11         12
     1  C   -0.009807  -0.000332  -0.001484   0.000405   0.000924  -0.001601
     2  O    0.000884  -0.000012   0.000088   0.000271  -0.000107   0.000320
     3  H    0.000327   0.000016   0.000007  -0.000068  -0.000002   0.000017
     4  H    0.000617   0.000021   0.000012   0.000090  -0.000008   0.000023
     5  H    0.000343   0.000001   0.000018  -0.000098  -0.000001   0.000004
     6  C    0.267694   0.425377   0.423031  -0.028142  -0.040857  -0.027106
     7  C    4.960915  -0.028325  -0.027127   0.409605   0.394082   0.410136
     8  H   -0.028325   0.462252  -0.026649   0.003239  -0.001470  -0.006215
     9  H   -0.027127  -0.026649   0.461514  -0.005651  -0.001766   0.003323
    10  H    0.409605   0.003239  -0.005651   0.484434  -0.015375  -0.018670
    11  H    0.394082  -0.001470  -0.001766  -0.015375   0.500736  -0.017334
    12  H    0.410136  -0.006215   0.003323  -0.018670  -0.017334   0.498559
          Atomic-Atomic Spin Densities.
               1          2          3          4          5          6
     1  C   -1.070772   0.167834  -0.003837  -0.002325   0.004856  -0.001213
     2  O    0.167834  -0.284988  -0.002067   0.000120  -0.004323   0.000811
     3  H   -0.003837  -0.002067   0.024720  -0.006980   0.000343  -0.000272
     4  H   -0.002325   0.000120  -0.006980   0.025334  -0.001569  -0.000428
     5  H    0.004856  -0.004323   0.000343  -0.001569   0.005532  -0.000173
     6  C   -0.001213   0.000811  -0.000272  -0.000428  -0.000173   1.066836
     7  C    0.006035  -0.002223  -0.000074  -0.000080   0.000053  -0.055990
     8  H    0.000071  -0.000015  -0.000003  -0.000005   0.000000   0.007134
     9  H    0.000989  -0.000171  -0.000007  -0.000019  -0.000004   0.007634
    10  H   -0.001414   0.000335   0.000044   0.000048   0.000035  -0.008083
    11  H   -0.000075   0.000061   0.000000  -0.000001  -0.000002  -0.031463
    12  H    0.000621  -0.000097  -0.000030   0.000002   0.000000  -0.008316
               7          8          9         10         11         12
     1  C    0.006035   0.000071   0.000989  -0.001414  -0.000075   0.000621
     2  O   -0.002223  -0.000015  -0.000171   0.000335   0.000061  -0.000097
     3  H   -0.000074  -0.000003  -0.000007   0.000044   0.000000  -0.000030
     4  H   -0.000080  -0.000005  -0.000019   0.000048  -0.000001   0.000002
     5  H    0.000053   0.000000  -0.000004   0.000035  -0.000002   0.000000
     6  C   -0.055990   0.007134   0.007634  -0.008083  -0.031463  -0.008316
     7  C   -0.030179   0.004315   0.004127   0.009065   0.020555   0.009274
     8  H    0.004315  -0.034621   0.005524   0.000038  -0.001010   0.000802
     9  H    0.004127   0.005524  -0.034883   0.000796  -0.000846   0.000001
    10  H    0.009065   0.000038   0.000796   0.016223  -0.007674   0.001456
    11  H    0.020555  -0.001010  -0.000846  -0.007674   0.090224  -0.007867
    12  H    0.009274   0.000802   0.000001   0.001456  -0.007867   0.017924
 Mulliken charges and spin densities:
               1          2
     1  C   -0.258410  -0.899228
     2  O   -0.223656  -0.124723
     3  H    0.152846   0.011837
     4  H    0.159705   0.014096
     5  H    0.170794   0.004750
     6  C   -0.478393   0.976478
     7  C   -0.379345  -0.035124
     8  H    0.172096  -0.017769
     9  H    0.174684  -0.016859
    10  H    0.169959   0.010868
    11  H    0.181178   0.061903
    12  H    0.158544   0.013772
 Sum of Mulliken charges =   0.00000  -0.00000
 Mulliken charges and spin densities with hydrogens summed into heavy atoms:
               1          2
     1  C    0.054141  -0.873295
     2  O   -0.052863  -0.119973
     6  C   -0.131613   0.941850
     7  C    0.130336   0.051418
 APT charges:
               1
     1  C    0.230531
     2  O   -0.580328
     3  H    0.044955
     4  H    0.027492
     5  H    0.278588
     6  C   -0.046924
     7  C    0.043759
     8  H    0.016027
     9  H    0.013715
    10  H   -0.004284
    11  H   -0.017939
    12  H   -0.005591
 Sum of APT charges =   0.00000
 APT charges with hydrogens summed into heavy atoms:
               1
     1  C    0.302978
     2  O   -0.301740
     6  C   -0.017183
     7  C    0.015945
 Electronic spatial extent (au):  <R**2>=           1146.7601
 Charge=              0.0000 electrons
 Dipole moment (field-independent basis, Debye):
    X=             -1.1400    Y=              0.4137    Z=              0.0407  Tot=              1.2135
 Quadrupole moment (field-independent basis, Debye-Ang):
   XX=            -24.6618   YY=            -28.6077   ZZ=            -26.9983
   XY=             -1.6320   XZ=             -3.6645   YZ=             -0.4339
 Traceless Quadrupole moment (field-independent basis, Debye-Ang):
   XX=              2.0941   YY=             -1.8518   ZZ=             -0.2423
   XY=             -1.6320   XZ=             -3.6645   YZ=             -0.4339
 Octapole moment (field-independent basis, Debye-Ang**2):
  XXX=             12.8225  YYY=            164.4564  ZZZ=             27.1446  XYY=              9.6443
  XXY=             54.7781  XXZ=             12.2683  XZZ=              0.5737  YZZ=             54.2205
  YYZ=             12.0710  XYZ=              2.4566
 Hexadecapole moment (field-independent basis, Debye-Ang**3):
 XXXX=            -89.1744 YYYY=          -1288.0674 ZZZZ=           -236.4289 XXXY=            -41.8822
 XXXZ=            -29.6884 YYYX=            -69.0726 YYYZ=           -206.1866 ZZZX=            -34.4630
 ZZZY=           -179.7144 XXYY=           -233.2233 XXZZ=            -53.7653 YYZZ=           -256.8879
 XXYZ=            -64.4508 YYXZ=            -19.9271 ZZXY=            -18.9980
 N-N= 1.074881132345D+02 E-N=-6.678161536787D+02  KE= 1.929782113620D+02
  Exact polarizability:  47.835  -0.663  50.969   1.463   1.924  50.866
 Approx polarizability:  47.194  -0.864  44.733   0.072   0.144  49.129
                          Isotropic Fermi Contact Couplings
        Atom                 a.u.       MegaHertz       Gauss      10(-4) cm-1
     1  C(13)             -0.06658     -37.42241     -13.35325     -12.48277
     2  O(17)             -0.02218       6.72349       2.39911       2.24271
     3  H(1)               0.01074      23.99798       8.56308       8.00487
     4  H(1)               0.00936      20.91587       7.46330       6.97678
     5  H(1)               0.00234       5.21883       1.86221       1.74081
     6  C(13)              0.02145      12.05917       4.30301       4.02251
     7  C(13)             -0.02841     -15.96866      -5.69802      -5.32657
     8  H(1)              -0.01362     -30.43660     -10.86053     -10.15256
     9  H(1)              -0.01374     -30.69795     -10.95379     -10.23974
    10  H(1)               0.00755      16.86285       6.01708       5.62484
    11  H(1)               0.03154      70.49088      25.15290      23.51323
    12  H(1)               0.00795      17.76869       6.34031       5.92700
 --------------------------------------------------------
       Center         ----  Spin Dipole Couplings  ----
                      3XX-RR        3YY-RR        3ZZ-RR
 --------------------------------------------------------
     1   Atom        0.433456     -0.944924      0.511468
     2   Atom        0.377595     -0.820642      0.443048
     3   Atom       -0.052575      0.003186      0.049389
     4   Atom       -0.023395     -0.008004      0.031398
     5   Atom       -0.025330      0.015213      0.010117
     6   Atom       -0.484145      1.030739     -0.546595
     7   Atom        0.002550      0.005898     -0.008448
     8   Atom       -0.070441     -0.001945      0.072386
     9   Atom        0.045487     -0.001000     -0.044487
    10   Atom        0.002868     -0.016833      0.013965
    11   Atom        0.001577      0.002481     -0.004058
    12   Atom        0.018073     -0.012251     -0.005822
 --------------------------------------------------------
                        XY            XZ            YZ
 --------------------------------------------------------
     1   Atom       -0.346069     -0.040307     -0.168856
     2   Atom       -0.235735     -0.017072     -0.152733
     3   Atom       -0.001371      0.045888     -0.008819
     4   Atom        0.017446     -0.057712      0.018746
     5   Atom        0.008402      0.029156     -0.006351
     6   Atom        0.339353      0.022496      0.118330
     7   Atom       -0.001138      0.012190     -0.005520
     8   Atom        0.015380     -0.007897     -0.002332
     9   Atom       -0.004092     -0.058326      0.012092
    10   Atom        0.001458      0.010947     -0.000634
    11   Atom       -0.009174      0.007885     -0.007652
    12   Atom        0.000155      0.004517     -0.001545
 --------------------------------------------------------


 ---------------------------------------------------------------------------------
              Anisotropic Spin Dipole Couplings in Principal Axis System
 ---------------------------------------------------------------------------------

       Atom             a.u.   MegaHertz   Gauss  10(-4) cm-1        Axes

              Baa    -1.0463  -140.401   -50.098   -46.833  0.2292  0.9671  0.1108
     1 C(13)  Bbb     0.5155    69.170    24.681    23.073  0.9724 -0.2326  0.0183
              Bcc     0.5308    71.231    25.417    23.760 -0.0435 -0.1035  0.9937
 
              Baa    -0.8831    63.898    22.800    21.314  0.1841  0.9762  0.1148
     2 O(17)  Bbb     0.4191   -30.324   -10.820   -10.115  0.9524 -0.1483 -0.2664
              Bcc     0.4640   -33.574   -11.980   -11.199  0.2430 -0.1584  0.9570
 
              Baa    -0.0702   -37.473   -13.371   -12.500  0.9327 -0.0258 -0.3597
     3 H(1)   Bbb     0.0021     1.100     0.393     0.367  0.0718  0.9908  0.1150
              Bcc     0.0682    36.373    12.979    12.133  0.3534 -0.1331  0.9259
 
              Baa    -0.0698   -37.268   -13.298   -12.431  0.7746 -0.3733  0.5106
     4 H(1)   Bbb     0.0014     0.730     0.261     0.244  0.3639  0.9233  0.1230
              Bcc     0.0685    36.537    13.037    12.188 -0.5173  0.0906  0.8510
 
              Baa    -0.0436   -23.252    -8.297    -7.756  0.8564 -0.1749 -0.4857
     5 H(1)   Bbb     0.0169     8.998     3.211     3.001  0.2214  0.9744  0.0397
              Bcc     0.0267    14.254     5.086     4.755  0.4663 -0.1415  0.8732
 
              Baa    -0.5588   -74.989   -26.758   -25.014  0.7608 -0.2082  0.6147
     6 C(13)  Bbb    -0.5532   -74.234   -26.489   -24.762 -0.6146  0.0730  0.7855
              Bcc     1.1120   149.223    53.247    49.776  0.2084  0.9754  0.0724
 
              Baa    -0.0170    -2.287    -0.816    -0.763 -0.5125  0.1767  0.8403
     7 C(13)  Bbb     0.0042     0.561     0.200     0.187  0.5320  0.8335  0.1491
              Bcc     0.0129     1.726     0.616     0.576  0.6741 -0.5234  0.5212
 
              Baa    -0.0741   -39.533   -14.106   -13.187  0.9772 -0.2067  0.0494
     8 H(1)   Bbb     0.0011     0.606     0.216     0.202  0.2040  0.9774  0.0546
              Bcc     0.0730    38.927    13.890    12.985 -0.0596 -0.0433  0.9973
 
              Baa    -0.0743   -39.635   -14.143   -13.221  0.4311 -0.1234  0.8938
     9 H(1)   Bbb    -0.0009    -0.505    -0.180    -0.168  0.1605  0.9853  0.0586
              Bcc     0.0752    40.140    14.323    13.389  0.8879 -0.1182 -0.4445
 
              Baa    -0.0170    -9.082    -3.241    -3.030 -0.1043  0.9929  0.0572
    10 H(1)   Bbb    -0.0037    -1.957    -0.698    -0.653  0.8455  0.1187 -0.5206
              Bcc     0.0207    11.040     3.939     3.682  0.5237  0.0060  0.8519
 
              Baa    -0.0098    -5.255    -1.875    -1.753 -0.4181  0.2336  0.8778
    11 H(1)   Bbb    -0.0071    -3.790    -1.352    -1.264  0.6666  0.7354  0.1218
              Bcc     0.0170     9.045     3.228     3.017 -0.6171  0.6361 -0.4632
 
              Baa    -0.0127    -6.750    -2.409    -2.252 -0.0411  0.9683  0.2463
    12 H(1)   Bbb    -0.0062    -3.333    -1.189    -1.112 -0.1753 -0.2497  0.9523
              Bcc     0.0189    10.083     3.598     3.363  0.9837 -0.0040  0.1800
 

 ---------------------------------------------------------------------------------

 FrcOut:
 IF    =   646 IFX   =   711 IFXYZ =   747
 IFFX  =   783 IFFFX =  1449 IFLen =    65
 IFFLen=   666 IFFFLn=     0 IEDerv=  1449
 LEDerv=  1781 IFroze=  3636 ICStrt=147961
 DipoleDeriv   = 1.60430553D-01-1.50958871D-01-7.75465802D-02
                -1.35819013D-01-3.19835850D-01-4.40197605D-02
                -8.65595602D-02 2.08919199D-02 8.50998014D-01
                -2.65145993D-01 3.00396248D-02 1.12197101D-01
                 2.74008369D-02-3.35584816D-01-7.43940156D-02
                 1.07471265D-01-1.01522144D-01-1.14025448D+00
                -5.05831903D-02 2.18826123D-02 5.48026183D-02
                 3.35510530D-03 1.71565937D-01 3.11126014D-02
                -4.06816974D-04 2.49073993D-02 1.38834757D-02
                -2.61462038D-02 8.83004082D-02-4.95115917D-02
                 9.76779372D-02 1.32792454D-01 5.74725257D-02
                 3.95887299D-03 3.62394153D-02-2.41710538D-02
                 1.88517761D-01 5.58830248D-03-4.35227488D-02
                 5.38170499D-03 3.45223575D-01 2.65050292D-02
                -2.78911709D-02 1.22759857D-02 3.02024004D-01
                 8.82130681D-02-1.10013493D-01-1.15096125D-02
                -1.15633579D-01-3.46869975D-01-4.36048235D-02
                -4.72571706D-03-3.09227367D-02 1.17883693D-01
                 2.29363367D-02 3.15682639D-02-8.14027319D-03
                 6.48493031D-02 9.10322345D-02 2.49467495D-02
                -1.42065273D-02 2.28489582D-02 1.73092901D-02
                 1.18165229D-02 2.84433074D-02 3.32588064D-03
                 2.94995488D-02 1.43085940D-01 1.11171200D-02
                -2.89630950D-02 1.08399195D-02-1.06821729D-01
                -9.33577817D-02 4.33299915D-02 1.96564823D-02
                 3.93879145D-02 1.39033849D-01 1.10609755D-02
                 4.89453514D-02 4.63994838D-03-4.53247487D-03
                 3.08508071D-02 2.34566978D-02-4.67604372D-04
                -2.78071711D-03 6.65791662D-02-7.63671946D-02
                -2.22679773D-02-6.59871715D-02-1.10283324D-01
                 3.78954476D-02 2.20158471D-02-3.48024893D-02
                 5.52348080D-02-1.55377885D-01 4.31043805D-02
                -3.66553877D-02 2.26575763D-02 6.36649968D-02
                -1.05427327D-01-3.36526918D-02 3.55188178D-02
                -6.85538493D-02 6.83553710D-02 3.30664123D-02
                 6.13007634D-02 4.31309296D-02 2.02995842D-02
 VibFq2-Diag1:  N=     36 IV=          13 MDV=   419277667 NE2=    11646601
 Full mass-weighted force constant matrix:
 Low frequencies ---  -60.2767  -12.8116    0.0006    0.0009    0.0015   11.8078
 Low frequencies ---   13.4484   16.3246   30.0243
 OrtVCM:  Ph=1 IPass= 1 DotMx1= 0.00D+00
 OrtVCM:  IS=    1 I=    1 IndO=    1 Dot= 1.00D+00 DotN= 1.00D+00 ElMax1= 5.16D-01 ElMax1N= 5.16D-01
 OrtVCM:  Ph=2 NNew=    0 IAdd=    2 IPass= 1 DotMx2= 0.00D+00
 OrtVCM:  IS=    1 I=    2 IndO=    2 Dot= 1.00D+00 DotN= 1.00D+00 ElMax1= 5.16D-01 ElMax1N= 5.16D-01
 OrtVCM:  Ph=2 NNew=    0 IAdd=    3 IPass= 1 DotMx2= 0.00D+00
 OrtVCM:  IS=    1 I=    3 IndO=    3 Dot= 1.00D+00 DotN= 1.00D+00 ElMax1= 5.16D-01 ElMax1N= 5.16D-01
 OrtVCM:  Ph=2 NNew=    0 IAdd=    4 IPass= 1 DotMx2= 1.11D-16
 OrtVCM:  IS=    1 I=    4 IndO=    4 Dot= 1.00D+00 DotN= 1.00D+00 ElMax1= 3.78D-01 ElMax1N= 3.78D-01
 OrtVCM:  Ph=2 NNew=    0 IAdd=    5 IPass= 1 DotMx2= 1.53D-16
 OrtVCM:  IS=    1 I=    5 IndO=    5 Dot= 1.00D+00 DotN= 1.00D+00 ElMax1= 4.61D-01 ElMax1N= 4.61D-01
 OrtVCM:  Ph=2 NNew=    0 IAdd=    6 IPass= 1 DotMx2= 2.50D-16
 OrtVCM:  IS=    1 I=    6 IndO=    6 Dot= 1.00D+00 DotN= 1.00D+00 ElMax1= 3.70D-01 ElMax1N= 3.70D-01
 OrtVCM:  Ph=1 IPass= 1 DotMx1= 5.16D-01
 OrtVCM:  Ph=1 IPass= 2 DotMx1= 1.70D-16
 OrtVCM:  IS=    1 I=    1 IndO=    7 Dot= 5.42D-01 DotN= 5.42D-01 ElMax1= 5.42D-01 ElMax1N= 5.42D-01
 OrtVCM:  Ph=2 NNew=    0 IAdd=    2 IPass= 1 DotMx2= 3.53D-02
 OrtVCM:  Ph=2 NNew=    0 IAdd=    2 IPass= 2 DotMx2= 0.00D+00
 OrtVCM:  IS=    1 I=    2 IndO=    8 Dot= 7.95D-01 DotN= 7.95D-01 ElMax1= 7.95D-01 ElMax1N= 7.95D-01
 OrtVCM:  Ph=2 NNew=    0 IAdd=    3 IPass= 1 DotMx2= 1.74D-02
 OrtVCM:  Ph=2 NNew=    0 IAdd=    3 IPass= 2 DotMx2= 1.39D-17
 OrtVCM:  IS=    1 I=    3 IndO=    9 Dot= 6.67D-01 DotN= 6.67D-01 ElMax1= 6.67D-01 ElMax1N= 6.67D-01
 OrtVCM:  Ph=2 NNew=    0 IAdd=    4 IPass= 1 DotMx2= 4.03D-01
 OrtVCM:  Ph=2 NNew=    0 IAdd=    4 IPass= 2 DotMx2= 1.04D-17
 OrtVCM:  IS=    1 I=    4 IndO=   10 Dot= 1.68D-01 DotN= 1.68D-01 ElMax1= 2.22D-01 ElMax1N= 2.22D-01
 OrtVCM:  Ph=2 NNew=    0 IAdd=    5 IPass= 1 DotMx2= 2.75D-01
 OrtVCM:  Ph=2 NNew=    0 IAdd=    5 IPass= 2 DotMx2= 1.11D-16
 OrtVCM:  IS=    1 I=    5 IndO=   11 Dot= 4.97D-01 DotN= 4.97D-01 ElMax1= 4.97D-01 ElMax1N= 4.97D-01
 OrtVCM:  Ph=2 NNew=    0 IAdd=    6 IPass= 1 DotMx2= 4.71D-01
 OrtVCM:  Ph=2 NNew=    0 IAdd=    6 IPass= 2 DotMx2= 8.33D-17
 OrtVCM:  IS=    1 I=    6 IndO=   12 Dot= 2.18D-01 DotN= 2.18D-01 ElMax1= 2.18D-01 ElMax1N= 2.18D-01
 OrtVCM:  Ph=2 NNew=    0 IAdd=    7 IPass= 1 DotMx2= 3.51D-01
 OrtVCM:  Ph=2 NNew=    0 IAdd=    7 IPass= 2 DotMx2= 5.55D-17
 OrtVCM:  IS=    1 I=    7 IndO=   13 Dot= 7.83D-01 DotN= 7.83D-01 ElMax1= 7.83D-01 ElMax1N= 7.83D-01
 OrtVCM:  Ph=2 NNew=    0 IAdd=    8 IPass= 1 DotMx2= 1.22D-01
 OrtVCM:  Ph=2 NNew=    0 IAdd=    8 IPass= 2 DotMx2= 3.82D-17
 OrtVCM:  IS=    1 I=    8 IndO=   14 Dot= 9.27D-01 DotN= 9.27D-01 ElMax1= 9.27D-01 ElMax1N= 9.27D-01
 OrtVCM:  Ph=2 NNew=    0 IAdd=    9 IPass= 1 DotMx2= 4.41D-01
 OrtVCM:  Ph=2 NNew=    0 IAdd=    9 IPass= 2 DotMx2= 1.67D-16
 OrtVCM:  IS=    1 I=    9 IndO=   15 Dot= 7.14D-01 DotN= 7.14D-01 ElMax1= 7.14D-01 ElMax1N= 7.14D-01
 OrtVCM:  Ph=2 NNew=    0 IAdd=   10 IPass= 1 DotMx2= 3.69D-01
 OrtVCM:  Ph=2 NNew=    0 IAdd=   10 IPass= 2 DotMx2= 1.32D-16
 OrtVCM:  IS=    1 I=   10 IndO=   16 Dot= 6.41D-01 DotN= 6.41D-01 ElMax1= 6.41D-01 ElMax1N= 6.41D-01
 OrtVCM:  Ph=2 NNew=    0 IAdd=   11 IPass= 1 DotMx2= 1.03D-01
 OrtVCM:  Ph=2 NNew=    0 IAdd=   11 IPass= 2 DotMx2= 4.16D-17
 OrtVCM:  IS=    1 I=   11 IndO=   17 Dot= 9.53D-01 DotN= 9.53D-01 ElMax1= 9.53D-01 ElMax1N= 9.53D-01
 OrtVCM:  Ph=2 NNew=    0 IAdd=   12 IPass= 1 DotMx2= 4.45D-01
 OrtVCM:  Ph=2 NNew=    0 IAdd=   12 IPass= 2 DotMx2= 9.71D-17
 OrtVCM:  IS=    1 I=   12 IndO=   18 Dot= 6.49D-01 DotN= 6.49D-01 ElMax1= 6.49D-01 ElMax1N= 6.49D-01
 OrtVCM:  Ph=2 NNew=    0 IAdd=   13 IPass= 1 DotMx2= 5.43D-01
 OrtVCM:  Ph=2 NNew=    0 IAdd=   13 IPass= 2 DotMx2= 2.36D-16
 OrtVCM:  IS=    1 I=   13 IndO=   19 Dot= 3.86D-01 DotN= 3.86D-01 ElMax1= 3.86D-01 ElMax1N= 3.86D-01
 OrtVCM:  Ph=2 NNew=    0 IAdd=   14 IPass= 1 DotMx2= 2.90D-01
 OrtVCM:  Ph=2 NNew=    0 IAdd=   14 IPass= 2 DotMx2= 1.39D-16
 OrtVCM:  IS=    1 I=   14 IndO=   20 Dot= 6.41D-01 DotN= 6.41D-01 ElMax1= 6.41D-01 ElMax1N= 6.41D-01
 OrtVCM:  Ph=2 NNew=    0 IAdd=   15 IPass= 1 DotMx2= 4.47D-01
 OrtVCM:  Ph=2 NNew=    0 IAdd=   15 IPass= 2 DotMx2= 1.11D-16
 OrtVCM:  IS=    1 I=   15 IndO=   21 Dot= 3.20D-01 DotN= 3.20D-01 ElMax1= 3.20D-01 ElMax1N= 3.20D-01
 OrtVCM:  Ph=2 NNew=    0 IAdd=   16 IPass= 1 DotMx2= 1.77D-01
 OrtVCM:  Ph=2 NNew=    0 IAdd=   16 IPass= 2 DotMx2= 9.02D-17
 OrtVCM:  IS=    1 I=   16 IndO=   22 Dot= 4.77D-01 DotN= 4.77D-01 ElMax1= 4.77D-01 ElMax1N= 4.77D-01
 OrtVCM:  Ph=2 NNew=    0 IAdd=   17 IPass= 1 DotMx2= 2.62D-01
 OrtVCM:  Ph=2 NNew=    0 IAdd=   17 IPass= 2 DotMx2= 1.32D-16
 OrtVCM:  IS=    1 I=   17 IndO=   23 Dot= 2.76D-01 DotN= 2.76D-01 ElMax1= 2.77D-01 ElMax1N= 2.77D-01
 OrtVCM:  Ph=2 NNew=    0 IAdd=   18 IPass= 1 DotMx2= 2.24D-01
 OrtVCM:  Ph=2 NNew=    0 IAdd=   18 IPass= 2 DotMx2= 9.71D-17
 OrtVCM:  IS=    1 I=   18 IndO=   24 Dot= 3.38D-01 DotN= 3.38D-01 ElMax1= 3.38D-01 ElMax1N= 3.38D-01
 OrtVCM:  Ph=2 NNew=    0 IAdd=   19 IPass= 1 DotMx2= 4.53D-01
 OrtVCM:  Ph=2 NNew=    0 IAdd=   19 IPass= 2 DotMx2= 2.08D-16
 OrtVCM:  IS=    1 I=   19 IndO=   25 Dot= 2.86D-01 DotN= 2.86D-01 ElMax1= 2.86D-01 ElMax1N= 2.86D-01
 OrtVCM:  Ph=2 NNew=    0 IAdd=   20 IPass= 1 DotMx2= 3.51D-01
 OrtVCM:  Ph=2 NNew=    0 IAdd=   20 IPass= 2 DotMx2= 1.11D-16
 OrtVCM:  IS=    1 I=   20 IndO=   26 Dot= 2.62D-01 DotN= 2.62D-01 ElMax1= 2.62D-01 ElMax1N= 2.62D-01
 OrtVCM:  Ph=2 NNew=    0 IAdd=   21 IPass= 1 DotMx2= 3.16D-01
 OrtVCM:  Ph=2 NNew=    0 IAdd=   21 IPass= 2 DotMx2= 5.20D-17
 OrtVCM:  IS=    1 I=   21 IndO=   27 Dot= 2.74D-01 DotN= 2.74D-01 ElMax1= 2.74D-01 ElMax1N= 2.74D-01
 OrtVCM:  Ph=2 NNew=    0 IAdd=   22 IPass= 1 DotMx2= 3.21D-01
 OrtVCM:  Ph=2 NNew=    0 IAdd=   22 IPass= 2 DotMx2= 1.98D-16
 OrtVCM:  IS=    1 I=   22 IndO=   28 Dot= 5.49D-01 DotN= 5.49D-01 ElMax1= 5.49D-01 ElMax1N= 5.49D-01
 OrtVCM:  Ph=2 NNew=    0 IAdd=   23 IPass= 1 DotMx2= 5.25D-01
 OrtVCM:  Ph=2 NNew=    0 IAdd=   23 IPass= 2 DotMx2= 2.50D-16
 OrtVCM:  IS=    1 I=   23 IndO=   29 Dot= 3.86D-01 DotN= 3.86D-01 ElMax1= 3.86D-01 ElMax1N= 3.86D-01
 OrtVCM:  Ph=2 NNew=    0 IAdd=   24 IPass= 1 DotMx2= 3.24D-01
 OrtVCM:  Ph=2 NNew=    0 IAdd=   24 IPass= 2 DotMx2= 6.94D-17
 OrtVCM:  IS=    1 I=   24 IndO=   30 Dot= 7.24D-01 DotN= 7.24D-01 ElMax1= 7.24D-01 ElMax1N= 7.24D-01
 OrtVCM:  Ph=2 NNew=    0 IAdd=   25 IPass= 1 DotMx2= 3.59D-01
 OrtVCM:  Ph=2 NNew=    0 IAdd=   25 IPass= 2 DotMx2= 1.67D-16
 OrtVCM:  IS=    1 I=   25 IndO=   31 Dot= 6.92D-01 DotN= 6.92D-01 ElMax1= 6.92D-01 ElMax1N= 6.92D-01
 OrtVCM:  Ph=2 NNew=    0 IAdd=   26 IPass= 1 DotMx2= 5.28D-01
 OrtVCM:  Ph=2 NNew=    0 IAdd=   26 IPass= 2 DotMx2= 1.39D-16
 OrtVCM:  IS=    1 I=   26 IndO=   32 Dot= 1.90D-01 DotN= 1.90D-01 ElMax1= 2.68D-01 ElMax1N= 2.68D-01
 OrtVCM:  Ph=2 NNew=    0 IAdd=   27 IPass= 1 DotMx2= 5.12D-01
 OrtVCM:  Ph=2 NNew=    0 IAdd=   27 IPass= 2 DotMx2= 2.64D-16
 OrtVCM:  IS=    1 I=   27 IndO=   33 Dot= 1.82D-01 DotN= 1.82D-01 ElMax1= 2.24D-01 ElMax1N= 2.24D-01
 OrtVCM:  Ph=2 NNew=    0 IAdd=   28 IPass= 1 DotMx2= 5.25D-01
 OrtVCM:  Ph=2 NNew=    0 IAdd=   28 IPass= 2 DotMx2= 3.12D-16
 OrtVCM:  IS=    1 I=   28 IndO=   34 Dot= 1.62D-01 DotN= 1.62D-01 ElMax1= 2.37D-01 ElMax1N= 2.37D-01
 OrtVCM:  Ph=2 NNew=    0 IAdd=   29 IPass= 1 DotMx2= 4.77D-01
 OrtVCM:  Ph=2 NNew=    0 IAdd=   29 IPass= 2 DotMx2= 1.25D-16
 OrtVCM:  IS=    1 I=   29 IndO=   35 Dot= 4.01D-01 DotN= 4.01D-01 ElMax1= 4.01D-01 ElMax1N= 4.01D-01
 OrtVCM:  Ph=2 NNew=    0 IAdd=   30 IPass= 1 DotMx2= 5.89D-01
 OrtVCM:  Ph=2 NNew=    0 IAdd=   30 IPass= 2 DotMx2= 6.14D-17
 OrtVCM:  IS=    1 I=   30 IndO=    0 Dot= 2.99D-30 DotN= 2.99D-30 ElMax1= 8.85D-16 ElMax1N= 8.85D-16
 SchOr2:  IPass= 1 Test2A= 1.00D-01 IOff=     0 NDo=    30 NNew=    29
 OrtVCM:  Ph=1 IPass= 1 DotMx1= 6.14D-01
 OrtVCM:  Ph=1 IPass= 2 DotMx1= 3.50D-16
 OrtVCM:  IS=    1 I=    1 IndO=   36 Dot= 1.16D-01 DotN= 1.16D-01 ElMax1= 1.95D-01 ElMax1N= 1.95D-01
 SchOr2:  IPass= 1 Test2A= 1.00D-01 IOff=    30 NDo=     1 NNew=     1
 VibFq2-Diag2:  N=     30 IV=          13 MDV=   419277667 NE2=    13975921
 ******    2 imaginary frequencies (negative Signs) ****** 
 Dipole derivatives wrt mode   1: -2.09228D-02 -1.39247D-01 -4.53575D-02
 Vibrational polarizability contributions from mode   1       0.0032446       0.1437119       0.0152482
 Vibrational hyperpolarizability contributions from mode   1      -0.0000000      -0.0000000      -0.0000000
 Dipole derivatives wrt mode   2: -8.28064D-02 -6.25416D-01 -1.11308D+00
 Vibrational polarizability contributions from mode   2       4.6565715     265.6293709     841.3758474
 Vibrational hyperpolarizability contributions from mode   2      -0.0000000      -0.0000000      -0.0000000
 Dipole derivatives wrt mode   3:  2.17912D-01 -4.06735D-01 -1.54373D+00
 Vibrational polarizability contributions from mode   3       2.1180692       7.3791060     106.2979626
 Vibrational hyperpolarizability contributions from mode   3       0.0000000      -0.0000000      -0.0000000
 Dipole derivatives wrt mode   4: -2.53769D-01 -3.55717D-01  4.28261D-01
 Vibrational polarizability contributions from mode   4       1.1595085       2.2782746       3.3022736
 Vibrational hyperpolarizability contributions from mode   4      -0.0000000      -0.0000000       0.0000000
 Dipole derivatives wrt mode   5:  1.06348D+00  3.68691D+00  3.76325D-01
 Vibrational polarizability contributions from mode   5       8.5536169     102.8060271       1.0710783
 Vibrational hyperpolarizability contributions from mode   5       0.0000000       0.0000000       0.0000000
 Dipole derivatives wrt mode   6:  1.44292D+00  4.24049D+00  3.14404D-01
 Vibrational polarizability contributions from mode   6       9.6331516      83.1981055       0.4573599
 Vibrational hyperpolarizability contributions from mode   6       0.0000000       0.0000000       0.0000000
 Dipole derivatives wrt mode   7:  3.79513D-02  2.58257D-01  6.21915D-02
 Vibrational polarizability contributions from mode   7       0.0023940       0.1108607       0.0064289
 Vibrational hyperpolarizability contributions from mode   7       0.0000000       0.0000000       0.0000000
 Dipole derivatives wrt mode   8: -8.54348D-01  5.99094D+00  7.62246D-02
 Vibrational polarizability contributions from mode   8       0.1121872       5.5164916       0.0008930
 Vibrational hyperpolarizability contributions from mode   8      -0.0000000       0.0000000       0.0000000
 Dipole derivatives wrt mode   9: -1.52724D+00 -7.87294D+00 -6.55156D-01
 Vibrational polarizability contributions from mode   9       0.2702448       7.1815048       0.0497314
 Vibrational hyperpolarizability contributions from mode   9      -0.0000000      -0.0000000      -0.0000000
 Dipole derivatives wrt mode  10:  1.73594D+00  1.04239D+01  1.48622D+00
 Vibrational polarizability contributions from mode  10       0.2750761       9.9183332       0.2016270
 Vibrational hyperpolarizability contributions from mode  10       0.0000000       0.0000000       0.0000000
 Dipole derivatives wrt mode  11: -6.88225D-01  1.17123D-01  1.05665D+00
 Vibrational polarizability contributions from mode  11       0.0189913       0.0005500       0.0447669
 Vibrational hyperpolarizability contributions from mode  11      -0.0000000       0.0000000       0.0000000
 Dipole derivatives wrt mode  12:  5.91467D-01 -6.80622D-01  1.16985D-01
 Vibrational polarizability contributions from mode  12       0.0097324       0.0128875       0.0003807
 Vibrational hyperpolarizability contributions from mode  12       0.0000000      -0.0000000       0.0000000
 Dipole derivatives wrt mode  13:  6.18280D-01 -5.47945D-01 -6.80785D+00
 Vibrational polarizability contributions from mode  13       0.0090350       0.0070963       1.0954111
 Vibrational hyperpolarizability contributions from mode  13       0.0000000      -0.0000000      -0.0000000
 Dipole derivatives wrt mode  14:  2.00707D-01 -2.35950D-02 -4.43341D-02
 Vibrational polarizability contributions from mode  14       0.0009350       0.0000129       0.0000456
 Vibrational hyperpolarizability contributions from mode  14       0.0000000      -0.0000000      -0.0000000
 Dipole derivatives wrt mode  15: -7.79415D-01  9.22880D-02  1.40952D+00
 Vibrational polarizability contributions from mode  15       0.0113808       0.0001596       0.0372201
 Vibrational hyperpolarizability contributions from mode  15      -0.0000000       0.0000000       0.0000000
 Dipole derivatives wrt mode  16: -4.90640D-01  5.82221D-01  1.05342D+01
 Vibrational polarizability contributions from mode  16       0.0042620       0.0060016       1.9646773
 Vibrational hyperpolarizability contributions from mode  16      -0.0000000       0.0000000       0.0000000
 Dipole derivatives wrt mode  17: -1.94017D+00  6.04583D-01 -4.78770D+00
 Vibrational polarizability contributions from mode  17       0.0541772       0.0052607       0.3299062
 Vibrational hyperpolarizability contributions from mode  17      -0.0000000       0.0000000      -0.0000000
 Dipole derivatives wrt mode  18: -1.10683D+00  1.17291D+00 -6.24322D-01
 Vibrational polarizability contributions from mode  18       0.0166567       0.0187049       0.0052996
 Vibrational hyperpolarizability contributions from mode  18      -0.0000000       0.0000000      -0.0000000
 Dipole derivatives wrt mode  19: -1.65082D-01  2.06236D+00  1.70886D-01
 Vibrational polarizability contributions from mode  19       0.0003389       0.0528937       0.0003631
 Vibrational hyperpolarizability contributions from mode  19      -0.0000000       0.0000000       0.0000000
 Dipole derivatives wrt mode  20:  1.33485D+00 -1.73570D-01 -2.30665D+00
 Vibrational polarizability contributions from mode  20       0.0216788       0.0003665       0.0647336
 Vibrational hyperpolarizability contributions from mode  20       0.0000000      -0.0000000      -0.0000000
 Dipole derivatives wrt mode  21:  6.00008D-01  2.12466D+00  6.71710D-01
 Vibrational polarizability contributions from mode  21       0.0043673       0.0547613       0.0054734
 Vibrational hyperpolarizability contributions from mode  21       0.0000000       0.0000000       0.0000000
 Dipole derivatives wrt mode  22: -3.83378D-01  3.69607D-01  2.97543D+00
 Vibrational polarizability contributions from mode  22       0.0017725       0.0016474       0.1067634
 Vibrational hyperpolarizability contributions from mode  22      -0.0000000       0.0000000       0.0000000
 Dipole derivatives wrt mode  23:  2.53638D+00 -4.42872D+00  1.70546D+00
 Vibrational polarizability contributions from mode  23       0.0194662       0.0593485       0.0088011
 Vibrational hyperpolarizability contributions from mode  23       0.0000000      -0.0000000       0.0000000
 Dipole derivatives wrt mode  24:  3.04183D+00  2.83946D+00  1.70202D+00
 Vibrational polarizability contributions from mode  24       0.0264345       0.0230340       0.0082762
 Vibrational hyperpolarizability contributions from mode  24       0.0000000       0.0000000       0.0000000
 Dipole derivatives wrt mode  25:  2.28323D+00 -2.64665D-01 -3.36554D+00
 Vibrational polarizability contributions from mode  25       0.0144448       0.0001941       0.0313851
 Vibrational hyperpolarizability contributions from mode  25       0.0000000      -0.0000000      -0.0000000
 Dipole derivatives wrt mode  26:  4.71571D-01 -6.78460D-01  4.03698D+00
 Vibrational polarizability contributions from mode  26       0.0006040       0.0012503       0.0442654
 Vibrational hyperpolarizability contributions from mode  26       0.0000000      -0.0000000       0.0000000
 Dipole derivatives wrt mode  27: -3.16412D+00  6.52746D-01 -2.10007D+00
 Vibrational polarizability contributions from mode  27       0.0269325       0.0011462       0.0118642
 Vibrational hyperpolarizability contributions from mode  27      -0.0000000       0.0000000      -0.0000000
 Dipole derivatives wrt mode  28: -1.98771D+00  3.60412D-01  3.13761D+00
 Vibrational polarizability contributions from mode  28       0.0099740       0.0003279       0.0248522
 Vibrational hyperpolarizability contributions from mode  28      -0.0000000       0.0000000       0.0000000
 Dipole derivatives wrt mode  29: -2.78530D+00  9.62362D-01  1.41779D-01
 Vibrational polarizability contributions from mode  29       0.0192866       0.0023024       0.0000500
 Vibrational hyperpolarizability contributions from mode  29      -0.0000000       0.0000000       0.0000000
 Dipole derivatives wrt mode  30: -6.10080D+00  1.18995D+00  5.17549D+00
 Vibrational polarizability contributions from mode  30       0.0653485       0.0024861       0.0470289
 Vibrational hyperpolarizability contributions from mode  30      -0.0000000       0.0000000       0.0000000
 Diagonal vibrational polarizability:
       27.1198833     484.4122186     956.6100144
 NorSel:  MapVib=      1      2      3      4      5      6      7      8      9     10
 NorSel:  MapVib=     11     12     13     14     15     16     17     18     19     20
 NorSel:  MapVib=     21     22     23     24     25     26     27     28     29     30
 Harmonic frequencies (cm**-1), IR intensities (KM/Mole), Raman scattering
 activities (A**4/AMU), depolarization ratios for plane and unpolarized
 incident light, reduced masses (AMU), force constants (mDyne/A),
 and normal coordinates:
                      1                      2                      3
                      A                      A                      A
 Frequencies --    -60.2569                -6.2950                24.5627
 Red. masses --      3.2545                 3.5438                 2.5224
 Frc consts  --      0.0070                 0.0001                 0.0009
 IR Inten    --  0.2188E-01              1.637                  2.596    
  Atom  AN      X      Y      Z        X      Y      Z        X      Y      Z
     1   6     0.09   0.19   0.09     0.04  -0.16   0.09     0.21   0.02  -0.02
     2   8     0.01   0.09   0.09    -0.06   0.30   0.08    -0.16  -0.09  -0.03
     3   1     0.11   0.30   0.14     0.08  -0.25   0.17     0.32   0.13   0.25
     4   1     0.08   0.15   0.07     0.07  -0.39  -0.12     0.33   0.00  -0.21
     5   1    -0.02   0.00   0.04    -0.09   0.35  -0.03    -0.25  -0.19  -0.27
     6   6    -0.07  -0.32  -0.15    -0.02   0.00   0.02    -0.10   0.00   0.14
     7   6    -0.03   0.02  -0.04     0.05  -0.17  -0.17     0.07   0.07  -0.07
     8   1    -0.06  -0.59  -0.16    -0.16   0.05   0.01    -0.29   0.03   0.14
     9   1    -0.08  -0.28  -0.19     0.06   0.07   0.15    -0.03  -0.08   0.31
    10   1    -0.11   0.23  -0.13     0.22  -0.24  -0.13     0.21   0.06  -0.05
    11   1     0.12   0.06   0.19    -0.04  -0.19  -0.25     0.16   0.08  -0.09
    12   1    -0.07   0.05  -0.10     0.02  -0.23  -0.26    -0.04   0.15  -0.22
                      4                      5                      6
                      A                      A                      A
 Frequencies --     38.6606                59.6512                76.2651
 Red. masses --      1.8258                 1.1370                 1.1689
 Frc consts  --      0.0016                 0.0024                 0.0040
 IR Inten    --  0.3743                  14.87                  20.16    
  Atom  AN      X      Y      Z        X      Y      Z        X      Y      Z
     1   6    -0.02   0.18  -0.00    -0.03  -0.06   0.00    -0.02   0.09  -0.00
     2   8    -0.02  -0.04  -0.00    -0.01  -0.03   0.00    -0.01  -0.02   0.00
     3   1    -0.02   0.31  -0.01    -0.04  -0.47  -0.00    -0.03  -0.37  -0.00
     4   1    -0.05   0.22   0.07     0.14   0.27   0.01     0.20   0.56   0.04
     5   1    -0.02  -0.14   0.02     0.03   0.35   0.01     0.04   0.40   0.01
     6   6     0.04   0.05   0.04    -0.00  -0.00  -0.01    -0.00  -0.02   0.02
     7   6     0.02  -0.18  -0.04     0.02   0.07  -0.01     0.01  -0.07  -0.02
     8   1    -0.06  -0.08   0.03    -0.11  -0.36  -0.02     0.02   0.21   0.03
     9   1     0.12   0.36   0.12     0.07   0.32   0.05    -0.03  -0.23   0.02
    10   1     0.26   0.02  -0.11     0.15   0.34  -0.11    -0.07  -0.30   0.07
    11   1    -0.31  -0.18   0.15    -0.09   0.09   0.27     0.14  -0.08  -0.27
    12   1     0.06  -0.55  -0.21     0.02  -0.16  -0.17    -0.01   0.15   0.08
                      7                      8                      9
                      A                      A                      A
 Frequencies --    127.2417               418.4367               481.9432
 Red. masses --      1.0128                 1.1370                 1.2078
 Frc consts  --      0.0097                 0.1173                 0.1653
 IR Inten    --  0.7200E-01              36.63                  64.74    
  Atom  AN      X      Y      Z        X      Y      Z        X      Y      Z
     1   6     0.00  -0.01   0.00     0.03   0.06   0.01     0.00   0.01   0.00
     2   8     0.00   0.00   0.00    -0.01  -0.07   0.00     0.00  -0.00   0.00
     3   1    -0.00  -0.06   0.00     0.00   0.16  -0.05    -0.00  -0.04  -0.01
     4   1     0.02   0.02  -0.00    -0.23  -0.53  -0.04    -0.00  -0.01  -0.00
     5   1     0.00   0.04   0.00     0.08   0.79  -0.01    -0.00  -0.01  -0.00
     6   6    -0.00  -0.01  -0.00     0.00   0.00   0.00     0.03   0.13   0.01
     7   6     0.00   0.01  -0.00     0.00  -0.00  -0.00    -0.01  -0.00  -0.00
     8   1     0.11   0.51   0.02    -0.00   0.00   0.00    -0.12  -0.69  -0.02
     9   1    -0.11  -0.57  -0.06     0.00  -0.00   0.00    -0.10  -0.65  -0.04
    10   1     0.15   0.30  -0.11    -0.00  -0.00   0.00     0.03  -0.09   0.03
    11   1    -0.20   0.03   0.33    -0.00  -0.00  -0.00    -0.16  -0.03  -0.11
    12   1     0.02  -0.28  -0.17     0.00   0.00   0.00     0.04  -0.08   0.03
                     10                     11                     12
                      A                      A                      A
 Frequencies --    542.9695               819.2566               983.5293
 Red. masses --      1.2172                 1.0504                 1.3294
 Frc consts  --      0.2114                 0.4154                 0.7577
 IR Inten    --   113.9                  1.604                 0.8268    
  Atom  AN      X      Y      Z        X      Y      Z        X      Y      Z
     1   6    -0.02  -0.13  -0.02    -0.00   0.00  -0.00     0.00  -0.00  -0.00
     2   8     0.00   0.00  -0.00     0.00   0.00   0.00    -0.00   0.00   0.00
     3   1     0.08   0.77   0.12    -0.00   0.00  -0.00    -0.00   0.00  -0.00
     4   1     0.14   0.45   0.13    -0.00  -0.00   0.00    -0.00   0.00   0.00
     5   1     0.04   0.34   0.01    -0.00  -0.00   0.00    -0.00   0.00  -0.00
     6   6     0.00   0.01   0.00     0.03  -0.00  -0.04    -0.00  -0.09   0.00
     7   6    -0.00   0.00  -0.00     0.02  -0.00  -0.03     0.02   0.14   0.00
     8   1    -0.01  -0.03  -0.00    -0.50   0.12  -0.06     0.06   0.04   0.02
     9   1    -0.00  -0.03  -0.00     0.25  -0.09   0.45     0.04   0.04   0.05
    10   1     0.00   0.00  -0.00    -0.44   0.07  -0.08     0.15  -0.34   0.20
    11   1    -0.01  -0.00  -0.00    -0.11   0.01   0.17    -0.64   0.03  -0.43
    12   1     0.00  -0.00   0.00     0.24  -0.05   0.38     0.23  -0.35   0.09
                     13                     14                     15
                      A                      A                      A
 Frequencies --   1067.0578              1076.7466              1198.5268
 Red. masses --      1.0817                 3.1845                 1.4720
 Frc consts  --      0.7256                 2.1753                 1.2458
 IR Inten    --   47.03                 0.4281E-01              2.603    
  Atom  AN      X      Y      Z        X      Y      Z        X      Y      Z
     1   6     0.06  -0.02   0.00     0.00  -0.00  -0.00     0.00   0.00   0.00
     2   8    -0.01   0.01   0.04    -0.00   0.00   0.00    -0.00  -0.00  -0.00
     3   1    -0.16  -0.00  -0.55    -0.01  -0.00  -0.02    -0.00  -0.00  -0.00
     4   1    -0.20   0.10   0.47    -0.01   0.00   0.02    -0.00  -0.00   0.00
     5   1    -0.22   0.01  -0.59    -0.01  -0.00  -0.02     0.00  -0.00  -0.00
     6   6    -0.00   0.00  -0.00     0.26  -0.07   0.18    -0.07   0.01   0.11
     7   6     0.00  -0.00   0.00    -0.25   0.06  -0.17     0.08  -0.01  -0.13
     8   1    -0.01   0.00  -0.00     0.38  -0.08   0.20     0.43  -0.13   0.13
     9   1    -0.00   0.00  -0.00     0.33  -0.08   0.28    -0.28   0.11  -0.35
    10   1     0.00  -0.00   0.00    -0.36   0.14  -0.21    -0.44   0.02  -0.15
    11   1     0.01  -0.00   0.00    -0.13   0.06  -0.09    -0.16   0.01   0.25
    12   1     0.00  -0.00   0.00    -0.33   0.14  -0.26     0.32  -0.00   0.35
                     16                     17                     18
                      A                      A                      A
 Frequencies --   1232.8790              1367.4093              1406.8640
 Red. masses --      4.8527                 1.2814                 1.1915
 Frc consts  --      4.3459                 1.4117                 1.3895
 IR Inten    --   111.5                  27.05                  2.991    
  Atom  AN      X      Y      Z        X      Y      Z        X      Y      Z
     1   6     0.02  -0.01   0.40    -0.11   0.02   0.05     0.00   0.00  -0.00
     2   8    -0.01   0.01  -0.37     0.08  -0.01   0.01    -0.00   0.00   0.00
     3   1    -0.03  -0.07   0.33     0.03   0.01   0.42    -0.00  -0.00  -0.01
     4   1    -0.17  -0.01   0.74     0.10  -0.05  -0.33    -0.00   0.00   0.00
     5   1     0.13  -0.01  -0.01    -0.19   0.03  -0.80     0.00  -0.00   0.00
     6   6     0.00  -0.00  -0.00     0.00  -0.00  -0.00     0.01  -0.01   0.01
     7   6    -0.00   0.00   0.00     0.00  -0.00   0.00     0.10  -0.05   0.07
     8   1    -0.01  -0.00  -0.00    -0.00   0.00  -0.00    -0.15   0.04  -0.00
     9   1     0.01  -0.00   0.01    -0.00   0.00  -0.00    -0.06   0.03  -0.14
    10   1     0.01  -0.00   0.00    -0.00   0.00  -0.00    -0.37   0.35  -0.13
    11   1    -0.01  -0.00  -0.01    -0.01  -0.00   0.00    -0.52  -0.10  -0.33
    12   1    -0.00   0.00  -0.00    -0.00   0.01  -0.00    -0.25   0.34  -0.31
                     19                     20                     21
                      A                      A                      A
 Frequencies --   1471.0577              1487.2474              1489.4267
 Red. masses --      1.1093                 1.0392                 1.1284
 Frc consts  --      1.4144                 1.3543                 1.4748
 IR Inten    --   4.310                  7.133                  5.325    
  Atom  AN      X      Y      Z        X      Y      Z        X      Y      Z
     1   6    -0.00   0.00   0.00    -0.00   0.00  -0.00    -0.00  -0.00   0.03
     2   8    -0.00  -0.00   0.00     0.00   0.00   0.00    -0.00  -0.00  -0.00
     3   1    -0.01   0.00  -0.02     0.01  -0.00   0.02    -0.07   0.04  -0.14
     4   1     0.01  -0.00  -0.01    -0.01  -0.00   0.01     0.10  -0.00  -0.13
     5   1    -0.00  -0.00   0.00    -0.00  -0.00  -0.00     0.00   0.00   0.01
     6   6    -0.07   0.01  -0.05    -0.03   0.01   0.01     0.05  -0.03   0.04
     7   6     0.00  -0.04   0.00    -0.01   0.00   0.04    -0.06  -0.02  -0.03
     8   1     0.53  -0.10  -0.02     0.15  -0.01   0.02    -0.35   0.07   0.02
     9   1     0.20  -0.06   0.50    -0.01  -0.02   0.06    -0.13   0.05  -0.35
    10   1     0.30   0.26  -0.10    -0.24   0.41  -0.16     0.45   0.34  -0.15
    11   1    -0.21  -0.05  -0.10     0.38  -0.03  -0.54    -0.05  -0.03  -0.21
    12   1     0.02   0.32   0.28     0.18  -0.49   0.02     0.14   0.17   0.48
                     22                     23                     24
                      A                      A                      A
 Frequencies --   1493.8420              2982.2247              3069.1399
 Red. masses --      1.1697                 1.0567                 1.0735
 Frc consts  --      1.5380                 5.5373                 5.9577
 IR Inten    --   9.137                  28.96                  20.21    
  Atom  AN      X      Y      Z        X      Y      Z        X      Y      Z
     1   6    -0.01  -0.00   0.12    -0.00   0.00  -0.00    -0.00   0.00  -0.00
     2   8    -0.00  -0.01  -0.02    -0.00  -0.00  -0.00     0.00   0.00   0.00
     3   1    -0.28   0.17  -0.60    -0.00   0.00   0.00     0.00  -0.00  -0.00
     4   1     0.42  -0.01  -0.53     0.00  -0.00   0.00     0.00  -0.00   0.00
     5   1     0.01  -0.01   0.04     0.00   0.00   0.00    -0.00   0.00   0.00
     6   6    -0.01   0.01  -0.01     0.00  -0.00   0.00    -0.00   0.00  -0.00
     7   6     0.01   0.01   0.01     0.02  -0.06   0.01     0.04   0.06   0.02
     8   1     0.08  -0.02  -0.01     0.00  -0.00   0.00     0.00   0.00  -0.01
     9   1     0.03  -0.01   0.07     0.00  -0.00   0.00    -0.00   0.00   0.00
    10   1    -0.12  -0.08   0.04     0.01  -0.10  -0.18     0.04  -0.24  -0.61
    11   1     0.03   0.01   0.04    -0.06   0.95  -0.09     0.03  -0.26   0.03
    12   1    -0.03  -0.06  -0.12    -0.17  -0.09   0.09    -0.59  -0.20   0.31
                     25                     26                     27
                      A                      A                      A
 Frequencies --   3116.4481              3147.6849              3162.8730
 Red. masses --      1.1025                 1.0467                 1.0511
 Frc consts  --      6.3090                 6.1103                 6.1951
 IR Inten    --   16.61                  16.98                  14.85    
  Atom  AN      X      Y      Z        X      Y      Z        X      Y      Z
     1   6    -0.00  -0.00  -0.00     0.01  -0.02   0.05     0.00   0.00  -0.00
     2   8    -0.00  -0.00   0.00    -0.00  -0.00  -0.00     0.00   0.00   0.00
     3   1    -0.00  -0.00   0.00     0.54  -0.03  -0.21    -0.01   0.00   0.00
     4   1     0.00  -0.00   0.00    -0.63   0.30  -0.41     0.01  -0.00   0.00
     5   1     0.00   0.00   0.00     0.00   0.00  -0.00    -0.00   0.00  -0.00
     6   6    -0.00   0.00   0.01    -0.00   0.00  -0.00    -0.05   0.01  -0.03
     7   6     0.05  -0.01  -0.08     0.00  -0.00  -0.00     0.00  -0.00   0.00
     8   1     0.00  -0.00  -0.05    -0.00  -0.00   0.01    -0.04  -0.02   0.71
     9   1     0.04  -0.00  -0.02     0.01  -0.00  -0.00     0.62  -0.09  -0.32
    10   1    -0.03   0.28   0.66    -0.00   0.00   0.00    -0.00   0.00  -0.00
    11   1     0.01   0.00  -0.02    -0.00   0.00  -0.00     0.00  -0.01   0.00
    12   1    -0.58  -0.22   0.29    -0.00  -0.00   0.00    -0.00  -0.00   0.00
                     28                     29                     30
                      A                      A                      A
 Frequencies --   3265.0055              3290.1104              3915.0342
 Red. masses --      1.1189                 1.1245                 1.0665
 Frc consts  --      7.0274                 7.1721                 9.6315
 IR Inten    --   13.93                  8.704                  65.42    
  Atom  AN      X      Y      Z        X      Y      Z        X      Y      Z
     1   6     0.00  -0.00  -0.00    -0.10   0.02   0.00     0.00  -0.00   0.00
     2   8     0.00   0.00  -0.00     0.00  -0.00  -0.00     0.06  -0.01  -0.02
     3   1    -0.00   0.00   0.00     0.76  -0.02  -0.30    -0.01   0.00   0.00
     4   1    -0.00   0.00  -0.00     0.43  -0.22   0.29    -0.01   0.00  -0.00
     5   1     0.00  -0.00  -0.00    -0.02  -0.00  -0.00    -0.94   0.10   0.32
     6   6    -0.06   0.01   0.08    -0.00   0.00   0.00    -0.00   0.00  -0.00
     7   6    -0.00   0.00   0.01    -0.00  -0.00  -0.00    -0.00  -0.00  -0.00
     8   1     0.03   0.02  -0.70     0.00   0.00  -0.00     0.00  -0.00  -0.00
     9   1     0.63  -0.09  -0.30     0.00  -0.00  -0.00    -0.00  -0.00   0.00
    10   1     0.00  -0.02  -0.05    -0.00   0.00   0.00    -0.00  -0.00   0.00
    11   1    -0.00  -0.00   0.00     0.00   0.00   0.00    -0.00   0.00   0.00
    12   1     0.04   0.01  -0.02     0.00   0.00  -0.00     0.00  -0.00  -0.00

 -------------------
 - Thermochemistry -
 -------------------
 Temperature   298.150 Kelvin.  Pressure   1.00000 Atm.
 Atom     1 has atomic number  6 and mass  12.00000
 Atom     2 has atomic number  8 and mass  15.99491
 Atom     3 has atomic number  1 and mass   1.00783
 Atom     4 has atomic number  1 and mass   1.00783
 Atom     5 has atomic number  1 and mass   1.00783
 Atom     6 has atomic number  6 and mass  12.00000
 Atom     7 has atomic number  6 and mass  12.00000
 Atom     8 has atomic number  1 and mass   1.00783
 Atom     9 has atomic number  1 and mass   1.00783
 Atom    10 has atomic number  1 and mass   1.00783
 Atom    11 has atomic number  1 and mass   1.00783
 Atom    12 has atomic number  1 and mass   1.00783
 Molecular mass:    60.05751 amu.
 Principal axes and moments of inertia in atomic units:
                           1         2         3
     Eigenvalues --   140.276061023.102571075.41985
           X            0.06111   0.56015   0.82614
           Y            0.87612  -0.42664   0.22447
           Z            0.47820   0.71008  -0.51683
 This molecule is an asymmetric top.
 Rotational symmetry number  1.
 Rotational temperatures (Kelvin)      0.61745     0.08466     0.08054
 Rotational constants (GHZ):          12.86564     1.76399     1.67817
    2 imaginary frequencies ignored.
 Zero-point vibrational energy     256073.2 (Joules/Mol)
                                   61.20296 (Kcal/Mol)
 Warning -- explicit consideration of   8 degrees of freedom as
           vibrations may cause significant error
 Vibrational temperatures:     35.34    55.62    85.82   109.73   183.07
          (Kelvin)            602.04   693.41   781.21  1178.73  1415.08
                             1535.26  1549.20  1724.41  1773.84  1967.39
                             2024.16  2116.52  2139.81  2142.95  2149.30
                             4290.75  4415.80  4483.87  4528.81  4550.66
                             4697.61  4733.73  5632.85
 
 Zero-point correction=                           0.097533 (Hartree/Particle)
 Thermal correction to Energy=                    0.105354
 Thermal correction to Enthalpy=                  0.106298
 Thermal correction to Gibbs Free Energy=         0.063304
 Sum of electronic and zero-point Energies=           -194.133328
 Sum of electronic and thermal Energies=              -194.125508
 Sum of electronic and thermal Enthalpies=            -194.124563
 Sum of electronic and thermal Free Energies=         -194.167557
 
                     E (Thermal)             CV                S
                      KCal/Mol        Cal/Mol-Kelvin    Cal/Mol-Kelvin
 Total                   66.110             22.221             90.488
 Electronic               0.000              0.000              0.000
 Translational            0.889              2.981             38.198
 Rotational               0.889              2.981             26.537
 Vibrational             64.333             16.259             25.753
 Vibration     1          0.593              1.985              6.226
 Vibration     2          0.594              1.981              5.327
 Vibration     3          0.597              1.974              4.469
 Vibration     4          0.599              1.965              3.985
 Vibration     5          0.611              1.926              2.987
 Vibration     6          0.781              1.430              0.897
 Vibration     7          0.838              1.290              0.705
 Vibration     8          0.898              1.155              0.559
                       Q            Log10(Q)             Ln(Q)
 Total Bot       0.762439D-29        -29.117795        -67.046200
 Total V=0       0.554925D+16         15.744234         36.252439
 Vib (Bot)       0.296355D-41        -41.528188        -95.622186
 Vib (Bot)    1  0.843162D+01          0.925911          2.131989
 Vib (Bot)    2  0.535235D+01          0.728544          1.677535
 Vib (Bot)    3  0.346198D+01          0.539324          1.241840
 Vib (Bot)    4  0.270189D+01          0.431668          0.993952
 Vib (Bot)    5  0.160329D+01          0.205011          0.472055
 Vib (Bot)    6  0.420133D+00         -0.376613         -0.867185
 Vib (Bot)    7  0.346447D+00         -0.460363         -1.060026
 Vib (Bot)    8  0.290973D+00         -0.536147         -1.234523
 Vib (V=0)       0.215696D+04          3.333841          7.676453
 Vib (V=0)    1  0.894643D+01          0.951650          2.191255
 Vib (V=0)    2  0.587565D+01          0.769056          1.770817
 Vib (V=0)    3  0.399790D+01          0.601832          1.385768
 Vib (V=0)    4  0.324777D+01          0.511585          1.177967
 Vib (V=0)    5  0.217944D+01          0.338345          0.779069
 Vib (V=0)    6  0.115308D+01          0.061859          0.142435
 Vib (V=0)    7  0.110830D+01          0.044656          0.102825
 Vib (V=0)    8  0.107850D+01          0.032821          0.075574
 Electronic      0.100000D+01          0.000000          0.000000
 Translational   0.182939D+08          7.262306         16.722078
 Rotational      0.140633D+06          5.148087         11.853908
 -------------------------------------------------------------------
 Center     Atomic                   Forces (Hartrees/Bohr)
 Number     Number              X              Y              Z
 -------------------------------------------------------------------
      1        6          -0.000426503   -0.000198395   -0.000911045
      2        8           0.000011218   -0.000381925    0.000445291
      3        1          -0.000067335   -0.000203645   -0.000023775
      4        1           0.000184113   -0.000181584    0.000063609
      5        1           0.000012147    0.000028359   -0.000085848
      6        6           0.000237306    0.001002381    0.000409997
      7        6           0.000163250   -0.000496284    0.000672761
      8        1          -0.000007037    0.000106434   -0.000037584
      9        1           0.000021523   -0.000044108    0.000044684
     10        1           0.000071886    0.000453517   -0.000443843
     11        1          -0.000032344   -0.000238122   -0.000265278
     12        1          -0.000168225    0.000153371    0.000131032
 -------------------------------------------------------------------
 Cartesian Forces:  Max     0.001002381 RMS     0.000337402
 Force constants in Cartesian coordinates: 
                1             2             3             4             5 
      1  0.657048D+00
      2 -0.138625D+00  0.798233D-01
      3 -0.191267D-01 -0.567344D-01  0.602706D+00
      4 -0.982030D-01  0.196081D-01  0.330688D-01  0.579742D+00
      5  0.184015D-01 -0.862644D-02 -0.145972D-01 -0.691835D-01  0.184057D-01
      6 -0.145358D-01  0.518054D-02 -0.374733D+00 -0.151396D+00  0.121014D-01
      7 -0.324172D+00  0.214025D-01  0.102063D+00  0.525891D-02 -0.153061D-02
      8  0.471381D-02 -0.101785D-01  0.459671D-02  0.247537D-03 -0.227309D-02
      9  0.852332D-01  0.264966D-02 -0.850572D-01  0.367201D-01 -0.165712D-02
     10 -0.231746D+00  0.973289D-01 -0.109481D+00  0.868450D-02 -0.136893D-02
     11  0.114057D+00 -0.589429D-01  0.653356D-01 -0.526204D-02  0.354382D-02
     12 -0.997580D-01  0.549922D-01 -0.121688D+00 -0.232127D-01  0.148619D-01
     13 -0.277424D-02 -0.513668D-04 -0.662284D-02 -0.495505D+00  0.536977D-01
     14  0.100771D-02 -0.188241D-02  0.818799D-03  0.546110D-01 -0.113684D-01
     15  0.479462D-01 -0.637661D-02 -0.212954D-01  0.104869D+00 -0.107912D-01
     16 -0.129524D-03  0.472269D-05  0.341682D-03 -0.554314D-04  0.104653D-03
     17  0.491304D-03  0.545485D-03  0.612865D-03 -0.358525D-04  0.150574D-03
     18  0.406708D-03  0.542624D-03 -0.274989D-04 -0.922803D-04 -0.477770D-04
     19  0.924600D-04  0.216927D-03 -0.993016D-04 -0.363137D-04 -0.728484D-05
     20 -0.424022D-04 -0.678614D-03  0.395165D-03  0.781500D-04  0.133148D-03
     21  0.402924D-04  0.284160D-03  0.300518D-03 -0.216669D-05  0.155636D-03
     22  0.188955D-04  0.280858D-04 -0.530061D-04  0.188911D-04 -0.704141D-05
     23  0.601953D-04  0.902622D-04 -0.159574D-03 -0.423616D-04  0.107998D-04
     24 -0.291105D-04 -0.450752D-04 -0.137353D-03 -0.461446D-05 -0.300775D-04
     25 -0.862882D-05  0.156485D-03 -0.500483D-04  0.710956D-04  0.757326D-05
     26 -0.161286D-03  0.766526D-04 -0.107925D-03  0.672417D-04 -0.978524D-05
     27 -0.141161D-04 -0.167113D-04  0.987404D-04  0.227430D-04  0.405314D-04
     28  0.107612D-04 -0.304605D-04 -0.136098D-03 -0.122072D-03 -0.588382D-04
     29  0.204503D-04 -0.137226D-03 -0.103320D-03 -0.403043D-04  0.674238D-04
     30 -0.169074D-03 -0.423024D-03  0.131198D-03  0.971708D-04  0.111378D-04
     31 -0.468580D-04  0.216586D-04 -0.458085D-04  0.435377D-04 -0.300238D-04
     32 -0.464295D-04 -0.240596D-03  0.215905D-03  0.552266D-04 -0.286686D-04
     33 -0.770474D-04 -0.192940D-03 -0.507478D-04  0.340696D-04  0.184480D-04
     34 -0.902037D-04 -0.605400D-04  0.141416D-03  0.103397D-03 -0.251872D-04
     35  0.123318D-03  0.151004D-03 -0.272629D-03 -0.103232D-03 -0.506321D-05
     36  0.835875D-04  0.139620D-03 -0.247053D-03 -0.103998D-03 -0.657737D-04
                6             7             8             9            10 
      6  0.499029D+00
      7  0.466743D-03  0.326407D+00
      8  0.124592D-02 -0.158964D-01  0.855592D-02
      9 -0.187286D-01 -0.109072D+00 -0.166279D-02  0.101494D+00
     10  0.610762D-02 -0.995929D-02  0.104428D-01 -0.131979D-01  0.230520D+00
     11 -0.706505D-03 -0.380889D-02  0.720978D-03 -0.266618D-03 -0.104605D+00
     12 -0.265871D-01  0.814254D-02 -0.428626D-02  0.881395D-02  0.117324D+00
     13  0.159283D+00  0.239180D-02  0.499035D-03  0.299109D-03  0.251233D-02
     14 -0.177020D-01 -0.226369D-03  0.309691D-02  0.923161D-03 -0.163477D-02
     15 -0.791091D-01 -0.163055D-02  0.677767D-04 -0.649920D-02 -0.694136D-03
     16 -0.221361D-03 -0.643769D-04 -0.137476D-03 -0.202899D-04 -0.377382D-04
     17  0.755131D-04  0.169392D-03  0.145630D-03 -0.751278D-05 -0.241259D-03
     18  0.921045D-04  0.000000D+00 -0.123441D-04  0.215565D-04 -0.109850D-03
     19  0.219400D-03  0.121638D-04 -0.938258D-04 -0.561800D-04 -0.693266D-04
     20 -0.615186D-03  0.223992D-04  0.106214D-03  0.188994D-04  0.278778D-04
     21 -0.229101D-03 -0.916749D-05  0.115765D-05  0.000000D+00 -0.365405D-04
     22  0.618311D-04  0.663218D-05  0.152659D-04 -0.117802D-04  0.132053D-04
     23  0.234159D-03 -0.383672D-04 -0.287658D-04 -0.935859D-05  0.210033D-04
     24  0.215726D-03 -0.138500D-04  0.466044D-05 -0.159712D-04  0.256330D-04
     25  0.774644D-04  0.431794D-04  0.478109D-04  0.167634D-04  0.260409D-04
     26  0.653326D-04  0.428225D-05 -0.513001D-04  0.172406D-04  0.449620D-04
     27 -0.120712D-03 -0.126940D-04  0.517744D-05 -0.222506D-04  0.160166D-04
     28  0.145162D-03 -0.428581D-04 -0.759609D-04  0.352130D-04 -0.322383D-04
     29  0.686543D-04 -0.553434D-04 -0.766637D-04  0.124023D-04 -0.924667D-05
     30 -0.176525D-03  0.735355D-04  0.133426D-03 -0.231087D-04  0.694228D-04
     31  0.370070D-04  0.412026D-04  0.892932D-04  0.143887D-04  0.451300D-04
     32 -0.283583D-03  0.435775D-04  0.101596D-03  0.304396D-05  0.238451D-04
     33  0.944302D-04  0.228528D-04  0.255557D-04 -0.116992D-04  0.330275D-04
     34 -0.245061D-03  0.781863D-04  0.148196D-03  0.389802D-04  0.426205D-04
     35  0.335685D-03 -0.861019D-04 -0.118900D-03 -0.210019D-04 -0.300050D-04
     36  0.253112D-03 -0.314762D-04 -0.118991D-03  0.277103D-04 -0.558891D-04
               11            12            13            14            15 
     11  0.553242D-01
     12 -0.652376D-01  0.137884D+00
     13 -0.354493D-03 -0.249839D-02  0.493390D+00
     14 -0.620881D-03 -0.283872D-03 -0.537834D-01  0.108069D-01
     15  0.876874D-03  0.162476D-02 -0.150465D+00  0.162010D-01  0.105227D+00
     16  0.158184D-03 -0.294584D-05  0.583094D-04  0.713352D-04  0.640691D-04
     17  0.157429D-03 -0.760349D-04 -0.209945D-04  0.798127D-04  0.155963D-03
     18 -0.375446D-04 -0.229152D-05 -0.120008D-05 -0.432084D-05  0.100637D-04
     19  0.421413D-04  0.205522D-04 -0.409421D-05 -0.676213D-05  0.217969D-04
     20 -0.363631D-04 -0.972404D-05 -0.444440D-04 -0.645132D-04  0.378774D-04
     21  0.394098D-04 -0.450182D-04  0.644947D-04 -0.128090D-03 -0.115058D-04
     22 -0.459854D-04  0.119200D-04 -0.242776D-04 -0.358999D-04 -0.212933D-04
     23 -0.606948D-04 -0.139247D-04  0.281116D-04  0.135348D-04 -0.257721D-04
     24 -0.331396D-04 -0.182089D-04  0.687662D-05  0.647150D-04 -0.168932D-05
     25 -0.129590D-03 -0.547321D-05 -0.171211D-04 -0.890466D-04 -0.623062D-04
     26 -0.103972D-03  0.273931D-04 -0.136962D-04 -0.541315D-04 -0.885877D-04
     27  0.249599D-04  0.000000D+00 -0.831477D-05 -0.595494D-04  0.996798D-05
     28  0.607953D-04  0.118389D-04  0.169128D-04  0.139429D-03  0.271672D-05
     29  0.106568D-04  0.174107D-04  0.494430D-04 -0.576509D-04 -0.938842D-04
     30 -0.174661D-04 -0.214576D-04 -0.503637D-04  0.682875D-04  0.505953D-04
     31 -0.522446D-04 -0.134399D-04 -0.591639D-05 -0.747282D-05 -0.213210D-04
     32 -0.306762D-05 -0.142416D-04 -0.376302D-04  0.353260D-04  0.540902D-04
     33 -0.219323D-04  0.316065D-05 -0.236532D-04  0.331829D-04  0.151036D-04
     34 -0.595484D-04 -0.199041D-04 -0.379849D-04 -0.457431D-04 -0.921311D-05
     35  0.107675D-04  0.227569D-04  0.318006D-04  0.155471D-04 -0.175165D-04
     36  0.439494D-04  0.355076D-04  0.160896D-04  0.686972D-04 -0.208451D-04
               16            17            18            19            20 
     16  0.557124D+00
     17 -0.105388D+00  0.794184D-01
     18 -0.438981D-01 -0.340934D-01  0.606962D+00
     19 -0.187788D+00  0.425820D-01 -0.683715D-01  0.522045D+00
     20  0.368476D-01 -0.525502D-01  0.222060D-01  0.135411D-01  0.481403D+00
     21 -0.679790D-01  0.257227D-01 -0.134231D+00 -0.319877D-01  0.143327D-01
     22 -0.551201D-01  0.876606D-02  0.175497D-01  0.446199D-02 -0.880618D-03
     23  0.983698D-02 -0.125518D-01  0.751667D-02 -0.264473D-02  0.355205D-02
     24  0.169331D-01  0.118110D-01 -0.347592D+00  0.365140D-02 -0.207914D-02
     25 -0.285599D+00  0.410794D-01  0.115867D+00 -0.135159D-01 -0.203835D-03
     26  0.377996D-01 -0.156112D-01 -0.986319D-02  0.742576D-02  0.270730D-02
     27  0.116633D+00 -0.126092D-01 -0.113522D+00 -0.158174D-01  0.147493D-02
     28  0.247227D-02 -0.815756D-02 -0.268237D-01 -0.508720D-01  0.290176D-02
     29  0.395876D-03  0.288989D-02  0.120311D-01  0.316022D-02 -0.831638D-01
     30 -0.342200D-03 -0.321341D-02 -0.175286D-01  0.148210D-01 -0.960969D-01
     31 -0.680819D-02  0.245069D-01 -0.589895D-02 -0.410922D-01  0.191176D-01
     32  0.901224D-02 -0.438060D-02  0.612431D-02  0.770779D-02 -0.283232D+00
     33 -0.505038D-02  0.163714D-01 -0.413504D-02  0.351810D-03  0.263307D-01
     34 -0.240523D-01 -0.375136D-02  0.113721D-01 -0.233234D+00 -0.713651D-01
     35  0.112944D-01  0.170650D-02 -0.436203D-02 -0.719233D-01 -0.681763D-01
     36 -0.164572D-01 -0.474986D-02  0.995442D-02  0.972461D-01  0.340047D-01
               21            22            23            24            25 
     21  0.548350D+00
     22 -0.232232D-01  0.504429D-01
     23  0.955370D-02 -0.900259D-02  0.631829D-02
     24 -0.891058D-02 -0.154645D-01 -0.115607D-01  0.363323D+00
     25  0.113009D-01  0.237948D-02  0.377967D-04 -0.251644D-02  0.299046D+00
     26 -0.619230D-02 -0.546284D-03  0.323925D-02  0.415159D-03 -0.427943D-01
     27  0.993918D-02  0.246274D-01 -0.302691D-02 -0.709325D-02 -0.122198D+00
     28  0.137714D-01 -0.342131D-02  0.113710D-02 -0.210294D-02  0.105330D-02
     29 -0.970454D-01  0.186793D-02 -0.833869D-05  0.148481D-02 -0.414615D-03
     30 -0.270182D+00 -0.329160D-02 -0.649057D-03 -0.235213D-03  0.392638D-04
     31 -0.281586D-03 -0.297898D-03  0.791373D-04 -0.226056D-03 -0.842967D-03
     32  0.188576D-01  0.537546D-03 -0.654885D-03  0.733488D-04  0.282232D-03
     33 -0.437008D-01 -0.703234D-03 -0.104791D-02 -0.452633D-03 -0.127712D-04
     34  0.983422D-01  0.152161D-02  0.527713D-03 -0.259516D-03 -0.263635D-02
     35  0.344187D-01 -0.696472D-03  0.802603D-04 -0.105560D-03  0.202011D-02
     36 -0.101280D+00  0.517746D-03 -0.811307D-03  0.918504D-03 -0.245582D-02
               26            27            28            29            30 
     26  0.102450D-01
     27  0.129634D-01  0.110621D+00
     28 -0.536142D-03  0.687263D-03  0.514422D-01
     29  0.989389D-04 -0.533035D-03 -0.783468D-02  0.903539D-01
     30  0.876494D-03  0.131000D-02 -0.112511D-01  0.103495D+00  0.294974D+00
     31 -0.939645D-03 -0.398311D-03 -0.156131D-03  0.245786D-02  0.215676D-03
     32 -0.568029D-03  0.549193D-03  0.247545D-04 -0.137520D-01  0.909701D-03
     33  0.550424D-03 -0.782864D-04  0.170490D-02 -0.303683D-01  0.293047D-02
     34 -0.350514D-03 -0.353684D-02 -0.348815D-03  0.402412D-03 -0.211747D-03
     35  0.312628D-04  0.118715D-02  0.124298D-01  0.377489D-02 -0.509438D-02
     36  0.133655D-02 -0.114273D-02  0.239553D-01  0.110344D-01 -0.112292D-01
               31            32            33            34            35 
     31  0.475596D-01
     32 -0.175489D-01  0.313874D+00
     33  0.405170D-02 -0.269865D-01  0.470217D-01
     34  0.156063D-02 -0.542851D-04 -0.331279D-03  0.257093D+00
     35 -0.276942D-01 -0.111510D-01  0.152880D-01  0.746340D-01  0.736810D-01
     36  0.256669D-02  0.497131D-03 -0.163573D-02 -0.105281D+00 -0.413791D-01
               36 
     36  0.104366D+00
 Cartesian forces in FCRed:
 I=    1 X=  -4.265030444102D-04 Y=  -1.983952982901D-04 Z=  -9.110454433401D-04
 I=    2 X=   1.121835066398D-05 Y=  -3.819248704300D-04 Z=   4.452913101005D-04
 I=    3 X=  -6.733472499798D-05 Y=  -2.036450615967D-04 Z=  -2.377485346439D-05
 I=    4 X=   1.841133558242D-04 Y=  -1.815839111046D-04 Z=   6.360865799371D-05
 I=    5 X=   1.214719201492D-05 Y=   2.835934492801D-05 Z=  -8.584829216796D-05
 I=    6 X=   2.373056020768D-04 Y=   1.002381367854D-03 Z=   4.099972420359D-04
 I=    7 X=   1.632499390658D-04 Y=  -4.962837342526D-04 Z=   6.727606162111D-04
 I=    8 X=  -7.037284215194D-06 Y=   1.064342588555D-04 Z=  -3.758397607845D-05
 I=    9 X=   2.152292577851D-05 Y=  -4.410811051425D-05 Z=   4.468359816179D-05
 I=   10 X=   7.188634649380D-05 Y=   4.535165175822D-04 Z=  -4.438427442710D-04
 I=   11 X=  -3.234375407435D-05 Y=  -2.381215599532D-04 Z=  -2.652779771567D-04
 I=   12 X=  -1.682249045545D-04 Y=   1.533710569436D-04 Z=   1.310318623400D-04
 Cartesian force constants in FCRed: 
                1             2             3             4             5 
      1  0.657048D+00
      2 -0.138625D+00  0.798233D-01
      3 -0.191267D-01 -0.567344D-01  0.602706D+00
      4 -0.982030D-01  0.196081D-01  0.330688D-01  0.579742D+00
      5  0.184015D-01 -0.862644D-02 -0.145972D-01 -0.691835D-01  0.184057D-01
      6 -0.145358D-01  0.518054D-02 -0.374733D+00 -0.151396D+00  0.121014D-01
      7 -0.324172D+00  0.214025D-01  0.102063D+00  0.525891D-02 -0.153061D-02
      8  0.471381D-02 -0.101785D-01  0.459671D-02  0.247537D-03 -0.227309D-02
      9  0.852332D-01  0.264966D-02 -0.850572D-01  0.367201D-01 -0.165712D-02
     10 -0.231746D+00  0.973289D-01 -0.109481D+00  0.868450D-02 -0.136893D-02
     11  0.114057D+00 -0.589429D-01  0.653356D-01 -0.526204D-02  0.354382D-02
     12 -0.997580D-01  0.549922D-01 -0.121688D+00 -0.232127D-01  0.148619D-01
     13 -0.277424D-02 -0.513668D-04 -0.662284D-02 -0.495505D+00  0.536977D-01
     14  0.100771D-02 -0.188241D-02  0.818799D-03  0.546110D-01 -0.113684D-01
     15  0.479462D-01 -0.637661D-02 -0.212954D-01  0.104869D+00 -0.107912D-01
     16 -0.129524D-03  0.472269D-05  0.341682D-03 -0.554314D-04  0.104653D-03
     17  0.491304D-03  0.545485D-03  0.612865D-03 -0.358525D-04  0.150574D-03
     18  0.406708D-03  0.542624D-03 -0.274989D-04 -0.922803D-04 -0.477770D-04
     19  0.924600D-04  0.216927D-03 -0.993016D-04 -0.363137D-04 -0.728484D-05
     20 -0.424022D-04 -0.678614D-03  0.395165D-03  0.781500D-04  0.133148D-03
     21  0.402924D-04  0.284160D-03  0.300518D-03 -0.216669D-05  0.155636D-03
     22  0.188955D-04  0.280858D-04 -0.530061D-04  0.188911D-04 -0.704141D-05
     23  0.601953D-04  0.902622D-04 -0.159574D-03 -0.423616D-04  0.107998D-04
     24 -0.291105D-04 -0.450752D-04 -0.137353D-03 -0.461446D-05 -0.300775D-04
     25 -0.862882D-05  0.156485D-03 -0.500483D-04  0.710956D-04  0.757326D-05
     26 -0.161286D-03  0.766526D-04 -0.107925D-03  0.672417D-04 -0.978524D-05
     27 -0.141161D-04 -0.167113D-04  0.987404D-04  0.227430D-04  0.405314D-04
     28  0.107612D-04 -0.304605D-04 -0.136098D-03 -0.122072D-03 -0.588382D-04
     29  0.204503D-04 -0.137226D-03 -0.103320D-03 -0.403043D-04  0.674238D-04
     30 -0.169074D-03 -0.423024D-03  0.131198D-03  0.971708D-04  0.111378D-04
     31 -0.468580D-04  0.216586D-04 -0.458085D-04  0.435377D-04 -0.300238D-04
     32 -0.464295D-04 -0.240596D-03  0.215905D-03  0.552266D-04 -0.286686D-04
     33 -0.770474D-04 -0.192940D-03 -0.507478D-04  0.340696D-04  0.184480D-04
     34 -0.902037D-04 -0.605400D-04  0.141416D-03  0.103397D-03 -0.251872D-04
     35  0.123318D-03  0.151004D-03 -0.272629D-03 -0.103232D-03 -0.506321D-05
     36  0.835875D-04  0.139620D-03 -0.247053D-03 -0.103998D-03 -0.657737D-04
                6             7             8             9            10 
      6  0.499029D+00
      7  0.466743D-03  0.326407D+00
      8  0.124592D-02 -0.158964D-01  0.855592D-02
      9 -0.187286D-01 -0.109072D+00 -0.166279D-02  0.101494D+00
     10  0.610762D-02 -0.995929D-02  0.104428D-01 -0.131979D-01  0.230520D+00
     11 -0.706505D-03 -0.380889D-02  0.720978D-03 -0.266618D-03 -0.104605D+00
     12 -0.265871D-01  0.814254D-02 -0.428626D-02  0.881395D-02  0.117324D+00
     13  0.159283D+00  0.239180D-02  0.499035D-03  0.299109D-03  0.251233D-02
     14 -0.177020D-01 -0.226369D-03  0.309691D-02  0.923161D-03 -0.163477D-02
     15 -0.791091D-01 -0.163055D-02  0.677767D-04 -0.649920D-02 -0.694136D-03
     16 -0.221361D-03 -0.643769D-04 -0.137476D-03 -0.202899D-04 -0.377382D-04
     17  0.755131D-04  0.169392D-03  0.145630D-03 -0.751278D-05 -0.241259D-03
     18  0.921045D-04  0.000000D+00 -0.123441D-04  0.215565D-04 -0.109850D-03
     19  0.219400D-03  0.121638D-04 -0.938258D-04 -0.561800D-04 -0.693266D-04
     20 -0.615186D-03  0.223992D-04  0.106214D-03  0.188994D-04  0.278778D-04
     21 -0.229101D-03 -0.916749D-05  0.115765D-05  0.000000D+00 -0.365405D-04
     22  0.618311D-04  0.663218D-05  0.152659D-04 -0.117802D-04  0.132053D-04
     23  0.234159D-03 -0.383672D-04 -0.287658D-04 -0.935859D-05  0.210033D-04
     24  0.215726D-03 -0.138500D-04  0.466044D-05 -0.159712D-04  0.256330D-04
     25  0.774644D-04  0.431794D-04  0.478109D-04  0.167634D-04  0.260409D-04
     26  0.653326D-04  0.428225D-05 -0.513001D-04  0.172406D-04  0.449620D-04
     27 -0.120712D-03 -0.126940D-04  0.517744D-05 -0.222506D-04  0.160166D-04
     28  0.145162D-03 -0.428581D-04 -0.759609D-04  0.352130D-04 -0.322383D-04
     29  0.686543D-04 -0.553434D-04 -0.766637D-04  0.124023D-04 -0.924667D-05
     30 -0.176525D-03  0.735355D-04  0.133426D-03 -0.231087D-04  0.694228D-04
     31  0.370070D-04  0.412026D-04  0.892932D-04  0.143887D-04  0.451300D-04
     32 -0.283583D-03  0.435775D-04  0.101596D-03  0.304396D-05  0.238451D-04
     33  0.944302D-04  0.228528D-04  0.255557D-04 -0.116992D-04  0.330275D-04
     34 -0.245061D-03  0.781863D-04  0.148196D-03  0.389802D-04  0.426205D-04
     35  0.335685D-03 -0.861019D-04 -0.118900D-03 -0.210019D-04 -0.300050D-04
     36  0.253112D-03 -0.314762D-04 -0.118991D-03  0.277103D-04 -0.558891D-04
               11            12            13            14            15 
     11  0.553242D-01
     12 -0.652376D-01  0.137884D+00
     13 -0.354493D-03 -0.249839D-02  0.493390D+00
     14 -0.620881D-03 -0.283872D-03 -0.537834D-01  0.108069D-01
     15  0.876874D-03  0.162476D-02 -0.150465D+00  0.162010D-01  0.105227D+00
     16  0.158184D-03 -0.294584D-05  0.583094D-04  0.713352D-04  0.640691D-04
     17  0.157429D-03 -0.760349D-04 -0.209945D-04  0.798127D-04  0.155963D-03
     18 -0.375446D-04 -0.229152D-05 -0.120008D-05 -0.432084D-05  0.100637D-04
     19  0.421413D-04  0.205522D-04 -0.409421D-05 -0.676213D-05  0.217969D-04
     20 -0.363631D-04 -0.972404D-05 -0.444440D-04 -0.645132D-04  0.378774D-04
     21  0.394098D-04 -0.450182D-04  0.644947D-04 -0.128090D-03 -0.115058D-04
     22 -0.459854D-04  0.119200D-04 -0.242776D-04 -0.358999D-04 -0.212933D-04
     23 -0.606948D-04 -0.139247D-04  0.281116D-04  0.135348D-04 -0.257721D-04
     24 -0.331396D-04 -0.182089D-04  0.687662D-05  0.647150D-04 -0.168932D-05
     25 -0.129590D-03 -0.547321D-05 -0.171211D-04 -0.890466D-04 -0.623062D-04
     26 -0.103972D-03  0.273931D-04 -0.136962D-04 -0.541315D-04 -0.885877D-04
     27  0.249599D-04  0.000000D+00 -0.831477D-05 -0.595494D-04  0.996798D-05
     28  0.607953D-04  0.118389D-04  0.169128D-04  0.139429D-03  0.271672D-05
     29  0.106568D-04  0.174107D-04  0.494430D-04 -0.576509D-04 -0.938842D-04
     30 -0.174661D-04 -0.214576D-04 -0.503637D-04  0.682875D-04  0.505953D-04
     31 -0.522446D-04 -0.134399D-04 -0.591639D-05 -0.747282D-05 -0.213210D-04
     32 -0.306762D-05 -0.142416D-04 -0.376302D-04  0.353260D-04  0.540902D-04
     33 -0.219323D-04  0.316065D-05 -0.236532D-04  0.331829D-04  0.151036D-04
     34 -0.595484D-04 -0.199041D-04 -0.379849D-04 -0.457431D-04 -0.921311D-05
     35  0.107675D-04  0.227569D-04  0.318006D-04  0.155471D-04 -0.175165D-04
     36  0.439494D-04  0.355076D-04  0.160896D-04  0.686972D-04 -0.208451D-04
               16            17            18            19            20 
     16  0.557124D+00
     17 -0.105388D+00  0.794184D-01
     18 -0.438981D-01 -0.340934D-01  0.606962D+00
     19 -0.187788D+00  0.425820D-01 -0.683715D-01  0.522045D+00
     20  0.368476D-01 -0.525502D-01  0.222060D-01  0.135411D-01  0.481403D+00
     21 -0.679790D-01  0.257227D-01 -0.134231D+00 -0.319877D-01  0.143327D-01
     22 -0.551201D-01  0.876606D-02  0.175497D-01  0.446199D-02 -0.880618D-03
     23  0.983698D-02 -0.125518D-01  0.751667D-02 -0.264473D-02  0.355205D-02
     24  0.169331D-01  0.118110D-01 -0.347592D+00  0.365140D-02 -0.207914D-02
     25 -0.285599D+00  0.410794D-01  0.115867D+00 -0.135159D-01 -0.203835D-03
     26  0.377996D-01 -0.156112D-01 -0.986319D-02  0.742576D-02  0.270730D-02
     27  0.116633D+00 -0.126092D-01 -0.113522D+00 -0.158174D-01  0.147493D-02
     28  0.247227D-02 -0.815756D-02 -0.268237D-01 -0.508720D-01  0.290176D-02
     29  0.395876D-03  0.288989D-02  0.120311D-01  0.316022D-02 -0.831638D-01
     30 -0.342200D-03 -0.321341D-02 -0.175286D-01  0.148210D-01 -0.960969D-01
     31 -0.680819D-02  0.245069D-01 -0.589895D-02 -0.410922D-01  0.191176D-01
     32  0.901224D-02 -0.438060D-02  0.612431D-02  0.770779D-02 -0.283232D+00
     33 -0.505038D-02  0.163714D-01 -0.413504D-02  0.351810D-03  0.263307D-01
     34 -0.240523D-01 -0.375136D-02  0.113721D-01 -0.233234D+00 -0.713651D-01
     35  0.112944D-01  0.170650D-02 -0.436203D-02 -0.719233D-01 -0.681763D-01
     36 -0.164572D-01 -0.474986D-02  0.995442D-02  0.972461D-01  0.340047D-01
               21            22            23            24            25 
     21  0.548350D+00
     22 -0.232232D-01  0.504429D-01
     23  0.955370D-02 -0.900259D-02  0.631829D-02
     24 -0.891058D-02 -0.154645D-01 -0.115607D-01  0.363323D+00
     25  0.113009D-01  0.237948D-02  0.377967D-04 -0.251644D-02  0.299046D+00
     26 -0.619230D-02 -0.546284D-03  0.323925D-02  0.415159D-03 -0.427943D-01
     27  0.993918D-02  0.246274D-01 -0.302691D-02 -0.709325D-02 -0.122198D+00
     28  0.137714D-01 -0.342131D-02  0.113710D-02 -0.210294D-02  0.105330D-02
     29 -0.970454D-01  0.186793D-02 -0.833869D-05  0.148481D-02 -0.414615D-03
     30 -0.270182D+00 -0.329160D-02 -0.649057D-03 -0.235213D-03  0.392638D-04
     31 -0.281586D-03 -0.297898D-03  0.791373D-04 -0.226056D-03 -0.842967D-03
     32  0.188576D-01  0.537546D-03 -0.654885D-03  0.733488D-04  0.282232D-03
     33 -0.437008D-01 -0.703234D-03 -0.104791D-02 -0.452633D-03 -0.127712D-04
     34  0.983422D-01  0.152161D-02  0.527713D-03 -0.259516D-03 -0.263635D-02
     35  0.344187D-01 -0.696472D-03  0.802603D-04 -0.105560D-03  0.202011D-02
     36 -0.101280D+00  0.517746D-03 -0.811307D-03  0.918504D-03 -0.245582D-02
               26            27            28            29            30 
     26  0.102450D-01
     27  0.129634D-01  0.110621D+00
     28 -0.536142D-03  0.687263D-03  0.514422D-01
     29  0.989389D-04 -0.533035D-03 -0.783468D-02  0.903539D-01
     30  0.876494D-03  0.131000D-02 -0.112511D-01  0.103495D+00  0.294974D+00
     31 -0.939645D-03 -0.398311D-03 -0.156131D-03  0.245786D-02  0.215676D-03
     32 -0.568029D-03  0.549193D-03  0.247545D-04 -0.137520D-01  0.909701D-03
     33  0.550424D-03 -0.782864D-04  0.170490D-02 -0.303683D-01  0.293047D-02
     34 -0.350514D-03 -0.353684D-02 -0.348815D-03  0.402412D-03 -0.211747D-03
     35  0.312628D-04  0.118715D-02  0.124298D-01  0.377489D-02 -0.509438D-02
     36  0.133655D-02 -0.114273D-02  0.239553D-01  0.110344D-01 -0.112292D-01
               31            32            33            34            35 
     31  0.475596D-01
     32 -0.175489D-01  0.313874D+00
     33  0.405170D-02 -0.269865D-01  0.470217D-01
     34  0.156063D-02 -0.542851D-04 -0.331279D-03  0.257093D+00
     35 -0.276942D-01 -0.111510D-01  0.152880D-01  0.746340D-01  0.736810D-01
     36  0.256669D-02  0.497131D-03 -0.163573D-02 -0.105281D+00 -0.413791D-01
               36 
     36  0.104366D+00
 Red2BG:  D1=  9.31D-02 OD1=  4.19D-15 B2RMS=  0.00D+00 IAprox=1
 Red2BG is reusing G-inverse.
 Internal forces: 
                 1 
      1   0.354632D-03
      2  -0.406022D-04
      3  -0.244057D-03
      4  -0.913192D-03
      5  -0.528877D-04
      6  -0.348747D-04
      7  -0.385898D-04
      8  -0.762532D-04
      9   0.249169D-04
     10   0.399729D-04
     11  -0.511270D-05
     12  -0.272593D-03
     13   0.205692D-03
     14  -0.147896D-03
     15  -0.224435D-04
     16   0.972850D-04
     17  -0.257415D-03
     18  -0.186317D-03
     19  -0.141422D-04
     20   0.262705D-04
     21  -0.142368D-03
     22  -0.563173D-04
     23  -0.371594D-04
     24   0.924534D-04
     25  -0.104654D-03
     26   0.147365D-04
     27  -0.299710D-03
     28   0.339236D-04
     29   0.190251D-04
     30   0.244594D-03
     31   0.527692D-04
     32  -0.271464D-04
     33   0.189758D-04
     34   0.341582D-04
     35   0.184062D-04
     36   0.487369D-04
     37  -0.127417D-03
     38  -0.786804D-04
     39  -0.214360D-04
     40  -0.212071D-04
     41  -0.191448D-03
     42  -0.288533D-04
     43  -0.454384D-04
     44  -0.553942D-04
     45   0.275560D-04
     46  -0.122139D-03
     47  -0.595049D-04
     48  -0.137272D-03
     49  -0.618440D-05
     50  -0.478245D-05
     51   0.228819D-04
     52  -0.114390D-03
     53   0.166975D-04
     54   0.180994D-04
     55   0.131088D-03
     56   0.132490D-03
     57   0.897964D-04
     58   0.851133D-04
     59   0.672119D-04
     60   0.625288D-04
     61  -0.478275D-04
     62  -0.525105D-04
     63  -0.280887D-03
     64   0.485531D-04
     65  -0.245478D-03
 Internal force constants: 
                1             2             3             4             5 
      1  0.000000D+00
      2  0.000000D+00  0.000000D+00
      3  0.000000D+00  0.000000D+00  0.000000D+00
      4  0.000000D+00  0.000000D+00  0.000000D+00  0.000000D+00
      5  0.000000D+00  0.000000D+00  0.000000D+00  0.000000D+00  0.131981D-03
      6  0.000000D+00  0.000000D+00  0.000000D+00  0.000000D+00  0.000000D+00
      7  0.000000D+00  0.000000D+00  0.000000D+00  0.000000D+00  0.671579D-04
      8  0.000000D+00  0.000000D+00  0.000000D+00  0.000000D+00 -0.287806D-04
      9  0.000000D+00  0.000000D+00  0.000000D+00  0.000000D+00  0.000000D+00
     10  0.000000D+00  0.000000D+00  0.000000D+00  0.000000D+00  0.000000D+00
     11  0.000000D+00  0.000000D+00  0.000000D+00  0.000000D+00  0.000000D+00
     12  0.000000D+00  0.000000D+00  0.000000D+00  0.000000D+00  0.000000D+00
     13  0.000000D+00  0.000000D+00  0.000000D+00  0.000000D+00  0.000000D+00
     14  0.000000D+00  0.000000D+00  0.000000D+00  0.000000D+00  0.000000D+00
     15  0.000000D+00  0.000000D+00  0.000000D+00  0.000000D+00  0.000000D+00
     16  0.000000D+00  0.000000D+00  0.000000D+00  0.000000D+00  0.000000D+00
     17  0.000000D+00  0.000000D+00  0.000000D+00  0.000000D+00  0.000000D+00
     18  0.000000D+00  0.000000D+00  0.000000D+00  0.000000D+00  0.182820D-04
     19  0.000000D+00  0.000000D+00  0.000000D+00  0.000000D+00  0.000000D+00
     20  0.000000D+00  0.000000D+00  0.000000D+00  0.000000D+00  0.111640D-04
     21  0.000000D+00  0.000000D+00  0.000000D+00  0.000000D+00  0.000000D+00
     22  0.000000D+00  0.000000D+00  0.000000D+00  0.000000D+00  0.166215D-04
     23  0.000000D+00  0.000000D+00  0.000000D+00  0.000000D+00  0.000000D+00
     24  0.000000D+00  0.000000D+00  0.000000D+00  0.000000D+00  0.000000D+00
     25  0.000000D+00  0.000000D+00  0.000000D+00  0.000000D+00  0.000000D+00
     26  0.000000D+00  0.000000D+00  0.000000D+00  0.000000D+00  0.000000D+00
     27  0.000000D+00  0.000000D+00  0.000000D+00  0.000000D+00  0.000000D+00
     28  0.000000D+00  0.000000D+00  0.000000D+00  0.000000D+00  0.000000D+00
     29  0.000000D+00  0.000000D+00  0.000000D+00  0.000000D+00  0.000000D+00
     30  0.000000D+00  0.000000D+00  0.000000D+00  0.000000D+00  0.000000D+00
     31  0.000000D+00  0.000000D+00  0.000000D+00  0.000000D+00  0.000000D+00
     32  0.000000D+00  0.000000D+00  0.000000D+00  0.000000D+00  0.000000D+00
     33  0.000000D+00  0.000000D+00  0.000000D+00  0.000000D+00 -0.419986D-04
     34  0.000000D+00  0.000000D+00  0.000000D+00  0.000000D+00 -0.269232D-04
     35  0.000000D+00  0.000000D+00  0.000000D+00  0.000000D+00  0.229470D-04
     36  0.000000D+00  0.000000D+00  0.000000D+00  0.000000D+00  0.000000D+00
     37  0.000000D+00  0.000000D+00  0.000000D+00  0.000000D+00  0.000000D+00
     38  0.000000D+00  0.000000D+00  0.000000D+00  0.000000D+00  0.000000D+00
     39  0.000000D+00  0.000000D+00  0.000000D+00  0.000000D+00  0.000000D+00
     40  0.000000D+00  0.000000D+00  0.000000D+00  0.000000D+00 -0.244413D-04
     41  0.000000D+00  0.000000D+00  0.000000D+00  0.000000D+00  0.287412D-04
     42  0.000000D+00  0.000000D+00  0.000000D+00  0.000000D+00  0.287412D-04
     43  0.000000D+00  0.000000D+00  0.000000D+00  0.000000D+00 -0.451841D-04
     44  0.000000D+00  0.000000D+00  0.000000D+00  0.000000D+00 -0.590573D-04
     45  0.000000D+00  0.000000D+00  0.000000D+00  0.000000D+00  0.000000D+00
     46  0.000000D+00  0.000000D+00  0.000000D+00  0.000000D+00 -0.562893D-04
     47  0.000000D+00  0.000000D+00  0.000000D+00  0.000000D+00  0.419301D-05
     48  0.000000D+00  0.000000D+00  0.000000D+00  0.000000D+00  0.000000D+00
     49  0.000000D+00  0.000000D+00  0.000000D+00  0.000000D+00  0.000000D+00
     50  0.000000D+00  0.000000D+00  0.000000D+00  0.000000D+00  0.000000D+00
     51  0.000000D+00  0.000000D+00  0.000000D+00  0.000000D+00  0.000000D+00
     52  0.000000D+00  0.000000D+00  0.000000D+00  0.000000D+00  0.000000D+00
     53  0.000000D+00  0.000000D+00  0.000000D+00  0.000000D+00  0.000000D+00
     54  0.000000D+00  0.000000D+00  0.000000D+00  0.000000D+00  0.000000D+00
     55  0.000000D+00  0.000000D+00  0.000000D+00  0.000000D+00  0.000000D+00
     56  0.000000D+00  0.000000D+00  0.000000D+00  0.000000D+00  0.000000D+00
     57  0.000000D+00  0.000000D+00  0.000000D+00  0.000000D+00 -0.705318D-05
     58  0.000000D+00  0.000000D+00  0.000000D+00  0.000000D+00 -0.756777D-05
     59  0.000000D+00  0.000000D+00  0.000000D+00  0.000000D+00 -0.705318D-05
     60  0.000000D+00  0.000000D+00  0.000000D+00  0.000000D+00 -0.756777D-05
     61  0.000000D+00  0.000000D+00  0.000000D+00  0.000000D+00 -0.705318D-05
     62  0.000000D+00  0.000000D+00  0.000000D+00  0.000000D+00 -0.756777D-05
     63  0.000000D+00  0.000000D+00  0.000000D+00  0.000000D+00 -0.176929D-04
     64  0.000000D+00  0.000000D+00  0.000000D+00  0.000000D+00 -0.176929D-04
     65  0.000000D+00  0.000000D+00  0.000000D+00  0.000000D+00 -0.176929D-04
                6             7             8             9            10 
      6  0.000000D+00
      7  0.000000D+00  0.498364D-04
      8  0.000000D+00 -0.101517D-04  0.687861D-04
      9  0.000000D+00  0.000000D+00  0.000000D+00  0.000000D+00
     10  0.000000D+00  0.000000D+00  0.000000D+00  0.000000D+00  0.000000D+00
     11  0.000000D+00  0.000000D+00  0.000000D+00  0.000000D+00  0.000000D+00
     12  0.000000D+00  0.000000D+00  0.000000D+00  0.000000D+00  0.000000D+00
     13  0.000000D+00  0.000000D+00  0.000000D+00  0.000000D+00  0.000000D+00
     14  0.000000D+00  0.000000D+00  0.000000D+00  0.000000D+00  0.000000D+00
     15  0.000000D+00  0.000000D+00  0.000000D+00  0.000000D+00  0.000000D+00
     16  0.000000D+00  0.000000D+00  0.000000D+00  0.000000D+00  0.000000D+00
     17  0.000000D+00  0.000000D+00  0.000000D+00  0.000000D+00  0.000000D+00
     18  0.000000D+00  0.474745D-05 -0.529343D-05  0.000000D+00  0.000000D+00
     19  0.000000D+00  0.000000D+00  0.000000D+00  0.000000D+00  0.000000D+00
     20  0.000000D+00  0.242705D-05 -0.336785D-05  0.000000D+00  0.000000D+00
     21  0.000000D+00  0.000000D+00  0.000000D+00  0.000000D+00  0.000000D+00
     22  0.000000D+00  0.431764D-05 -0.637873D-05  0.000000D+00  0.000000D+00
     23  0.000000D+00 -0.117227D-05 -0.248040D-05  0.000000D+00  0.000000D+00
     24  0.000000D+00  0.000000D+00  0.000000D+00  0.000000D+00  0.000000D+00
     25  0.000000D+00  0.000000D+00  0.000000D+00  0.000000D+00  0.000000D+00
     26  0.000000D+00  0.000000D+00  0.000000D+00  0.000000D+00  0.000000D+00
     27  0.000000D+00  0.000000D+00  0.000000D+00  0.000000D+00  0.000000D+00
     28  0.000000D+00  0.000000D+00  0.000000D+00  0.000000D+00  0.000000D+00
     29  0.000000D+00  0.000000D+00  0.000000D+00  0.000000D+00  0.000000D+00
     30  0.000000D+00  0.000000D+00  0.000000D+00  0.000000D+00  0.000000D+00
     31  0.000000D+00  0.000000D+00  0.000000D+00  0.000000D+00  0.000000D+00
     32  0.000000D+00  0.000000D+00  0.000000D+00  0.000000D+00  0.000000D+00
     33  0.000000D+00 -0.220562D-04  0.204771D-04  0.000000D+00  0.000000D+00
     34  0.000000D+00 -0.175963D-04  0.177714D-04  0.000000D+00  0.000000D+00
     35  0.000000D+00  0.136086D-04 -0.231336D-04  0.000000D+00  0.000000D+00
     36  0.000000D+00  0.000000D+00  0.000000D+00  0.000000D+00  0.000000D+00
     37  0.000000D+00  0.000000D+00  0.000000D+00  0.000000D+00  0.000000D+00
     38  0.000000D+00  0.000000D+00  0.000000D+00  0.000000D+00  0.000000D+00
     39  0.000000D+00  0.000000D+00  0.000000D+00  0.000000D+00  0.000000D+00
     40  0.000000D+00 -0.579150D-05  0.723610D-05  0.000000D+00  0.000000D+00
     41  0.000000D+00  0.743982D-05 -0.104672D-04  0.000000D+00  0.000000D+00
     42  0.000000D+00  0.743982D-05 -0.104672D-04  0.000000D+00  0.000000D+00
     43  0.000000D+00 -0.950995D-05  0.628641D-05  0.000000D+00  0.000000D+00
     44  0.000000D+00 -0.129838D-04  0.103402D-04  0.000000D+00  0.000000D+00
     45  0.000000D+00  0.000000D+00 -0.569193D-05  0.000000D+00  0.000000D+00
     46  0.000000D+00 -0.129040D-04  0.212058D-04  0.000000D+00  0.000000D+00
     47  0.000000D+00  0.357340D-05  0.202198D-05  0.000000D+00  0.000000D+00
     48  0.000000D+00  0.000000D+00  0.000000D+00  0.000000D+00  0.000000D+00
     49  0.000000D+00  0.000000D+00  0.000000D+00  0.000000D+00  0.000000D+00
     50  0.000000D+00  0.000000D+00  0.000000D+00  0.000000D+00  0.000000D+00
     51  0.000000D+00  0.000000D+00  0.000000D+00  0.000000D+00  0.000000D+00
     52  0.000000D+00  0.000000D+00  0.000000D+00  0.000000D+00  0.000000D+00
     53  0.000000D+00  0.000000D+00  0.000000D+00  0.000000D+00  0.000000D+00
     54  0.000000D+00  0.000000D+00  0.000000D+00  0.000000D+00  0.000000D+00
     55  0.000000D+00  0.000000D+00  0.000000D+00  0.000000D+00  0.000000D+00
     56  0.000000D+00  0.000000D+00  0.000000D+00  0.000000D+00  0.000000D+00
     57  0.000000D+00 -0.469175D-05  0.197508D-04  0.000000D+00  0.000000D+00
     58  0.000000D+00 -0.253821D-05  0.188413D-04  0.000000D+00  0.000000D+00
     59  0.000000D+00 -0.469175D-05  0.197508D-04  0.000000D+00  0.000000D+00
     60  0.000000D+00 -0.253821D-05  0.188413D-04  0.000000D+00  0.000000D+00
     61  0.000000D+00 -0.469175D-05  0.197508D-04  0.000000D+00  0.000000D+00
     62  0.000000D+00 -0.253821D-05  0.188413D-04  0.000000D+00  0.000000D+00
     63  0.000000D+00 -0.132057D-04  0.223648D-05  0.000000D+00  0.000000D+00
     64  0.000000D+00 -0.132057D-04  0.223648D-05  0.000000D+00  0.000000D+00
     65  0.000000D+00 -0.132057D-04  0.223648D-05  0.000000D+00  0.000000D+00
               11            12            13            14            15 
     11  0.000000D+00
     12  0.000000D+00  0.000000D+00
     13  0.000000D+00  0.000000D+00  0.000000D+00
     14  0.000000D+00  0.000000D+00  0.000000D+00  0.000000D+00
     15  0.000000D+00  0.000000D+00  0.000000D+00  0.000000D+00  0.000000D+00
     16  0.000000D+00  0.000000D+00  0.000000D+00  0.000000D+00  0.000000D+00
     17  0.000000D+00  0.000000D+00  0.000000D+00  0.000000D+00  0.000000D+00
     18  0.000000D+00  0.000000D+00  0.000000D+00  0.000000D+00  0.000000D+00
     19  0.000000D+00  0.000000D+00  0.000000D+00  0.000000D+00  0.000000D+00
     20  0.000000D+00  0.000000D+00  0.000000D+00  0.000000D+00  0.000000D+00
     21  0.000000D+00  0.000000D+00  0.000000D+00  0.000000D+00  0.000000D+00
     22  0.000000D+00  0.000000D+00  0.000000D+00  0.000000D+00  0.000000D+00
     23  0.000000D+00  0.000000D+00  0.000000D+00  0.000000D+00  0.000000D+00
     24  0.000000D+00  0.000000D+00  0.000000D+00  0.000000D+00  0.000000D+00
     25  0.000000D+00  0.000000D+00  0.000000D+00  0.000000D+00  0.000000D+00
     26  0.000000D+00  0.000000D+00  0.000000D+00  0.000000D+00  0.000000D+00
     27  0.000000D+00  0.000000D+00  0.000000D+00  0.000000D+00  0.000000D+00
     28  0.000000D+00  0.000000D+00  0.000000D+00  0.000000D+00  0.000000D+00
     29  0.000000D+00  0.000000D+00  0.000000D+00  0.000000D+00  0.000000D+00
     30  0.000000D+00  0.000000D+00  0.000000D+00  0.000000D+00  0.000000D+00
     31  0.000000D+00  0.000000D+00  0.000000D+00  0.000000D+00  0.000000D+00
     32  0.000000D+00  0.000000D+00  0.000000D+00  0.000000D+00  0.000000D+00
     33  0.000000D+00  0.000000D+00  0.000000D+00  0.000000D+00  0.000000D+00
     34  0.000000D+00  0.000000D+00  0.000000D+00  0.000000D+00  0.000000D+00
     35  0.000000D+00  0.000000D+00  0.000000D+00  0.000000D+00  0.000000D+00
     36  0.000000D+00  0.000000D+00  0.000000D+00  0.000000D+00  0.000000D+00
     37  0.000000D+00  0.000000D+00  0.000000D+00  0.000000D+00  0.000000D+00
     38  0.000000D+00  0.000000D+00  0.000000D+00  0.000000D+00  0.000000D+00
     39  0.000000D+00  0.000000D+00  0.000000D+00  0.000000D+00  0.000000D+00
     40  0.000000D+00  0.000000D+00  0.000000D+00  0.000000D+00  0.000000D+00
     41  0.000000D+00  0.000000D+00  0.000000D+00  0.000000D+00  0.000000D+00
     42  0.000000D+00  0.000000D+00  0.000000D+00  0.000000D+00  0.000000D+00
     43  0.000000D+00  0.000000D+00  0.000000D+00  0.000000D+00  0.000000D+00
     44  0.000000D+00  0.000000D+00  0.000000D+00  0.000000D+00  0.000000D+00
     45  0.000000D+00  0.000000D+00  0.000000D+00  0.000000D+00  0.000000D+00
     46  0.000000D+00  0.000000D+00  0.000000D+00  0.000000D+00  0.000000D+00
     47  0.000000D+00  0.000000D+00  0.000000D+00  0.000000D+00  0.000000D+00
     48  0.000000D+00  0.000000D+00  0.000000D+00  0.000000D+00  0.000000D+00
     49  0.000000D+00  0.000000D+00  0.000000D+00  0.000000D+00  0.000000D+00
     50  0.000000D+00  0.000000D+00  0.000000D+00  0.000000D+00  0.000000D+00
     51  0.000000D+00  0.000000D+00  0.000000D+00  0.000000D+00  0.000000D+00
     52  0.000000D+00  0.000000D+00  0.000000D+00  0.000000D+00  0.000000D+00
     53  0.000000D+00  0.000000D+00  0.000000D+00  0.000000D+00  0.000000D+00
     54  0.000000D+00  0.000000D+00  0.000000D+00  0.000000D+00  0.000000D+00
     55  0.000000D+00  0.000000D+00  0.000000D+00  0.000000D+00  0.000000D+00
     56  0.000000D+00  0.000000D+00  0.000000D+00  0.000000D+00  0.000000D+00
     57  0.000000D+00  0.000000D+00  0.000000D+00  0.000000D+00  0.000000D+00
     58  0.000000D+00  0.000000D+00  0.000000D+00  0.000000D+00  0.000000D+00
     59  0.000000D+00  0.000000D+00  0.000000D+00  0.000000D+00  0.000000D+00
     60  0.000000D+00  0.000000D+00  0.000000D+00  0.000000D+00  0.000000D+00
     61  0.000000D+00  0.000000D+00  0.000000D+00  0.000000D+00  0.000000D+00
     62  0.000000D+00  0.000000D+00  0.000000D+00  0.000000D+00  0.000000D+00
     63  0.000000D+00  0.000000D+00  0.000000D+00  0.000000D+00  0.000000D+00
     64  0.000000D+00  0.000000D+00  0.000000D+00  0.000000D+00  0.000000D+00
     65  0.000000D+00  0.000000D+00  0.000000D+00  0.000000D+00  0.000000D+00
               16            17            18            19            20 
     16  0.000000D+00
     17  0.000000D+00  0.000000D+00
     18  0.000000D+00  0.000000D+00  0.385723D-05
     19  0.000000D+00  0.000000D+00  0.000000D+00  0.000000D+00
     20  0.000000D+00  0.000000D+00  0.249271D-05  0.000000D+00  0.162023D-05
     21  0.000000D+00  0.000000D+00  0.000000D+00  0.000000D+00  0.000000D+00
     22  0.000000D+00  0.000000D+00  0.350648D-05  0.000000D+00  0.226601D-05
     23  0.000000D+00  0.000000D+00  0.000000D+00  0.000000D+00  0.000000D+00
     24  0.000000D+00  0.000000D+00  0.000000D+00  0.000000D+00  0.000000D+00
     25  0.000000D+00  0.000000D+00  0.000000D+00  0.000000D+00  0.000000D+00
     26  0.000000D+00  0.000000D+00  0.000000D+00  0.000000D+00  0.000000D+00
     27  0.000000D+00  0.000000D+00  0.000000D+00  0.000000D+00  0.000000D+00
     28  0.000000D+00  0.000000D+00  0.000000D+00  0.000000D+00  0.000000D+00
     29  0.000000D+00  0.000000D+00  0.000000D+00  0.000000D+00  0.000000D+00
     30  0.000000D+00  0.000000D+00  0.000000D+00  0.000000D+00  0.000000D+00
     31  0.000000D+00  0.000000D+00  0.000000D+00  0.000000D+00  0.000000D+00
     32  0.000000D+00  0.000000D+00  0.000000D+00  0.000000D+00  0.000000D+00
     33  0.000000D+00  0.000000D+00 -0.561835D-05  0.000000D+00 -0.341022D-05
     34  0.000000D+00  0.000000D+00 -0.259620D-05  0.000000D+00 -0.146796D-05
     35  0.000000D+00  0.000000D+00  0.261672D-05  0.000000D+00  0.153969D-05
     36  0.000000D+00  0.000000D+00  0.000000D+00  0.000000D+00  0.000000D+00
     37  0.000000D+00  0.000000D+00  0.000000D+00  0.000000D+00  0.000000D+00
     38  0.000000D+00  0.000000D+00  0.000000D+00  0.000000D+00  0.000000D+00
     39  0.000000D+00  0.000000D+00  0.000000D+00  0.000000D+00  0.000000D+00
     40  0.000000D+00  0.000000D+00 -0.531826D-05  0.000000D+00 -0.344787D-05
     41  0.000000D+00  0.000000D+00  0.607086D-05  0.000000D+00  0.392371D-05
     42  0.000000D+00  0.000000D+00  0.607086D-05  0.000000D+00  0.392371D-05
     43  0.000000D+00  0.000000D+00 -0.101798D-04  0.000000D+00 -0.662259D-05
     44  0.000000D+00  0.000000D+00 -0.131442D-04  0.000000D+00 -0.854090D-05
     45  0.000000D+00  0.000000D+00  0.000000D+00  0.000000D+00  0.000000D+00
     46  0.000000D+00  0.000000D+00 -0.123744D-04  0.000000D+00 -0.803077D-05
     47  0.000000D+00  0.000000D+00  0.000000D+00  0.000000D+00  0.000000D+00
     48  0.000000D+00  0.000000D+00  0.000000D+00  0.000000D+00  0.000000D+00
     49  0.000000D+00  0.000000D+00  0.000000D+00  0.000000D+00  0.000000D+00
     50  0.000000D+00  0.000000D+00  0.000000D+00  0.000000D+00  0.000000D+00
     51  0.000000D+00  0.000000D+00  0.000000D+00  0.000000D+00  0.000000D+00
     52  0.000000D+00  0.000000D+00  0.000000D+00  0.000000D+00  0.000000D+00
     53  0.000000D+00  0.000000D+00  0.000000D+00  0.000000D+00  0.000000D+00
     54  0.000000D+00  0.000000D+00  0.000000D+00  0.000000D+00  0.000000D+00
     55  0.000000D+00  0.000000D+00  0.000000D+00  0.000000D+00  0.000000D+00
     56  0.000000D+00  0.000000D+00  0.000000D+00  0.000000D+00  0.000000D+00
     57  0.000000D+00  0.000000D+00  0.000000D+00  0.000000D+00  0.000000D+00
     58  0.000000D+00  0.000000D+00 -0.143004D-05  0.000000D+00  0.000000D+00
     59  0.000000D+00  0.000000D+00  0.000000D+00  0.000000D+00  0.000000D+00
     60  0.000000D+00  0.000000D+00 -0.143004D-05  0.000000D+00  0.000000D+00
     61  0.000000D+00  0.000000D+00  0.000000D+00  0.000000D+00  0.000000D+00
     62  0.000000D+00  0.000000D+00 -0.143004D-05  0.000000D+00  0.000000D+00
     63  0.000000D+00  0.000000D+00 -0.122857D-05  0.000000D+00  0.000000D+00
     64  0.000000D+00  0.000000D+00 -0.122857D-05  0.000000D+00  0.000000D+00
     65  0.000000D+00  0.000000D+00 -0.122857D-05  0.000000D+00  0.000000D+00
               21            22            23            24            25 
     21  0.000000D+00
     22  0.000000D+00  0.322771D-05
     23  0.000000D+00  0.000000D+00  0.000000D+00
     24  0.000000D+00  0.000000D+00  0.000000D+00  0.000000D+00
     25  0.000000D+00  0.000000D+00  0.000000D+00  0.000000D+00  0.000000D+00
     26  0.000000D+00  0.000000D+00  0.000000D+00  0.000000D+00  0.000000D+00
     27  0.000000D+00  0.000000D+00  0.000000D+00  0.000000D+00  0.000000D+00
     28  0.000000D+00  0.000000D+00  0.000000D+00  0.000000D+00  0.000000D+00
     29  0.000000D+00  0.000000D+00  0.000000D+00  0.000000D+00  0.000000D+00
     30  0.000000D+00  0.000000D+00  0.000000D+00  0.000000D+00  0.000000D+00
     31  0.000000D+00  0.000000D+00  0.000000D+00  0.000000D+00  0.000000D+00
     32  0.000000D+00  0.000000D+00  0.000000D+00  0.000000D+00  0.000000D+00
     33  0.000000D+00 -0.540275D-05  0.000000D+00  0.000000D+00  0.000000D+00
     34  0.000000D+00 -0.269384D-05  0.000000D+00  0.000000D+00  0.000000D+00
     35  0.000000D+00  0.285729D-05  0.000000D+00  0.000000D+00  0.000000D+00
     36  0.000000D+00  0.000000D+00  0.000000D+00  0.000000D+00  0.000000D+00
     37  0.000000D+00  0.000000D+00  0.000000D+00  0.000000D+00  0.000000D+00
     38  0.000000D+00  0.000000D+00  0.000000D+00  0.000000D+00  0.000000D+00
     39  0.000000D+00  0.000000D+00  0.000000D+00  0.000000D+00  0.000000D+00
     40  0.000000D+00 -0.483461D-05  0.000000D+00  0.000000D+00  0.000000D+00
     41  0.000000D+00  0.557353D-05  0.000000D+00  0.000000D+00  0.000000D+00
     42  0.000000D+00  0.557353D-05  0.000000D+00  0.000000D+00  0.000000D+00
     43  0.000000D+00 -0.906375D-05  0.000000D+00  0.000000D+00  0.000000D+00
     44  0.000000D+00 -0.117586D-04  0.000000D+00  0.000000D+00  0.000000D+00
     45  0.000000D+00  0.000000D+00  0.000000D+00  0.000000D+00  0.000000D+00
     46  0.000000D+00 -0.113621D-04  0.000000D+00  0.000000D+00  0.000000D+00
     47  0.000000D+00  0.000000D+00  0.000000D+00  0.000000D+00  0.000000D+00
     48  0.000000D+00  0.000000D+00  0.000000D+00  0.000000D+00  0.000000D+00
     49  0.000000D+00  0.000000D+00  0.000000D+00  0.000000D+00  0.000000D+00
     50  0.000000D+00  0.000000D+00  0.000000D+00  0.000000D+00  0.000000D+00
     51  0.000000D+00  0.000000D+00  0.000000D+00  0.000000D+00  0.000000D+00
     52  0.000000D+00  0.000000D+00  0.000000D+00  0.000000D+00  0.000000D+00
     53  0.000000D+00  0.000000D+00  0.000000D+00  0.000000D+00  0.000000D+00
     54  0.000000D+00  0.000000D+00  0.000000D+00  0.000000D+00  0.000000D+00
     55  0.000000D+00  0.000000D+00  0.000000D+00  0.000000D+00  0.000000D+00
     56  0.000000D+00  0.000000D+00  0.000000D+00  0.000000D+00  0.000000D+00
     57  0.000000D+00 -0.107090D-05  0.000000D+00  0.000000D+00  0.000000D+00
     58  0.000000D+00 -0.173027D-05  0.000000D+00  0.000000D+00  0.000000D+00
     59  0.000000D+00 -0.107090D-05  0.000000D+00  0.000000D+00  0.000000D+00
     60  0.000000D+00 -0.173027D-05  0.000000D+00  0.000000D+00  0.000000D+00
     61  0.000000D+00 -0.107090D-05  0.000000D+00  0.000000D+00  0.000000D+00
     62  0.000000D+00 -0.173027D-05  0.000000D+00  0.000000D+00  0.000000D+00
     63  0.000000D+00 -0.110671D-05  0.000000D+00  0.000000D+00  0.000000D+00
     64  0.000000D+00 -0.110671D-05  0.000000D+00  0.000000D+00  0.000000D+00
     65  0.000000D+00 -0.110671D-05  0.000000D+00  0.000000D+00  0.000000D+00
               26            27            28            29            30 
     26  0.000000D+00
     27  0.000000D+00  0.000000D+00
     28  0.000000D+00  0.000000D+00  0.000000D+00
     29  0.000000D+00  0.000000D+00  0.000000D+00  0.000000D+00
     30  0.000000D+00  0.000000D+00  0.000000D+00  0.000000D+00  0.000000D+00
     31  0.000000D+00  0.000000D+00  0.000000D+00  0.000000D+00  0.000000D+00
     32  0.000000D+00  0.000000D+00  0.000000D+00  0.000000D+00  0.000000D+00
     33  0.000000D+00  0.000000D+00  0.000000D+00  0.000000D+00  0.000000D+00
     34  0.000000D+00  0.000000D+00  0.000000D+00  0.000000D+00  0.000000D+00
     35  0.000000D+00  0.000000D+00  0.000000D+00  0.000000D+00  0.000000D+00
     36  0.000000D+00  0.000000D+00  0.000000D+00  0.000000D+00  0.000000D+00
     37  0.000000D+00  0.000000D+00  0.000000D+00  0.000000D+00  0.000000D+00
     38  0.000000D+00  0.000000D+00  0.000000D+00  0.000000D+00  0.000000D+00
     39  0.000000D+00  0.000000D+00  0.000000D+00  0.000000D+00  0.000000D+00
     40  0.000000D+00  0.000000D+00  0.000000D+00  0.000000D+00  0.000000D+00
     41  0.000000D+00  0.000000D+00  0.000000D+00  0.000000D+00  0.000000D+00
     42  0.000000D+00  0.000000D+00  0.000000D+00  0.000000D+00  0.000000D+00
     43  0.000000D+00  0.000000D+00  0.000000D+00  0.000000D+00  0.000000D+00
     44  0.000000D+00  0.000000D+00  0.000000D+00  0.000000D+00  0.000000D+00
     45  0.000000D+00  0.000000D+00  0.000000D+00  0.000000D+00  0.000000D+00
     46  0.000000D+00  0.000000D+00  0.000000D+00  0.000000D+00  0.000000D+00
     47  0.000000D+00  0.000000D+00  0.000000D+00  0.000000D+00  0.000000D+00
     48  0.000000D+00  0.000000D+00  0.000000D+00  0.000000D+00  0.000000D+00
     49  0.000000D+00  0.000000D+00  0.000000D+00  0.000000D+00  0.000000D+00
     50  0.000000D+00  0.000000D+00  0.000000D+00  0.000000D+00  0.000000D+00
     51  0.000000D+00  0.000000D+00  0.000000D+00  0.000000D+00  0.000000D+00
     52  0.000000D+00  0.000000D+00  0.000000D+00  0.000000D+00  0.000000D+00
     53  0.000000D+00  0.000000D+00  0.000000D+00  0.000000D+00  0.000000D+00
     54  0.000000D+00  0.000000D+00  0.000000D+00  0.000000D+00  0.000000D+00
     55  0.000000D+00  0.000000D+00  0.000000D+00  0.000000D+00  0.000000D+00
     56  0.000000D+00  0.000000D+00  0.000000D+00  0.000000D+00  0.000000D+00
     57  0.000000D+00  0.000000D+00  0.000000D+00  0.000000D+00  0.000000D+00
     58  0.000000D+00  0.000000D+00  0.000000D+00  0.000000D+00  0.000000D+00
     59  0.000000D+00  0.000000D+00  0.000000D+00  0.000000D+00  0.000000D+00
     60  0.000000D+00  0.000000D+00  0.000000D+00  0.000000D+00  0.000000D+00
     61  0.000000D+00  0.000000D+00  0.000000D+00  0.000000D+00  0.000000D+00
     62  0.000000D+00  0.000000D+00  0.000000D+00  0.000000D+00  0.000000D+00
     63  0.000000D+00  0.000000D+00  0.000000D+00  0.000000D+00  0.000000D+00
     64  0.000000D+00  0.000000D+00  0.000000D+00  0.000000D+00  0.000000D+00
     65  0.000000D+00  0.000000D+00  0.000000D+00  0.000000D+00  0.000000D+00
               31            32            33            34            35 
     31  0.000000D+00
     32  0.000000D+00  0.000000D+00
     33  0.000000D+00  0.000000D+00  0.155606D-04
     34  0.000000D+00  0.000000D+00  0.111865D-04  0.922967D-05
     35  0.000000D+00  0.000000D+00 -0.109010D-04 -0.913465D-05  0.993013D-05
     36  0.000000D+00  0.000000D+00  0.000000D+00  0.000000D+00  0.000000D+00
     37  0.000000D+00  0.000000D+00  0.000000D+00  0.000000D+00  0.000000D+00
     38  0.000000D+00  0.000000D+00  0.000000D+00  0.000000D+00  0.000000D+00
     39  0.000000D+00  0.000000D+00  0.000000D+00  0.000000D+00  0.000000D+00
     40  0.000000D+00  0.000000D+00  0.748688D-05  0.333270D-05 -0.342979D-05
     41  0.000000D+00  0.000000D+00 -0.923385D-05 -0.453036D-05  0.476350D-05
     42  0.000000D+00  0.000000D+00 -0.923385D-05 -0.453036D-05  0.476350D-05
     43  0.000000D+00  0.000000D+00  0.123902D-04  0.428261D-05 -0.392417D-05
     44  0.000000D+00  0.000000D+00  0.166480D-04  0.622070D-05 -0.589398D-05
     45  0.000000D+00  0.000000D+00 -0.107919D-05  0.000000D+00  0.158474D-05
     46  0.000000D+00  0.000000D+00  0.180543D-04  0.850646D-05 -0.919319D-05
     47  0.000000D+00  0.000000D+00  0.000000D+00  0.000000D+00  0.000000D+00
     48  0.000000D+00  0.000000D+00  0.000000D+00  0.000000D+00  0.000000D+00
     49  0.000000D+00  0.000000D+00  0.000000D+00  0.000000D+00  0.000000D+00
     50  0.000000D+00  0.000000D+00  0.000000D+00  0.000000D+00  0.000000D+00
     51  0.000000D+00  0.000000D+00  0.000000D+00  0.000000D+00  0.000000D+00
     52  0.000000D+00  0.000000D+00  0.000000D+00  0.000000D+00  0.000000D+00
     53  0.000000D+00  0.000000D+00  0.000000D+00  0.000000D+00  0.000000D+00
     54  0.000000D+00  0.000000D+00  0.000000D+00  0.000000D+00  0.000000D+00
     55  0.000000D+00  0.000000D+00  0.000000D+00  0.000000D+00  0.000000D+00
     56  0.000000D+00  0.000000D+00  0.000000D+00  0.000000D+00  0.000000D+00
     57  0.000000D+00  0.000000D+00  0.577786D-05  0.565319D-05 -0.701718D-05
     58  0.000000D+00  0.000000D+00  0.551342D-05  0.479269D-05 -0.628542D-05
     59  0.000000D+00  0.000000D+00  0.577786D-05  0.565319D-05 -0.701718D-05
     60  0.000000D+00  0.000000D+00  0.551342D-05  0.479269D-05 -0.628542D-05
     61  0.000000D+00  0.000000D+00  0.577786D-05  0.565319D-05 -0.701718D-05
     62  0.000000D+00  0.000000D+00  0.551342D-05  0.479269D-05 -0.628542D-05
     63  0.000000D+00  0.000000D+00  0.573580D-05  0.456623D-05 -0.346761D-05
     64  0.000000D+00  0.000000D+00  0.573580D-05  0.456623D-05 -0.346761D-05
     65  0.000000D+00  0.000000D+00  0.573580D-05  0.456623D-05 -0.346761D-05
               36            37            38            39            40 
     36  0.000000D+00
     37  0.000000D+00  0.000000D+00
     38  0.000000D+00  0.000000D+00  0.000000D+00
     39  0.000000D+00  0.000000D+00  0.000000D+00  0.000000D+00
     40  0.000000D+00  0.000000D+00  0.000000D+00  0.000000D+00  0.734560D-05
     41  0.000000D+00  0.000000D+00  0.000000D+00  0.000000D+00 -0.837089D-05
     42  0.000000D+00  0.000000D+00  0.000000D+00  0.000000D+00 -0.837089D-05
     43  0.000000D+00  0.000000D+00  0.000000D+00  0.000000D+00  0.140874D-04
     44  0.000000D+00  0.000000D+00  0.000000D+00  0.000000D+00  0.181777D-04
     45  0.000000D+00  0.000000D+00  0.000000D+00  0.000000D+00  0.000000D+00
     46  0.000000D+00  0.000000D+00  0.000000D+00  0.000000D+00  0.171014D-04
     47  0.000000D+00  0.000000D+00  0.000000D+00  0.000000D+00  0.000000D+00
     48  0.000000D+00  0.000000D+00  0.000000D+00  0.000000D+00  0.000000D+00
     49  0.000000D+00  0.000000D+00  0.000000D+00  0.000000D+00  0.000000D+00
     50  0.000000D+00  0.000000D+00  0.000000D+00  0.000000D+00  0.000000D+00
     51  0.000000D+00  0.000000D+00  0.000000D+00  0.000000D+00  0.000000D+00
     52  0.000000D+00  0.000000D+00  0.000000D+00  0.000000D+00  0.000000D+00
     53  0.000000D+00  0.000000D+00  0.000000D+00  0.000000D+00  0.000000D+00
     54  0.000000D+00  0.000000D+00  0.000000D+00  0.000000D+00  0.000000D+00
     55  0.000000D+00  0.000000D+00  0.000000D+00  0.000000D+00  0.000000D+00
     56  0.000000D+00  0.000000D+00  0.000000D+00  0.000000D+00  0.000000D+00
     57  0.000000D+00  0.000000D+00  0.000000D+00  0.000000D+00  0.000000D+00
     58  0.000000D+00  0.000000D+00  0.000000D+00  0.000000D+00  0.195836D-05
     59  0.000000D+00  0.000000D+00  0.000000D+00  0.000000D+00  0.000000D+00
     60  0.000000D+00  0.000000D+00  0.000000D+00  0.000000D+00  0.195836D-05
     61  0.000000D+00  0.000000D+00  0.000000D+00  0.000000D+00  0.000000D+00
     62  0.000000D+00  0.000000D+00  0.000000D+00  0.000000D+00  0.195836D-05
     63  0.000000D+00  0.000000D+00  0.000000D+00  0.000000D+00  0.149347D-05
     64  0.000000D+00  0.000000D+00  0.000000D+00  0.000000D+00  0.149347D-05
     65  0.000000D+00  0.000000D+00  0.000000D+00  0.000000D+00  0.149347D-05
               41            42            43            44            45 
     41  0.962958D-05
     42  0.962958D-05  0.962958D-05
     43 -0.157644D-04 -0.157644D-04  0.279758D-04
     44 -0.204302D-04 -0.204302D-04  0.358115D-04  0.459261D-04
     45  0.000000D+00  0.000000D+00  0.000000D+00  0.000000D+00  0.000000D+00
     46 -0.196320D-04 -0.196320D-04  0.322813D-04  0.418009D-04 -0.143880D-05
     47  0.000000D+00  0.000000D+00  0.000000D+00  0.000000D+00  0.000000D+00
     48  0.000000D+00  0.000000D+00  0.000000D+00  0.000000D+00  0.000000D+00
     49  0.000000D+00  0.000000D+00  0.000000D+00  0.000000D+00  0.000000D+00
     50  0.000000D+00  0.000000D+00  0.000000D+00  0.000000D+00  0.000000D+00
     51  0.000000D+00  0.000000D+00  0.000000D+00  0.000000D+00  0.000000D+00
     52  0.000000D+00  0.000000D+00  0.000000D+00  0.000000D+00  0.000000D+00
     53  0.000000D+00  0.000000D+00  0.000000D+00  0.000000D+00  0.000000D+00
     54  0.000000D+00  0.000000D+00  0.000000D+00  0.000000D+00  0.000000D+00
     55  0.000000D+00  0.000000D+00  0.000000D+00  0.000000D+00  0.000000D+00
     56  0.000000D+00  0.000000D+00  0.000000D+00  0.000000D+00  0.000000D+00
     57 -0.167736D-05 -0.167736D-05  0.000000D+00  0.000000D+00 -0.157691D-05
     58 -0.283751D-05 -0.283751D-05  0.167887D-05  0.277483D-05 -0.156692D-05
     59 -0.167736D-05 -0.167736D-05  0.000000D+00  0.000000D+00 -0.157691D-05
     60 -0.283751D-05 -0.283751D-05  0.167887D-05  0.277483D-05 -0.156692D-05
     61 -0.167736D-05 -0.167736D-05  0.000000D+00  0.000000D+00 -0.157691D-05
     62 -0.283751D-05 -0.283751D-05  0.167887D-05  0.277483D-05 -0.156692D-05
     63 -0.191056D-05 -0.191056D-05  0.249039D-05  0.338815D-05  0.000000D+00
     64 -0.191056D-05 -0.191056D-05  0.249039D-05  0.338815D-05  0.000000D+00
     65 -0.191056D-05 -0.191056D-05  0.249039D-05  0.338815D-05  0.000000D+00
               46            47            48            49            50 
     46  0.401402D-04
     47  0.000000D+00  0.000000D+00
     48  0.000000D+00  0.000000D+00  0.000000D+00
     49  0.000000D+00  0.000000D+00  0.000000D+00  0.000000D+00
     50  0.000000D+00  0.000000D+00  0.000000D+00  0.000000D+00  0.000000D+00
     51  0.000000D+00  0.000000D+00  0.000000D+00  0.000000D+00  0.000000D+00
     52  0.000000D+00  0.000000D+00  0.000000D+00  0.000000D+00  0.000000D+00
     53  0.000000D+00  0.000000D+00  0.000000D+00  0.000000D+00  0.000000D+00
     54  0.000000D+00  0.000000D+00  0.000000D+00  0.000000D+00  0.000000D+00
     55  0.000000D+00  0.000000D+00  0.000000D+00  0.000000D+00  0.000000D+00
     56  0.000000D+00  0.000000D+00  0.000000D+00  0.000000D+00  0.000000D+00
     57  0.323670D-05  0.000000D+00  0.000000D+00  0.000000D+00  0.000000D+00
     58  0.575949D-05  0.000000D+00  0.000000D+00  0.000000D+00  0.000000D+00
     59  0.323670D-05  0.000000D+00  0.000000D+00  0.000000D+00  0.000000D+00
     60  0.575949D-05  0.000000D+00  0.000000D+00  0.000000D+00  0.000000D+00
     61  0.323670D-05  0.000000D+00  0.000000D+00  0.000000D+00  0.000000D+00
     62  0.575949D-05  0.000000D+00  0.000000D+00  0.000000D+00  0.000000D+00
     63  0.329303D-05  0.000000D+00  0.000000D+00  0.000000D+00  0.000000D+00
     64  0.329303D-05  0.000000D+00  0.000000D+00  0.000000D+00  0.000000D+00
     65  0.329303D-05  0.000000D+00  0.000000D+00  0.000000D+00  0.000000D+00
               51            52            53            54            55 
     51  0.000000D+00
     52  0.000000D+00  0.000000D+00
     53  0.000000D+00  0.000000D+00  0.000000D+00
     54  0.000000D+00  0.000000D+00  0.000000D+00  0.000000D+00
     55  0.000000D+00  0.000000D+00  0.000000D+00  0.000000D+00  0.000000D+00
     56  0.000000D+00  0.000000D+00  0.000000D+00  0.000000D+00  0.000000D+00
     57  0.000000D+00  0.000000D+00  0.000000D+00  0.000000D+00  0.000000D+00
     58  0.000000D+00  0.000000D+00  0.000000D+00  0.000000D+00  0.000000D+00
     59  0.000000D+00  0.000000D+00  0.000000D+00  0.000000D+00  0.000000D+00
     60  0.000000D+00  0.000000D+00  0.000000D+00  0.000000D+00  0.000000D+00
     61  0.000000D+00  0.000000D+00  0.000000D+00  0.000000D+00  0.000000D+00
     62  0.000000D+00  0.000000D+00  0.000000D+00  0.000000D+00  0.000000D+00
     63  0.000000D+00  0.000000D+00  0.000000D+00  0.000000D+00  0.000000D+00
     64  0.000000D+00  0.000000D+00  0.000000D+00  0.000000D+00  0.000000D+00
     65  0.000000D+00  0.000000D+00  0.000000D+00  0.000000D+00  0.000000D+00
               56            57            58            59            60 
     56  0.000000D+00
     57  0.000000D+00  0.606256D-05
     58  0.000000D+00  0.540106D-05  0.516205D-05
     59  0.000000D+00  0.606256D-05  0.540106D-05  0.606256D-05
     60  0.000000D+00  0.540106D-05  0.516205D-05  0.540106D-05  0.516205D-05
     61  0.000000D+00  0.606256D-05  0.540106D-05  0.606256D-05  0.540106D-05
     62  0.000000D+00  0.540106D-05  0.516205D-05  0.540106D-05  0.516205D-05
     63  0.000000D+00  0.111546D-05  0.000000D+00  0.111546D-05  0.000000D+00
     64  0.000000D+00  0.111546D-05  0.000000D+00  0.111546D-05  0.000000D+00
     65  0.000000D+00  0.111546D-05  0.000000D+00  0.111546D-05  0.000000D+00
               61            62            63            64            65 
     61  0.606256D-05
     62  0.540106D-05  0.516205D-05
     63  0.111546D-05  0.000000D+00  0.350233D-05
     64  0.111546D-05  0.000000D+00  0.350233D-05  0.350233D-05
     65  0.111546D-05  0.000000D+00  0.350233D-05  0.350233D-05  0.350233D-05
 Force constants in internal coordinates: 
                1             2             3             4             5 
      1  0.000000D+00
      2  0.000000D+00  0.000000D+00
      3  0.000000D+00  0.000000D+00  0.000000D+00
      4  0.000000D+00  0.000000D+00  0.000000D+00  0.000000D+00
      5  0.000000D+00  0.000000D+00  0.000000D+00  0.000000D+00  0.131981D-03
      6  0.000000D+00  0.000000D+00  0.000000D+00  0.000000D+00  0.000000D+00
      7  0.000000D+00  0.000000D+00  0.000000D+00  0.000000D+00  0.671579D-04
      8  0.000000D+00  0.000000D+00  0.000000D+00  0.000000D+00 -0.287806D-04
      9  0.000000D+00  0.000000D+00  0.000000D+00  0.000000D+00  0.000000D+00
     10  0.000000D+00  0.000000D+00  0.000000D+00  0.000000D+00  0.000000D+00
     11  0.000000D+00  0.000000D+00  0.000000D+00  0.000000D+00  0.000000D+00
     12  0.000000D+00  0.000000D+00  0.000000D+00  0.000000D+00  0.000000D+00
     13  0.000000D+00  0.000000D+00  0.000000D+00  0.000000D+00  0.000000D+00
     14  0.000000D+00  0.000000D+00  0.000000D+00  0.000000D+00  0.000000D+00
     15  0.000000D+00  0.000000D+00  0.000000D+00  0.000000D+00  0.000000D+00
     16  0.000000D+00  0.000000D+00  0.000000D+00  0.000000D+00  0.000000D+00
     17  0.000000D+00  0.000000D+00  0.000000D+00  0.000000D+00  0.000000D+00
     18  0.000000D+00  0.000000D+00  0.000000D+00  0.000000D+00  0.182820D-04
     19  0.000000D+00  0.000000D+00  0.000000D+00  0.000000D+00  0.000000D+00
     20  0.000000D+00  0.000000D+00  0.000000D+00  0.000000D+00  0.111640D-04
     21  0.000000D+00  0.000000D+00  0.000000D+00  0.000000D+00  0.000000D+00
     22  0.000000D+00  0.000000D+00  0.000000D+00  0.000000D+00  0.166215D-04
     23  0.000000D+00  0.000000D+00  0.000000D+00  0.000000D+00  0.000000D+00
     24  0.000000D+00  0.000000D+00  0.000000D+00  0.000000D+00  0.000000D+00
     25  0.000000D+00  0.000000D+00  0.000000D+00  0.000000D+00  0.000000D+00
     26  0.000000D+00  0.000000D+00  0.000000D+00  0.000000D+00  0.000000D+00
     27  0.000000D+00  0.000000D+00  0.000000D+00  0.000000D+00  0.000000D+00
     28  0.000000D+00  0.000000D+00  0.000000D+00  0.000000D+00  0.000000D+00
     29  0.000000D+00  0.000000D+00  0.000000D+00  0.000000D+00  0.000000D+00
     30  0.000000D+00  0.000000D+00  0.000000D+00  0.000000D+00  0.000000D+00
     31  0.000000D+00  0.000000D+00  0.000000D+00  0.000000D+00  0.000000D+00
     32  0.000000D+00  0.000000D+00  0.000000D+00  0.000000D+00  0.000000D+00
     33  0.000000D+00  0.000000D+00  0.000000D+00  0.000000D+00 -0.419986D-04
     34  0.000000D+00  0.000000D+00  0.000000D+00  0.000000D+00 -0.269232D-04
     35  0.000000D+00  0.000000D+00  0.000000D+00  0.000000D+00  0.229470D-04
     36  0.000000D+00  0.000000D+00  0.000000D+00  0.000000D+00  0.000000D+00
     37  0.000000D+00  0.000000D+00  0.000000D+00  0.000000D+00  0.000000D+00
     38  0.000000D+00  0.000000D+00  0.000000D+00  0.000000D+00  0.000000D+00
     39  0.000000D+00  0.000000D+00  0.000000D+00  0.000000D+00  0.000000D+00
     40  0.000000D+00  0.000000D+00  0.000000D+00  0.000000D+00 -0.244413D-04
     41  0.000000D+00  0.000000D+00  0.000000D+00  0.000000D+00  0.287412D-04
     42  0.000000D+00  0.000000D+00  0.000000D+00  0.000000D+00  0.287412D-04
     43  0.000000D+00  0.000000D+00  0.000000D+00  0.000000D+00 -0.451841D-04
     44  0.000000D+00  0.000000D+00  0.000000D+00  0.000000D+00 -0.590573D-04
     45  0.000000D+00  0.000000D+00  0.000000D+00  0.000000D+00  0.000000D+00
     46  0.000000D+00  0.000000D+00  0.000000D+00  0.000000D+00 -0.562893D-04
     47  0.000000D+00  0.000000D+00  0.000000D+00  0.000000D+00  0.419301D-05
     48  0.000000D+00  0.000000D+00  0.000000D+00  0.000000D+00  0.000000D+00
     49  0.000000D+00  0.000000D+00  0.000000D+00  0.000000D+00  0.000000D+00
     50  0.000000D+00  0.000000D+00  0.000000D+00  0.000000D+00  0.000000D+00
     51  0.000000D+00  0.000000D+00  0.000000D+00  0.000000D+00  0.000000D+00
     52  0.000000D+00  0.000000D+00  0.000000D+00  0.000000D+00  0.000000D+00
     53  0.000000D+00  0.000000D+00  0.000000D+00  0.000000D+00  0.000000D+00
     54  0.000000D+00  0.000000D+00  0.000000D+00  0.000000D+00  0.000000D+00
     55  0.000000D+00  0.000000D+00  0.000000D+00  0.000000D+00  0.000000D+00
     56  0.000000D+00  0.000000D+00  0.000000D+00  0.000000D+00  0.000000D+00
     57  0.000000D+00  0.000000D+00  0.000000D+00  0.000000D+00 -0.705318D-05
     58  0.000000D+00  0.000000D+00  0.000000D+00  0.000000D+00 -0.756777D-05
     59  0.000000D+00  0.000000D+00  0.000000D+00  0.000000D+00 -0.705318D-05
     60  0.000000D+00  0.000000D+00  0.000000D+00  0.000000D+00 -0.756777D-05
     61  0.000000D+00  0.000000D+00  0.000000D+00  0.000000D+00 -0.705318D-05
     62  0.000000D+00  0.000000D+00  0.000000D+00  0.000000D+00 -0.756777D-05
     63  0.000000D+00  0.000000D+00  0.000000D+00  0.000000D+00 -0.176929D-04
     64  0.000000D+00  0.000000D+00  0.000000D+00  0.000000D+00 -0.176929D-04
     65  0.000000D+00  0.000000D+00  0.000000D+00  0.000000D+00 -0.176929D-04
                6             7             8             9            10 
      6  0.000000D+00
      7  0.000000D+00  0.498364D-04
      8  0.000000D+00 -0.101517D-04  0.687861D-04
      9  0.000000D+00  0.000000D+00  0.000000D+00  0.000000D+00
     10  0.000000D+00  0.000000D+00  0.000000D+00  0.000000D+00  0.000000D+00
     11  0.000000D+00  0.000000D+00  0.000000D+00  0.000000D+00  0.000000D+00
     12  0.000000D+00  0.000000D+00  0.000000D+00  0.000000D+00  0.000000D+00
     13  0.000000D+00  0.000000D+00  0.000000D+00  0.000000D+00  0.000000D+00
     14  0.000000D+00  0.000000D+00  0.000000D+00  0.000000D+00  0.000000D+00
     15  0.000000D+00  0.000000D+00  0.000000D+00  0.000000D+00  0.000000D+00
     16  0.000000D+00  0.000000D+00  0.000000D+00  0.000000D+00  0.000000D+00
     17  0.000000D+00  0.000000D+00  0.000000D+00  0.000000D+00  0.000000D+00
     18  0.000000D+00  0.474745D-05 -0.529343D-05  0.000000D+00  0.000000D+00
     19  0.000000D+00  0.000000D+00  0.000000D+00  0.000000D+00  0.000000D+00
     20  0.000000D+00  0.242705D-05 -0.336785D-05  0.000000D+00  0.000000D+00
     21  0.000000D+00  0.000000D+00  0.000000D+00  0.000000D+00  0.000000D+00
     22  0.000000D+00  0.431764D-05 -0.637873D-05  0.000000D+00  0.000000D+00
     23  0.000000D+00 -0.117227D-05 -0.248040D-05  0.000000D+00  0.000000D+00
     24  0.000000D+00  0.000000D+00  0.000000D+00  0.000000D+00  0.000000D+00
     25  0.000000D+00  0.000000D+00  0.000000D+00  0.000000D+00  0.000000D+00
     26  0.000000D+00  0.000000D+00  0.000000D+00  0.000000D+00  0.000000D+00
     27  0.000000D+00  0.000000D+00  0.000000D+00  0.000000D+00  0.000000D+00
     28  0.000000D+00  0.000000D+00  0.000000D+00  0.000000D+00  0.000000D+00
     29  0.000000D+00  0.000000D+00  0.000000D+00  0.000000D+00  0.000000D+00
     30  0.000000D+00  0.000000D+00  0.000000D+00  0.000000D+00  0.000000D+00
     31  0.000000D+00  0.000000D+00  0.000000D+00  0.000000D+00  0.000000D+00
     32  0.000000D+00  0.000000D+00  0.000000D+00  0.000000D+00  0.000000D+00
     33  0.000000D+00 -0.220562D-04  0.204771D-04  0.000000D+00  0.000000D+00
     34  0.000000D+00 -0.175963D-04  0.177714D-04  0.000000D+00  0.000000D+00
     35  0.000000D+00  0.136086D-04 -0.231336D-04  0.000000D+00  0.000000D+00
     36  0.000000D+00  0.000000D+00  0.000000D+00  0.000000D+00  0.000000D+00
     37  0.000000D+00  0.000000D+00  0.000000D+00  0.000000D+00  0.000000D+00
     38  0.000000D+00  0.000000D+00  0.000000D+00  0.000000D+00  0.000000D+00
     39  0.000000D+00  0.000000D+00  0.000000D+00  0.000000D+00  0.000000D+00
     40  0.000000D+00 -0.579150D-05  0.723610D-05  0.000000D+00  0.000000D+00
     41  0.000000D+00  0.743982D-05 -0.104672D-04  0.000000D+00  0.000000D+00
     42  0.000000D+00  0.743982D-05 -0.104672D-04  0.000000D+00  0.000000D+00
     43  0.000000D+00 -0.950995D-05  0.628641D-05  0.000000D+00  0.000000D+00
     44  0.000000D+00 -0.129838D-04  0.103402D-04  0.000000D+00  0.000000D+00
     45  0.000000D+00  0.000000D+00 -0.569193D-05  0.000000D+00  0.000000D+00
     46  0.000000D+00 -0.129040D-04  0.212058D-04  0.000000D+00  0.000000D+00
     47  0.000000D+00  0.357340D-05  0.202198D-05  0.000000D+00  0.000000D+00
     48  0.000000D+00  0.000000D+00  0.000000D+00  0.000000D+00  0.000000D+00
     49  0.000000D+00  0.000000D+00  0.000000D+00  0.000000D+00  0.000000D+00
     50  0.000000D+00  0.000000D+00  0.000000D+00  0.000000D+00  0.000000D+00
     51  0.000000D+00  0.000000D+00  0.000000D+00  0.000000D+00  0.000000D+00
     52  0.000000D+00  0.000000D+00  0.000000D+00  0.000000D+00  0.000000D+00
     53  0.000000D+00  0.000000D+00  0.000000D+00  0.000000D+00  0.000000D+00
     54  0.000000D+00  0.000000D+00  0.000000D+00  0.000000D+00  0.000000D+00
     55  0.000000D+00  0.000000D+00  0.000000D+00  0.000000D+00  0.000000D+00
     56  0.000000D+00  0.000000D+00  0.000000D+00  0.000000D+00  0.000000D+00
     57  0.000000D+00 -0.469175D-05  0.197508D-04  0.000000D+00  0.000000D+00
     58  0.000000D+00 -0.253821D-05  0.188413D-04  0.000000D+00  0.000000D+00
     59  0.000000D+00 -0.469175D-05  0.197508D-04  0.000000D+00  0.000000D+00
     60  0.000000D+00 -0.253821D-05  0.188413D-04  0.000000D+00  0.000000D+00
     61  0.000000D+00 -0.469175D-05  0.197508D-04  0.000000D+00  0.000000D+00
     62  0.000000D+00 -0.253821D-05  0.188413D-04  0.000000D+00  0.000000D+00
     63  0.000000D+00 -0.132057D-04  0.223648D-05  0.000000D+00  0.000000D+00
     64  0.000000D+00 -0.132057D-04  0.223648D-05  0.000000D+00  0.000000D+00
     65  0.000000D+00 -0.132057D-04  0.223648D-05  0.000000D+00  0.000000D+00
               11            12            13            14            15 
     11  0.000000D+00
     12  0.000000D+00  0.000000D+00
     13  0.000000D+00  0.000000D+00  0.000000D+00
     14  0.000000D+00  0.000000D+00  0.000000D+00  0.000000D+00
     15  0.000000D+00  0.000000D+00  0.000000D+00  0.000000D+00  0.000000D+00
     16  0.000000D+00  0.000000D+00  0.000000D+00  0.000000D+00  0.000000D+00
     17  0.000000D+00  0.000000D+00  0.000000D+00  0.000000D+00  0.000000D+00
     18  0.000000D+00  0.000000D+00  0.000000D+00  0.000000D+00  0.000000D+00
     19  0.000000D+00  0.000000D+00  0.000000D+00  0.000000D+00  0.000000D+00
     20  0.000000D+00  0.000000D+00  0.000000D+00  0.000000D+00  0.000000D+00
     21  0.000000D+00  0.000000D+00  0.000000D+00  0.000000D+00  0.000000D+00
     22  0.000000D+00  0.000000D+00  0.000000D+00  0.000000D+00  0.000000D+00
     23  0.000000D+00  0.000000D+00  0.000000D+00  0.000000D+00  0.000000D+00
     24  0.000000D+00  0.000000D+00  0.000000D+00  0.000000D+00  0.000000D+00
     25  0.000000D+00  0.000000D+00  0.000000D+00  0.000000D+00  0.000000D+00
     26  0.000000D+00  0.000000D+00  0.000000D+00  0.000000D+00  0.000000D+00
     27  0.000000D+00  0.000000D+00  0.000000D+00  0.000000D+00  0.000000D+00
     28  0.000000D+00  0.000000D+00  0.000000D+00  0.000000D+00  0.000000D+00
     29  0.000000D+00  0.000000D+00  0.000000D+00  0.000000D+00  0.000000D+00
     30  0.000000D+00  0.000000D+00  0.000000D+00  0.000000D+00  0.000000D+00
     31  0.000000D+00  0.000000D+00  0.000000D+00  0.000000D+00  0.000000D+00
     32  0.000000D+00  0.000000D+00  0.000000D+00  0.000000D+00  0.000000D+00
     33  0.000000D+00  0.000000D+00  0.000000D+00  0.000000D+00  0.000000D+00
     34  0.000000D+00  0.000000D+00  0.000000D+00  0.000000D+00  0.000000D+00
     35  0.000000D+00  0.000000D+00  0.000000D+00  0.000000D+00  0.000000D+00
     36  0.000000D+00  0.000000D+00  0.000000D+00  0.000000D+00  0.000000D+00
     37  0.000000D+00  0.000000D+00  0.000000D+00  0.000000D+00  0.000000D+00
     38  0.000000D+00  0.000000D+00  0.000000D+00  0.000000D+00  0.000000D+00
     39  0.000000D+00  0.000000D+00  0.000000D+00  0.000000D+00  0.000000D+00
     40  0.000000D+00  0.000000D+00  0.000000D+00  0.000000D+00  0.000000D+00
     41  0.000000D+00  0.000000D+00  0.000000D+00  0.000000D+00  0.000000D+00
     42  0.000000D+00  0.000000D+00  0.000000D+00  0.000000D+00  0.000000D+00
     43  0.000000D+00  0.000000D+00  0.000000D+00  0.000000D+00  0.000000D+00
     44  0.000000D+00  0.000000D+00  0.000000D+00  0.000000D+00  0.000000D+00
     45  0.000000D+00  0.000000D+00  0.000000D+00  0.000000D+00  0.000000D+00
     46  0.000000D+00  0.000000D+00  0.000000D+00  0.000000D+00  0.000000D+00
     47  0.000000D+00  0.000000D+00  0.000000D+00  0.000000D+00  0.000000D+00
     48  0.000000D+00  0.000000D+00  0.000000D+00  0.000000D+00  0.000000D+00
     49  0.000000D+00  0.000000D+00  0.000000D+00  0.000000D+00  0.000000D+00
     50  0.000000D+00  0.000000D+00  0.000000D+00  0.000000D+00  0.000000D+00
     51  0.000000D+00  0.000000D+00  0.000000D+00  0.000000D+00  0.000000D+00
     52  0.000000D+00  0.000000D+00  0.000000D+00  0.000000D+00  0.000000D+00
     53  0.000000D+00  0.000000D+00  0.000000D+00  0.000000D+00  0.000000D+00
     54  0.000000D+00  0.000000D+00  0.000000D+00  0.000000D+00  0.000000D+00
     55  0.000000D+00  0.000000D+00  0.000000D+00  0.000000D+00  0.000000D+00
     56  0.000000D+00  0.000000D+00  0.000000D+00  0.000000D+00  0.000000D+00
     57  0.000000D+00  0.000000D+00  0.000000D+00  0.000000D+00  0.000000D+00
     58  0.000000D+00  0.000000D+00  0.000000D+00  0.000000D+00  0.000000D+00
     59  0.000000D+00  0.000000D+00  0.000000D+00  0.000000D+00  0.000000D+00
     60  0.000000D+00  0.000000D+00  0.000000D+00  0.000000D+00  0.000000D+00
     61  0.000000D+00  0.000000D+00  0.000000D+00  0.000000D+00  0.000000D+00
     62  0.000000D+00  0.000000D+00  0.000000D+00  0.000000D+00  0.000000D+00
     63  0.000000D+00  0.000000D+00  0.000000D+00  0.000000D+00  0.000000D+00
     64  0.000000D+00  0.000000D+00  0.000000D+00  0.000000D+00  0.000000D+00
     65  0.000000D+00  0.000000D+00  0.000000D+00  0.000000D+00  0.000000D+00
               16            17            18            19            20 
     16  0.000000D+00
     17  0.000000D+00  0.000000D+00
     18  0.000000D+00  0.000000D+00  0.385723D-05
     19  0.000000D+00  0.000000D+00  0.000000D+00  0.000000D+00
     20  0.000000D+00  0.000000D+00  0.249271D-05  0.000000D+00  0.162023D-05
     21  0.000000D+00  0.000000D+00  0.000000D+00  0.000000D+00  0.000000D+00
     22  0.000000D+00  0.000000D+00  0.350648D-05  0.000000D+00  0.226601D-05
     23  0.000000D+00  0.000000D+00  0.000000D+00  0.000000D+00  0.000000D+00
     24  0.000000D+00  0.000000D+00  0.000000D+00  0.000000D+00  0.000000D+00
     25  0.000000D+00  0.000000D+00  0.000000D+00  0.000000D+00  0.000000D+00
     26  0.000000D+00  0.000000D+00  0.000000D+00  0.000000D+00  0.000000D+00
     27  0.000000D+00  0.000000D+00  0.000000D+00  0.000000D+00  0.000000D+00
     28  0.000000D+00  0.000000D+00  0.000000D+00  0.000000D+00  0.000000D+00
     29  0.000000D+00  0.000000D+00  0.000000D+00  0.000000D+00  0.000000D+00
     30  0.000000D+00  0.000000D+00  0.000000D+00  0.000000D+00  0.000000D+00
     31  0.000000D+00  0.000000D+00  0.000000D+00  0.000000D+00  0.000000D+00
     32  0.000000D+00  0.000000D+00  0.000000D+00  0.000000D+00  0.000000D+00
     33  0.000000D+00  0.000000D+00 -0.561835D-05  0.000000D+00 -0.341022D-05
     34  0.000000D+00  0.000000D+00 -0.259620D-05  0.000000D+00 -0.146796D-05
     35  0.000000D+00  0.000000D+00  0.261672D-05  0.000000D+00  0.153969D-05
     36  0.000000D+00  0.000000D+00  0.000000D+00  0.000000D+00  0.000000D+00
     37  0.000000D+00  0.000000D+00  0.000000D+00  0.000000D+00  0.000000D+00
     38  0.000000D+00  0.000000D+00  0.000000D+00  0.000000D+00  0.000000D+00
     39  0.000000D+00  0.000000D+00  0.000000D+00  0.000000D+00  0.000000D+00
     40  0.000000D+00  0.000000D+00 -0.531826D-05  0.000000D+00 -0.344787D-05
     41  0.000000D+00  0.000000D+00  0.607086D-05  0.000000D+00  0.392371D-05
     42  0.000000D+00  0.000000D+00  0.607086D-05  0.000000D+00  0.392371D-05
     43  0.000000D+00  0.000000D+00 -0.101798D-04  0.000000D+00 -0.662259D-05
     44  0.000000D+00  0.000000D+00 -0.131442D-04  0.000000D+00 -0.854090D-05
     45  0.000000D+00  0.000000D+00  0.000000D+00  0.000000D+00  0.000000D+00
     46  0.000000D+00  0.000000D+00 -0.123744D-04  0.000000D+00 -0.803077D-05
     47  0.000000D+00  0.000000D+00  0.000000D+00  0.000000D+00  0.000000D+00
     48  0.000000D+00  0.000000D+00  0.000000D+00  0.000000D+00  0.000000D+00
     49  0.000000D+00  0.000000D+00  0.000000D+00  0.000000D+00  0.000000D+00
     50  0.000000D+00  0.000000D+00  0.000000D+00  0.000000D+00  0.000000D+00
     51  0.000000D+00  0.000000D+00  0.000000D+00  0.000000D+00  0.000000D+00
     52  0.000000D+00  0.000000D+00  0.000000D+00  0.000000D+00  0.000000D+00
     53  0.000000D+00  0.000000D+00  0.000000D+00  0.000000D+00  0.000000D+00
     54  0.000000D+00  0.000000D+00  0.000000D+00  0.000000D+00  0.000000D+00
     55  0.000000D+00  0.000000D+00  0.000000D+00  0.000000D+00  0.000000D+00
     56  0.000000D+00  0.000000D+00  0.000000D+00  0.000000D+00  0.000000D+00
     57  0.000000D+00  0.000000D+00  0.000000D+00  0.000000D+00  0.000000D+00
     58  0.000000D+00  0.000000D+00 -0.143004D-05  0.000000D+00  0.000000D+00
     59  0.000000D+00  0.000000D+00  0.000000D+00  0.000000D+00  0.000000D+00
     60  0.000000D+00  0.000000D+00 -0.143004D-05  0.000000D+00  0.000000D+00
     61  0.000000D+00  0.000000D+00  0.000000D+00  0.000000D+00  0.000000D+00
     62  0.000000D+00  0.000000D+00 -0.143004D-05  0.000000D+00  0.000000D+00
     63  0.000000D+00  0.000000D+00 -0.122857D-05  0.000000D+00  0.000000D+00
     64  0.000000D+00  0.000000D+00 -0.122857D-05  0.000000D+00  0.000000D+00
     65  0.000000D+00  0.000000D+00 -0.122857D-05  0.000000D+00  0.000000D+00
               21            22            23            24            25 
     21  0.000000D+00
     22  0.000000D+00  0.322771D-05
     23  0.000000D+00  0.000000D+00  0.000000D+00
     24  0.000000D+00  0.000000D+00  0.000000D+00  0.000000D+00
     25  0.000000D+00  0.000000D+00  0.000000D+00  0.000000D+00  0.000000D+00
     26  0.000000D+00  0.000000D+00  0.000000D+00  0.000000D+00  0.000000D+00
     27  0.000000D+00  0.000000D+00  0.000000D+00  0.000000D+00  0.000000D+00
     28  0.000000D+00  0.000000D+00  0.000000D+00  0.000000D+00  0.000000D+00
     29  0.000000D+00  0.000000D+00  0.000000D+00  0.000000D+00  0.000000D+00
     30  0.000000D+00  0.000000D+00  0.000000D+00  0.000000D+00  0.000000D+00
     31  0.000000D+00  0.000000D+00  0.000000D+00  0.000000D+00  0.000000D+00
     32  0.000000D+00  0.000000D+00  0.000000D+00  0.000000D+00  0.000000D+00
     33  0.000000D+00 -0.540275D-05  0.000000D+00  0.000000D+00  0.000000D+00
     34  0.000000D+00 -0.269384D-05  0.000000D+00  0.000000D+00  0.000000D+00
     35  0.000000D+00  0.285729D-05  0.000000D+00  0.000000D+00  0.000000D+00
     36  0.000000D+00  0.000000D+00  0.000000D+00  0.000000D+00  0.000000D+00
     37  0.000000D+00  0.000000D+00  0.000000D+00  0.000000D+00  0.000000D+00
     38  0.000000D+00  0.000000D+00  0.000000D+00  0.000000D+00  0.000000D+00
     39  0.000000D+00  0.000000D+00  0.000000D+00  0.000000D+00  0.000000D+00
     40  0.000000D+00 -0.483461D-05  0.000000D+00  0.000000D+00  0.000000D+00
     41  0.000000D+00  0.557353D-05  0.000000D+00  0.000000D+00  0.000000D+00
     42  0.000000D+00  0.557353D-05  0.000000D+00  0.000000D+00  0.000000D+00
     43  0.000000D+00 -0.906375D-05  0.000000D+00  0.000000D+00  0.000000D+00
     44  0.000000D+00 -0.117586D-04  0.000000D+00  0.000000D+00  0.000000D+00
     45  0.000000D+00  0.000000D+00  0.000000D+00  0.000000D+00  0.000000D+00
     46  0.000000D+00 -0.113621D-04  0.000000D+00  0.000000D+00  0.000000D+00
     47  0.000000D+00  0.000000D+00  0.000000D+00  0.000000D+00  0.000000D+00
     48  0.000000D+00  0.000000D+00  0.000000D+00  0.000000D+00  0.000000D+00
     49  0.000000D+00  0.000000D+00  0.000000D+00  0.000000D+00  0.000000D+00
     50  0.000000D+00  0.000000D+00  0.000000D+00  0.000000D+00  0.000000D+00
     51  0.000000D+00  0.000000D+00  0.000000D+00  0.000000D+00  0.000000D+00
     52  0.000000D+00  0.000000D+00  0.000000D+00  0.000000D+00  0.000000D+00
     53  0.000000D+00  0.000000D+00  0.000000D+00  0.000000D+00  0.000000D+00
     54  0.000000D+00  0.000000D+00  0.000000D+00  0.000000D+00  0.000000D+00
     55  0.000000D+00  0.000000D+00  0.000000D+00  0.000000D+00  0.000000D+00
     56  0.000000D+00  0.000000D+00  0.000000D+00  0.000000D+00  0.000000D+00
     57  0.000000D+00 -0.107090D-05  0.000000D+00  0.000000D+00  0.000000D+00
     58  0.000000D+00 -0.173027D-05  0.000000D+00  0.000000D+00  0.000000D+00
     59  0.000000D+00 -0.107090D-05  0.000000D+00  0.000000D+00  0.000000D+00
     60  0.000000D+00 -0.173027D-05  0.000000D+00  0.000000D+00  0.000000D+00
     61  0.000000D+00 -0.107090D-05  0.000000D+00  0.000000D+00  0.000000D+00
     62  0.000000D+00 -0.173027D-05  0.000000D+00  0.000000D+00  0.000000D+00
     63  0.000000D+00 -0.110671D-05  0.000000D+00  0.000000D+00  0.000000D+00
     64  0.000000D+00 -0.110671D-05  0.000000D+00  0.000000D+00  0.000000D+00
     65  0.000000D+00 -0.110671D-05  0.000000D+00  0.000000D+00  0.000000D+00
               26            27            28            29            30 
     26  0.000000D+00
     27  0.000000D+00  0.000000D+00
     28  0.000000D+00  0.000000D+00  0.000000D+00
     29  0.000000D+00  0.000000D+00  0.000000D+00  0.000000D+00
     30  0.000000D+00  0.000000D+00  0.000000D+00  0.000000D+00  0.000000D+00
     31  0.000000D+00  0.000000D+00  0.000000D+00  0.000000D+00  0.000000D+00
     32  0.000000D+00  0.000000D+00  0.000000D+00  0.000000D+00  0.000000D+00
     33  0.000000D+00  0.000000D+00  0.000000D+00  0.000000D+00  0.000000D+00
     34  0.000000D+00  0.000000D+00  0.000000D+00  0.000000D+00  0.000000D+00
     35  0.000000D+00  0.000000D+00  0.000000D+00  0.000000D+00  0.000000D+00
     36  0.000000D+00  0.000000D+00  0.000000D+00  0.000000D+00  0.000000D+00
     37  0.000000D+00  0.000000D+00  0.000000D+00  0.000000D+00  0.000000D+00
     38  0.000000D+00  0.000000D+00  0.000000D+00  0.000000D+00  0.000000D+00
     39  0.000000D+00  0.000000D+00  0.000000D+00  0.000000D+00  0.000000D+00
     40  0.000000D+00  0.000000D+00  0.000000D+00  0.000000D+00  0.000000D+00
     41  0.000000D+00  0.000000D+00  0.000000D+00  0.000000D+00  0.000000D+00
     42  0.000000D+00  0.000000D+00  0.000000D+00  0.000000D+00  0.000000D+00
     43  0.000000D+00  0.000000D+00  0.000000D+00  0.000000D+00  0.000000D+00
     44  0.000000D+00  0.000000D+00  0.000000D+00  0.000000D+00  0.000000D+00
     45  0.000000D+00  0.000000D+00  0.000000D+00  0.000000D+00  0.000000D+00
     46  0.000000D+00  0.000000D+00  0.000000D+00  0.000000D+00  0.000000D+00
     47  0.000000D+00  0.000000D+00  0.000000D+00  0.000000D+00  0.000000D+00
     48  0.000000D+00  0.000000D+00  0.000000D+00  0.000000D+00  0.000000D+00
     49  0.000000D+00  0.000000D+00  0.000000D+00  0.000000D+00  0.000000D+00
     50  0.000000D+00  0.000000D+00  0.000000D+00  0.000000D+00  0.000000D+00
     51  0.000000D+00  0.000000D+00  0.000000D+00  0.000000D+00  0.000000D+00
     52  0.000000D+00  0.000000D+00  0.000000D+00  0.000000D+00  0.000000D+00
     53  0.000000D+00  0.000000D+00  0.000000D+00  0.000000D+00  0.000000D+00
     54  0.000000D+00  0.000000D+00  0.000000D+00  0.000000D+00  0.000000D+00
     55  0.000000D+00  0.000000D+00  0.000000D+00  0.000000D+00  0.000000D+00
     56  0.000000D+00  0.000000D+00  0.000000D+00  0.000000D+00  0.000000D+00
     57  0.000000D+00  0.000000D+00  0.000000D+00  0.000000D+00  0.000000D+00
     58  0.000000D+00  0.000000D+00  0.000000D+00  0.000000D+00  0.000000D+00
     59  0.000000D+00  0.000000D+00  0.000000D+00  0.000000D+00  0.000000D+00
     60  0.000000D+00  0.000000D+00  0.000000D+00  0.000000D+00  0.000000D+00
     61  0.000000D+00  0.000000D+00  0.000000D+00  0.000000D+00  0.000000D+00
     62  0.000000D+00  0.000000D+00  0.000000D+00  0.000000D+00  0.000000D+00
     63  0.000000D+00  0.000000D+00  0.000000D+00  0.000000D+00  0.000000D+00
     64  0.000000D+00  0.000000D+00  0.000000D+00  0.000000D+00  0.000000D+00
     65  0.000000D+00  0.000000D+00  0.000000D+00  0.000000D+00  0.000000D+00
               31            32            33            34            35 
     31  0.000000D+00
     32  0.000000D+00  0.000000D+00
     33  0.000000D+00  0.000000D+00  0.155606D-04
     34  0.000000D+00  0.000000D+00  0.111865D-04  0.922967D-05
     35  0.000000D+00  0.000000D+00 -0.109010D-04 -0.913465D-05  0.993013D-05
     36  0.000000D+00  0.000000D+00  0.000000D+00  0.000000D+00  0.000000D+00
     37  0.000000D+00  0.000000D+00  0.000000D+00  0.000000D+00  0.000000D+00
     38  0.000000D+00  0.000000D+00  0.000000D+00  0.000000D+00  0.000000D+00
     39  0.000000D+00  0.000000D+00  0.000000D+00  0.000000D+00  0.000000D+00
     40  0.000000D+00  0.000000D+00  0.748688D-05  0.333270D-05 -0.342979D-05
     41  0.000000D+00  0.000000D+00 -0.923385D-05 -0.453036D-05  0.476350D-05
     42  0.000000D+00  0.000000D+00 -0.923385D-05 -0.453036D-05  0.476350D-05
     43  0.000000D+00  0.000000D+00  0.123902D-04  0.428261D-05 -0.392417D-05
     44  0.000000D+00  0.000000D+00  0.166480D-04  0.622070D-05 -0.589398D-05
     45  0.000000D+00  0.000000D+00 -0.107919D-05  0.000000D+00  0.158474D-05
     46  0.000000D+00  0.000000D+00  0.180543D-04  0.850646D-05 -0.919319D-05
     47  0.000000D+00  0.000000D+00  0.000000D+00  0.000000D+00  0.000000D+00
     48  0.000000D+00  0.000000D+00  0.000000D+00  0.000000D+00  0.000000D+00
     49  0.000000D+00  0.000000D+00  0.000000D+00  0.000000D+00  0.000000D+00
     50  0.000000D+00  0.000000D+00  0.000000D+00  0.000000D+00  0.000000D+00
     51  0.000000D+00  0.000000D+00  0.000000D+00  0.000000D+00  0.000000D+00
     52  0.000000D+00  0.000000D+00  0.000000D+00  0.000000D+00  0.000000D+00
     53  0.000000D+00  0.000000D+00  0.000000D+00  0.000000D+00  0.000000D+00
     54  0.000000D+00  0.000000D+00  0.000000D+00  0.000000D+00  0.000000D+00
     55  0.000000D+00  0.000000D+00  0.000000D+00  0.000000D+00  0.000000D+00
     56  0.000000D+00  0.000000D+00  0.000000D+00  0.000000D+00  0.000000D+00
     57  0.000000D+00  0.000000D+00  0.577786D-05  0.565319D-05 -0.701718D-05
     58  0.000000D+00  0.000000D+00  0.551342D-05  0.479269D-05 -0.628542D-05
     59  0.000000D+00  0.000000D+00  0.577786D-05  0.565319D-05 -0.701718D-05
     60  0.000000D+00  0.000000D+00  0.551342D-05  0.479269D-05 -0.628542D-05
     61  0.000000D+00  0.000000D+00  0.577786D-05  0.565319D-05 -0.701718D-05
     62  0.000000D+00  0.000000D+00  0.551342D-05  0.479269D-05 -0.628542D-05
     63  0.000000D+00  0.000000D+00  0.573580D-05  0.456623D-05 -0.346761D-05
     64  0.000000D+00  0.000000D+00  0.573580D-05  0.456623D-05 -0.346761D-05
     65  0.000000D+00  0.000000D+00  0.573580D-05  0.456623D-05 -0.346761D-05
               36            37            38            39            40 
     36  0.000000D+00
     37  0.000000D+00  0.000000D+00
     38  0.000000D+00  0.000000D+00  0.000000D+00
     39  0.000000D+00  0.000000D+00  0.000000D+00  0.000000D+00
     40  0.000000D+00  0.000000D+00  0.000000D+00  0.000000D+00  0.734560D-05
     41  0.000000D+00  0.000000D+00  0.000000D+00  0.000000D+00 -0.837089D-05
     42  0.000000D+00  0.000000D+00  0.000000D+00  0.000000D+00 -0.837089D-05
     43  0.000000D+00  0.000000D+00  0.000000D+00  0.000000D+00  0.140874D-04
     44  0.000000D+00  0.000000D+00  0.000000D+00  0.000000D+00  0.181777D-04
     45  0.000000D+00  0.000000D+00  0.000000D+00  0.000000D+00  0.000000D+00
     46  0.000000D+00  0.000000D+00  0.000000D+00  0.000000D+00  0.171014D-04
     47  0.000000D+00  0.000000D+00  0.000000D+00  0.000000D+00  0.000000D+00
     48  0.000000D+00  0.000000D+00  0.000000D+00  0.000000D+00  0.000000D+00
     49  0.000000D+00  0.000000D+00  0.000000D+00  0.000000D+00  0.000000D+00
     50  0.000000D+00  0.000000D+00  0.000000D+00  0.000000D+00  0.000000D+00
     51  0.000000D+00  0.000000D+00  0.000000D+00  0.000000D+00  0.000000D+00
     52  0.000000D+00  0.000000D+00  0.000000D+00  0.000000D+00  0.000000D+00
     53  0.000000D+00  0.000000D+00  0.000000D+00  0.000000D+00  0.000000D+00
     54  0.000000D+00  0.000000D+00  0.000000D+00  0.000000D+00  0.000000D+00
     55  0.000000D+00  0.000000D+00  0.000000D+00  0.000000D+00  0.000000D+00
     56  0.000000D+00  0.000000D+00  0.000000D+00  0.000000D+00  0.000000D+00
     57  0.000000D+00  0.000000D+00  0.000000D+00  0.000000D+00  0.000000D+00
     58  0.000000D+00  0.000000D+00  0.000000D+00  0.000000D+00  0.195836D-05
     59  0.000000D+00  0.000000D+00  0.000000D+00  0.000000D+00  0.000000D+00
     60  0.000000D+00  0.000000D+00  0.000000D+00  0.000000D+00  0.195836D-05
     61  0.000000D+00  0.000000D+00  0.000000D+00  0.000000D+00  0.000000D+00
     62  0.000000D+00  0.000000D+00  0.000000D+00  0.000000D+00  0.195836D-05
     63  0.000000D+00  0.000000D+00  0.000000D+00  0.000000D+00  0.149347D-05
     64  0.000000D+00  0.000000D+00  0.000000D+00  0.000000D+00  0.149347D-05
     65  0.000000D+00  0.000000D+00  0.000000D+00  0.000000D+00  0.149347D-05
               41            42            43            44            45 
     41  0.962958D-05
     42  0.962958D-05  0.962958D-05
     43 -0.157644D-04 -0.157644D-04  0.279758D-04
     44 -0.204302D-04 -0.204302D-04  0.358115D-04  0.459261D-04
     45  0.000000D+00  0.000000D+00  0.000000D+00  0.000000D+00  0.000000D+00
     46 -0.196320D-04 -0.196320D-04  0.322813D-04  0.418009D-04 -0.143880D-05
     47  0.000000D+00  0.000000D+00  0.000000D+00  0.000000D+00  0.000000D+00
     48  0.000000D+00  0.000000D+00  0.000000D+00  0.000000D+00  0.000000D+00
     49  0.000000D+00  0.000000D+00  0.000000D+00  0.000000D+00  0.000000D+00
     50  0.000000D+00  0.000000D+00  0.000000D+00  0.000000D+00  0.000000D+00
     51  0.000000D+00  0.000000D+00  0.000000D+00  0.000000D+00  0.000000D+00
     52  0.000000D+00  0.000000D+00  0.000000D+00  0.000000D+00  0.000000D+00
     53  0.000000D+00  0.000000D+00  0.000000D+00  0.000000D+00  0.000000D+00
     54  0.000000D+00  0.000000D+00  0.000000D+00  0.000000D+00  0.000000D+00
     55  0.000000D+00  0.000000D+00  0.000000D+00  0.000000D+00  0.000000D+00
     56  0.000000D+00  0.000000D+00  0.000000D+00  0.000000D+00  0.000000D+00
     57 -0.167736D-05 -0.167736D-05  0.000000D+00  0.000000D+00 -0.157691D-05
     58 -0.283751D-05 -0.283751D-05  0.167887D-05  0.277483D-05 -0.156692D-05
     59 -0.167736D-05 -0.167736D-05  0.000000D+00  0.000000D+00 -0.157691D-05
     60 -0.283751D-05 -0.283751D-05  0.167887D-05  0.277483D-05 -0.156692D-05
     61 -0.167736D-05 -0.167736D-05  0.000000D+00  0.000000D+00 -0.157691D-05
     62 -0.283751D-05 -0.283751D-05  0.167887D-05  0.277483D-05 -0.156692D-05
     63 -0.191056D-05 -0.191056D-05  0.249039D-05  0.338815D-05  0.000000D+00
     64 -0.191056D-05 -0.191056D-05  0.249039D-05  0.338815D-05  0.000000D+00
     65 -0.191056D-05 -0.191056D-05  0.249039D-05  0.338815D-05  0.000000D+00
               46            47            48            49            50 
     46  0.401402D-04
     47  0.000000D+00  0.000000D+00
     48  0.000000D+00  0.000000D+00  0.000000D+00
     49  0.000000D+00  0.000000D+00  0.000000D+00  0.000000D+00
     50  0.000000D+00  0.000000D+00  0.000000D+00  0.000000D+00  0.000000D+00
     51  0.000000D+00  0.000000D+00  0.000000D+00  0.000000D+00  0.000000D+00
     52  0.000000D+00  0.000000D+00  0.000000D+00  0.000000D+00  0.000000D+00
     53  0.000000D+00  0.000000D+00  0.000000D+00  0.000000D+00  0.000000D+00
     54  0.000000D+00  0.000000D+00  0.000000D+00  0.000000D+00  0.000000D+00
     55  0.000000D+00  0.000000D+00  0.000000D+00  0.000000D+00  0.000000D+00
     56  0.000000D+00  0.000000D+00  0.000000D+00  0.000000D+00  0.000000D+00
     57  0.323670D-05  0.000000D+00  0.000000D+00  0.000000D+00  0.000000D+00
     58  0.575949D-05  0.000000D+00  0.000000D+00  0.000000D+00  0.000000D+00
     59  0.323670D-05  0.000000D+00  0.000000D+00  0.000000D+00  0.000000D+00
     60  0.575949D-05  0.000000D+00  0.000000D+00  0.000000D+00  0.000000D+00
     61  0.323670D-05  0.000000D+00  0.000000D+00  0.000000D+00  0.000000D+00
     62  0.575949D-05  0.000000D+00  0.000000D+00  0.000000D+00  0.000000D+00
     63  0.329303D-05  0.000000D+00  0.000000D+00  0.000000D+00  0.000000D+00
     64  0.329303D-05  0.000000D+00  0.000000D+00  0.000000D+00  0.000000D+00
     65  0.329303D-05  0.000000D+00  0.000000D+00  0.000000D+00  0.000000D+00
               51            52            53            54            55 
     51  0.000000D+00
     52  0.000000D+00  0.000000D+00
     53  0.000000D+00  0.000000D+00  0.000000D+00
     54  0.000000D+00  0.000000D+00  0.000000D+00  0.000000D+00
     55  0.000000D+00  0.000000D+00  0.000000D+00  0.000000D+00  0.000000D+00
     56  0.000000D+00  0.000000D+00  0.000000D+00  0.000000D+00  0.000000D+00
     57  0.000000D+00  0.000000D+00  0.000000D+00  0.000000D+00  0.000000D+00
     58  0.000000D+00  0.000000D+00  0.000000D+00  0.000000D+00  0.000000D+00
     59  0.000000D+00  0.000000D+00  0.000000D+00  0.000000D+00  0.000000D+00
     60  0.000000D+00  0.000000D+00  0.000000D+00  0.000000D+00  0.000000D+00
     61  0.000000D+00  0.000000D+00  0.000000D+00  0.000000D+00  0.000000D+00
     62  0.000000D+00  0.000000D+00  0.000000D+00  0.000000D+00  0.000000D+00
     63  0.000000D+00  0.000000D+00  0.000000D+00  0.000000D+00  0.000000D+00
     64  0.000000D+00  0.000000D+00  0.000000D+00  0.000000D+00  0.000000D+00
     65  0.000000D+00  0.000000D+00  0.000000D+00  0.000000D+00  0.000000D+00
               56            57            58            59            60 
     56  0.000000D+00
     57  0.000000D+00  0.606256D-05
     58  0.000000D+00  0.540106D-05  0.516205D-05
     59  0.000000D+00  0.606256D-05  0.540106D-05  0.606256D-05
     60  0.000000D+00  0.540106D-05  0.516205D-05  0.540106D-05  0.516205D-05
     61  0.000000D+00  0.606256D-05  0.540106D-05  0.606256D-05  0.540106D-05
     62  0.000000D+00  0.540106D-05  0.516205D-05  0.540106D-05  0.516205D-05
     63  0.000000D+00  0.111546D-05  0.000000D+00  0.111546D-05  0.000000D+00
     64  0.000000D+00  0.111546D-05  0.000000D+00  0.111546D-05  0.000000D+00
     65  0.000000D+00  0.111546D-05  0.000000D+00  0.111546D-05  0.000000D+00
               61            62            63            64            65 
     61  0.606256D-05
     62  0.540106D-05  0.516205D-05
     63  0.111546D-05  0.000000D+00  0.350233D-05
     64  0.111546D-05  0.000000D+00  0.350233D-05  0.350233D-05
     65  0.111546D-05  0.000000D+00  0.350233D-05  0.350233D-05  0.350233D-05
 Final forces over variables, Energy=-1.94230861D+02:
  3.54631503D-04-4.06022064D-05-2.44056667D-04-9.13191795D-04
 -5.28876638D-05-3.48746642D-05-3.85898165D-05-7.62532419D-05
  2.49168756D-05 3.99729376D-05-5.11270459D-06-2.72592743D-04
  2.05692191D-04-1.47895921D-04-2.24434944D-05 9.72849653D-05
 -2.57415097D-04-1.86317462D-04-1.41422209D-05 2.62704576D-05
 -1.42367632D-04-5.63172885D-05-3.71594234D-05 9.24533764D-05
 -1.04653573D-04 1.47365086D-05-2.99710018D-04 3.39235752D-05
  1.90250501D-05 2.44594460D-04 5.27692298D-05-2.71464170D-05
  1.89758402D-05 3.41582227D-05 1.84061552D-05 4.87368619D-05
 -1.27417304D-04-7.86804423D-05-2.14360066D-05-2.12071278D-05
 -1.91447638D-04-2.88533301D-05-4.54383966D-05-5.53941870D-05
  2.75560490D-05-1.22139424D-04-5.95049416D-05-1.37272169D-04
 -6.18440463D-06-4.78244806D-06 2.28818806D-05-1.14390288D-04
  1.66974759D-05 1.80994325D-05 1.31087764D-04 1.32489721D-04
  8.97963649D-05 8.51133069D-05 6.72118681D-05 6.25288101D-05
 -4.78274824D-05-5.25105404D-05-2.80887417D-04 4.85530956D-05
 -2.45477514D-04
 B after Tr=     0.022376   -0.001441   -0.012386
         Rot=    0.999997    0.000587   -0.002072    0.001078 Ang=   0.28 deg.
 Final structure in terms of initial Z-matrix:
 C
 O,1,R1
 H,1,R2,2,A2
 H,1,R3,2,A3,3,D3,0
 H,2,R4,1,A4,3,D4,0
 C,1,RTS,2,AABS1,3,BABS1,0
 C,6,R21,1,AABS2,2,BABS2,0
 H,6,R22,7,A22,1,BABS3,0
 H,6,R23,7,A23,8,D23,0
 H,7,R24,6,A24,8,D24,0
 H,7,R25,6,A25,10,D25,0
 H,7,R26,6,A26,10,D26,0
      Variables:
 BABS3=109.065808
 BABS2=-60.96338651
 AABS2=79.74814865
 BABS1=104.41409729
 AABS1=113.68554538
 A3=119.04488521
 A4=109.8782
 D3=-154.24674154
 D4=175.17802229
 R21=1.48190159
 R22=1.0804
 R23=1.0803
 R24=1.09090033
 R25=1.0987
 R26=1.09100032
 A22=120.89320025
 A23=120.89440025
 A24=111.78109995
 A25=111.64865304
 A26=111.78155639
 D23=172.00592175
 D25=119.20886263
 D26=-121.60361374
 D24=155.14494793
 A2=113.9685083
 R4=0.9573
 R3=1.0817
 R2=1.07789947
 R1=1.3576
 RTS=3.99999717

 Test job not archived.
 1\1\GINC-NODE-5-11\Freq\UwB97XD\Jun-CC-pVTZ\C3H8O1\MDITEODORO\18-Jun-2
 024\0\\# uwb97xd/jun-cc-pvtz opt=(calcall,modredundant,maxcyc=20) # in
 t=ultrafine nosym iop(7/33=1) guess(checkpoint) scf=qc\\geom 0\\0,1\C,
 0.0036349672,-0.0048057064,0.0151044269\O,-0.0470021054,0.0094149574,1
 .3716852094\H,1.0039956761,-0.030636447,-0.3854932477\H,-0.8186975288,
 0.4188340528,-0.5455857821\H,-0.9537172911,0.1078275239,1.6625560205\C
 ,-0.9252703309,-3.5486978278,-1.5904923226\C,0.2617483016,-3.925927891
 ,-0.7875498822\H,-0.8787408232,-3.5198361269,-2.6695039848\H,-1.891646
 2121,-3.4199461013,-1.1251013695\H,0.2182894679,-3.5090611619,0.219622
 8859\H,0.3429683405,-5.0154506123,-0.6714239367\H,1.1895040144,-3.5942
 327848,-1.2560895155\\Version=EM64L-G09RevD.01\HF=-194.2308611\S2=0.99
 8962\S2-1=0.\S2A=0.068413\RMSD=0.000e+00\RMSF=3.374e-04\ZeroPoint=0.09
 75331\Thermal=0.1053536\Dipole=-0.4485205,0.1627748,0.0160275\DipoleDe
 riv=0.1604306,-0.1509589,-0.0775466,-0.135819,-0.3198359,-0.0440198,-0
 .0865596,0.0208919,0.850998,-0.265146,0.0300396,0.1121971,0.0274008,-0
 .3355848,-0.074394,0.1074713,-0.1015221,-1.1402545,-0.0505832,0.021882
 6,0.0548026,0.0033551,0.1715659,0.0311126,-0.0004068,0.0249074,0.01388
 35,-0.0261462,0.0883004,-0.0495116,0.0976779,0.1327925,0.0574725,0.003
 9589,0.0362394,-0.0241711,0.1885178,0.0055883,-0.0435227,0.0053817,0.3
 452236,0.026505,-0.0278912,0.012276,0.302024,0.0882131,-0.1100135,-0.0
 115096,-0.1156336,-0.34687,-0.0436048,-0.0047257,-0.0309227,0.1178837,
 0.0229363,0.0315683,-0.0081403,0.0648493,0.0910322,0.0249467,-0.014206
 5,0.022849,0.0173093,0.0118165,0.0284433,0.0033259,0.0294995,0.1430859
 ,0.0111171,-0.0289631,0.0108399,-0.1068217,-0.0933578,0.04333,0.019656
 5,0.0393879,0.1390338,0.011061,0.0489454,0.0046399,-0.0045325,0.030850
 8,0.0234567,-0.0004676,-0.0027807,0.0665792,-0.0763672,-0.022268,-0.06
 59872,-0.1102833,0.0378954,0.0220158,-0.0348025,0.0552348,-0.1553779,0
 .0431044,-0.0366554,0.0226576,0.063665,-0.1054273,-0.0336527,0.0355188
 ,-0.0685538,0.0683554,0.0330664,0.0613008,0.0431309,0.0202996\Polar=47
 .834898,-0.6633947,50.9687106,1.4633375,1.9241883,50.8656026\PG=C01 [X
 (C3H8O1)]\NImag=2\\0.65704829,-0.13862496,0.07982327,-0.01912674,-0.05
 673440,0.60270640,-0.09820297,0.01960809,0.03306875,0.57974192,0.01840
 151,-0.00862644,-0.01459719,-0.06918351,0.01840572,-0.01453582,0.00518
 054,-0.37473350,-0.15139583,0.01210144,0.49902918,-0.32417246,0.021402
 47,0.10206343,0.00525891,-0.00153061,0.00046674,0.32640691,0.00471381,
 -0.01017852,0.00459671,0.00024754,-0.00227309,0.00124592,-0.01589644,0
 .00855592,0.08523318,0.00264966,-0.08505721,0.03672014,-0.00165712,-0.
 01872857,-0.10907162,-0.00166279,0.10149380,-0.23174552,0.09732888,-0.
 10948144,0.00868450,-0.00136893,0.00610762,-0.00995929,0.01044276,-0.0
 1319791,0.23052029,0.11405678,-0.05894287,0.06533559,-0.00526204,0.003
 54382,-0.00070650,-0.00380889,0.00072098,-0.00026662,-0.10460511,0.055
 32420,-0.09975802,0.05499216,-0.12168806,-0.02321271,0.01486191,-0.026
 58706,0.00814254,-0.00428626,0.00881395,0.11732405,-0.06523758,0.13788
 373,-0.00277424,-0.00005137,-0.00662284,-0.49550547,0.05369768,0.15928
 284,0.00239180,0.00049904,0.00029911,0.00251233,-0.00035449,-0.0024983
 9,0.49338975,0.00100771,-0.00188241,0.00081880,0.05461105,-0.01136844,
 -0.01770197,-0.00022637,0.00309691,0.00092316,-0.00163477,-0.00062088,
 -0.00028387,-0.05378345,0.01080689,0.04794616,-0.00637661,-0.02129544,
 0.10486873,-0.01079117,-0.07910908,-0.00163055,0.00006778,-0.00649920,
 -0.00069414,0.00087687,0.00162476,-0.15046465,0.01620096,0.10522727,-0
 .00012952,0.00000472,0.00034168,-0.00005543,0.00010465,-0.00022136,-0.
 00006438,-0.00013748,-0.00002029,-0.00003774,0.00015818,-0.00000295,0.
 00005831,0.00007134,0.00006407,0.55712395,0.00049130,0.00054549,0.0006
 1287,-0.00003585,0.00015057,0.00007551,0.00016939,0.00014563,-0.000007
 51,-0.00024126,0.00015743,-0.00007603,-0.00002099,0.00007981,0.0001559
 6,-0.10538808,0.07941845,0.00040671,0.00054262,-0.00002750,-0.00009228
 ,-0.00004778,0.00009210,0.00000026,-0.00001234,0.00002156,-0.00010985,
 -0.00003754,-0.00000229,-0.00000120,-0.00000432,0.00001006,-0.04389814
 ,-0.03409343,0.60696155,0.00009246,0.00021693,-0.00009930,-0.00003631,
 -0.00000728,0.00021940,0.00001216,-0.00009383,-0.00005618,-0.00006933,
 0.00004214,0.00002055,-0.00000409,-0.00000676,0.00002180,-0.18778823,0
 .04258204,-0.06837150,0.52204504,-0.00004240,-0.00067861,0.00039516,0.
 00007815,0.00013315,-0.00061519,0.00002240,0.00010621,0.00001890,0.000
 02788,-0.00003636,-0.00000972,-0.00004444,-0.00006451,0.00003788,0.036
 84756,-0.05255018,0.02220598,0.01354106,0.48140315,0.00004029,0.000284
 16,0.00030052,-0.00000217,0.00015564,-0.00022910,-0.00000917,0.0000011
 6,0.00000099,-0.00003654,0.00003941,-0.00004502,0.00006449,-0.00012809
 ,-0.00001151,-0.06797903,0.02572266,-0.13423144,-0.03198765,0.01433273
 ,0.54834967,0.00001890,0.00002809,-0.00005301,0.00001889,-0.00000704,0
 .00006183,0.00000663,0.00001527,-0.00001178,0.00001321,-0.00004599,0.0
 0001192,-0.00002428,-0.00003590,-0.00002129,-0.05512013,0.00876606,0.0
 1754975,0.00446199,-0.00088062,-0.02322320,0.05044291,0.00006020,0.000
 09026,-0.00015957,-0.00004236,0.00001080,0.00023416,-0.00003837,-0.000
 02877,-0.00000936,0.00002100,-0.00006069,-0.00001392,0.00002811,0.0000
 1353,-0.00002577,0.00983698,-0.01255176,0.00751667,-0.00264473,0.00355
 205,0.00955370,-0.00900259,0.00631829,-0.00002911,-0.00004508,-0.00013
 735,-0.00000461,-0.00003008,0.00021573,-0.00001385,0.00000466,-0.00001
 597,0.00002563,-0.00003314,-0.00001821,0.00000688,0.00006471,-0.000001
 69,0.01693313,0.01181101,-0.34759233,0.00365140,-0.00207914,-0.0089105
 8,-0.01546451,-0.01156071,0.36332300,-0.00000863,0.00015649,-0.0000500
 5,0.00007110,0.00000757,0.00007746,0.00004318,0.00004781,0.00001676,0.
 00002604,-0.00012959,-0.00000547,-0.00001712,-0.00008905,-0.00006231,-
 0.28559857,0.04107939,0.11586678,-0.01351586,-0.00020384,0.01130090,0.
 00237948,0.00003780,-0.00251644,0.29904640,-0.00016129,0.00007665,-0.0
 0010792,0.00006724,-0.00000979,0.00006533,0.00000428,-0.00005130,0.000
 01724,0.00004496,-0.00010397,0.00002739,-0.00001370,-0.00005413,-0.000
 08859,0.03779963,-0.01561123,-0.00986319,0.00742576,0.00270730,-0.0061
 9230,-0.00054628,0.00323925,0.00041516,-0.04279431,0.01024505,-0.00001
 412,-0.00001671,0.00009874,0.00002274,0.00004053,-0.00012071,-0.000012
 69,0.00000518,-0.00002225,0.00001602,0.00002496,0.00000099,-0.00000831
 ,-0.00005955,0.00000997,0.11663262,-0.01260915,-0.11352246,-0.01581745
 ,0.00147493,0.00993918,0.02462739,-0.00302691,-0.00709325,-0.12219831,
 0.01296342,0.11062082,0.00001076,-0.00003046,-0.00013610,-0.00012207,-
 0.00005884,0.00014516,-0.00004286,-0.00007596,0.00003521,-0.00003224,0
 .00006080,0.00001184,0.00001691,0.00013943,0.00000272,0.00247227,-0.00
 815756,-0.02682371,-0.05087201,0.00290176,0.01377144,-0.00342131,0.001
 13710,-0.00210294,0.00105330,-0.00053614,0.00068726,0.05144220,0.00002
 045,-0.00013723,-0.00010332,-0.00004030,0.00006742,0.00006865,-0.00005
 534,-0.00007666,0.00001240,-0.00000925,0.00001066,0.00001741,0.0000494
 4,-0.00005765,-0.00009388,0.00039588,0.00288989,0.01203105,0.00316022,
 -0.08316376,-0.09704537,0.00186793,-0.00000834,0.00148481,-0.00041461,
 0.00009894,-0.00053304,-0.00783468,0.09035387,-0.00016907,-0.00042302,
 0.00013120,0.00009717,0.00001114,-0.00017652,0.00007354,0.00013343,-0.
 00002311,0.00006942,-0.00001747,-0.00002146,-0.00005036,0.00006829,0.0
 0005060,-0.00034220,-0.00321341,-0.01752863,0.01482098,-0.09609692,-0.
 27018245,-0.00329160,-0.00064906,-0.00023521,0.00003926,0.00087649,0.0
 0131000,-0.01125106,0.10349522,0.29497435,-0.00004686,0.00002166,-0.00
 004581,0.00004354,-0.00003002,0.00003701,0.00004120,0.00008929,0.00001
 439,0.00004513,-0.00005224,-0.00001344,-0.00000592,-0.00000747,-0.0000
 2132,-0.00680819,0.02450691,-0.00589895,-0.04109216,0.01911762,-0.0002
 8159,-0.00029790,0.00007914,-0.00022606,-0.00084297,-0.00093964,-0.000
 39831,-0.00015613,0.00245786,0.00021568,0.04755962,-0.00004643,-0.0002
 4060,0.00021591,0.00005523,-0.00002867,-0.00028358,0.00004358,0.000101
 60,0.00000304,0.00002385,-0.00000307,-0.00001424,-0.00003763,0.0000353
 3,0.00005409,0.00901224,-0.00438060,0.00612431,0.00770779,-0.28323214,
 0.01885763,0.00053755,-0.00065489,0.00007335,0.00028223,-0.00056803,0.
 00054919,0.00002475,-0.01375203,0.00090970,-0.01754887,0.31387413,-0.0
 0007705,-0.00019294,-0.00005075,0.00003407,0.00001845,0.00009443,0.000
 02285,0.00002556,-0.00001170,0.00003303,-0.00002193,0.00000316,-0.0000
 2365,0.00003318,0.00001510,-0.00505038,0.01637139,-0.00413504,0.000351
 81,0.02633070,-0.04370075,-0.00070323,-0.00104791,-0.00045263,-0.00001
 277,0.00055042,-0.00007829,0.00170490,-0.03036835,0.00293047,0.0040517
 0,-0.02698653,0.04702172,-0.00009020,-0.00006054,0.00014142,0.00010340
 ,-0.00002519,-0.00024506,0.00007819,0.00014820,0.00003898,0.00004262,-
 0.00005955,-0.00001990,-0.00003798,-0.00004574,-0.00000921,-0.02405234
 ,-0.00375136,0.01137214,-0.23323365,-0.07136512,0.09834221,0.00152161,
 0.00052771,-0.00025952,-0.00263635,-0.00035051,-0.00353684,-0.00034882
 ,0.00040241,-0.00021175,0.00156063,-0.00005429,-0.00033128,0.25709290,
 0.00012332,0.00015100,-0.00027263,-0.00010323,-0.00000506,0.00033569,-
 0.00008610,-0.00011890,-0.00002100,-0.00003000,0.00001077,0.00002276,0
 .00003180,0.00001555,-0.00001752,0.01129437,0.00170650,-0.00436203,-0.
 07192335,-0.06817628,0.03441867,-0.00069647,0.00008026,-0.00010556,0.0
 0202011,0.00003126,0.00118715,0.01242981,0.00377489,-0.00509438,-0.027
 69422,-0.01115104,0.01528796,0.07463398,0.07368105,0.00008359,0.000139
 62,-0.00024705,-0.00010400,-0.00006577,0.00025311,-0.00003148,-0.00011
 899,0.00002771,-0.00005589,0.00004395,0.00003551,0.00001609,0.00006870
 ,-0.00002085,-0.01645716,-0.00474986,0.00995442,0.09724613,0.03400469,
 -0.10127950,0.00051775,-0.00081131,0.00091850,-0.00245582,0.00133655,-
 0.00114273,0.02395529,0.01103440,-0.01122923,0.00256669,0.00049713,-0.
 00163573,-0.10528119,-0.04137911,0.10436584\\0.00042650,0.00019840,0.0
 0091105,-0.00001122,0.00038192,-0.00044529,0.00006733,0.00020365,0.000
 02377,-0.00018411,0.00018158,-0.00006361,-0.00001215,-0.00002836,0.000
 08585,-0.00023731,-0.00100238,-0.00041000,-0.00016325,0.00049628,-0.00
 067276,0.00000704,-0.00010643,0.00003758,-0.00002152,0.00004411,-0.000
 04468,-0.00007189,-0.00045352,0.00044384,0.00003234,0.00023812,0.00026
 528,0.00016822,-0.00015337,-0.00013103\\\@


 ONE THORN OF EXPERIENCE IS WORTH A WHOLE WILDERNESS OF
 WARNING....  LOWELL - AMONG MY BOOKS
 Job cpu time:       0 days  4 hours 30 minutes  7.5 seconds.
 File lengths (MBytes):  RWF=    161 Int=      0 D2E=      0 Chk=     10 Scr=      1
 Normal termination of Gaussian 09 at Tue Jun 18 13:16:52 2024.
