 Entering Gaussian System, Link 0=g09
 Input=geom.com
 Output=geom.log
 Initial command:
 /software/cinetica/g09d1/g09d01/d01/build-node-6-2-59348/src/main/l1.exe "/scratch/mdt/200472/Gau-3296.inp" -scrdir="/scratch/mdt/200472/"
 Entering Link 1 = /software/cinetica/g09d1/g09d01/d01/build-node-6-2-59348/src/main/l1.exe PID=      3297.
  
 Copyright (c) 1988,1990,1992,1993,1995,1998,2003,2009,2013,
            Gaussian, Inc.  All Rights Reserved.
  
 This is part of the Gaussian(R) 09 program.  It is based on
 the Gaussian(R) 03 system (copyright 2003, Gaussian, Inc.),
 the Gaussian(R) 98 system (copyright 1998, Gaussian, Inc.),
 the Gaussian(R) 94 system (copyright 1995, Gaussian, Inc.),
 the Gaussian 92(TM) system (copyright 1992, Gaussian, Inc.),
 the Gaussian 90(TM) system (copyright 1990, Gaussian, Inc.),
 the Gaussian 88(TM) system (copyright 1988, Gaussian, Inc.),
 the Gaussian 86(TM) system (copyright 1986, Carnegie Mellon
 University), and the Gaussian 82(TM) system (copyright 1983,
 Carnegie Mellon University). Gaussian is a federally registered
 trademark of Gaussian, Inc.
  
 This software contains proprietary and confidential information,
 including trade secrets, belonging to Gaussian, Inc.
  
 This software is provided under written license and may be
 used, copied, transmitted, or stored only in accord with that
 written license.
  
 The following legend is applicable only to US Government
 contracts under FAR:
  
                    RESTRICTED RIGHTS LEGEND
  
 Use, reproduction and disclosure by the US Government is
 subject to restrictions as set forth in subparagraphs (a)
 and (c) of the Commercial Computer Software - Restricted
 Rights clause in FAR 52.227-19.
  
 Gaussian, Inc.
 340 Quinnipiac St., Bldg. 40, Wallingford CT 06492
  
  
 ---------------------------------------------------------------
 Warning -- This program may not be used in any manner that
 competes with the business of Gaussian, Inc. or will provide
 assistance to any competitor of Gaussian, Inc.  The licensee
 of this program is prohibited from giving any competitor of
 Gaussian, Inc. access to this program.  By using this program,
 the user acknowledges that Gaussian, Inc. is engaged in the
 business of creating and licensing software in the field of
 computational chemistry and represents and warrants to the
 licensee that it is not a competitor of Gaussian, Inc. and that
 it will not use this program in any manner prohibited above.
 ---------------------------------------------------------------
  

 Cite this work as:
 Gaussian 09, Revision D.01,
 M. J. Frisch, G. W. Trucks, H. B. Schlegel, G. E. Scuseria, 
 M. A. Robb, J. R. Cheeseman, G. Scalmani, V. Barone, B. Mennucci, 
 G. A. Petersson, H. Nakatsuji, M. Caricato, X. Li, H. P. Hratchian, 
 A. F. Izmaylov, J. Bloino, G. Zheng, J. L. Sonnenberg, M. Hada, 
 M. Ehara, K. Toyota, R. Fukuda, J. Hasegawa, M. Ishida, T. Nakajima, 
 Y. Honda, O. Kitao, H. Nakai, T. Vreven, J. A. Montgomery, Jr., 
 J. E. Peralta, F. Ogliaro, M. Bearpark, J. J. Heyd, E. Brothers, 
 K. N. Kudin, V. N. Staroverov, T. Keith, R. Kobayashi, J. Normand, 
 K. Raghavachari, A. Rendell, J. C. Burant, S. S. Iyengar, J. Tomasi, 
 M. Cossi, N. Rega, J. M. Millam, M. Klene, J. E. Knox, J. B. Cross, 
 V. Bakken, C. Adamo, J. Jaramillo, R. Gomperts, R. E. Stratmann, 
 O. Yazyev, A. J. Austin, R. Cammi, C. Pomelli, J. W. Ochterski, 
 R. L. Martin, K. Morokuma, V. G. Zakrzewski, G. A. Voth, 
 P. Salvador, J. J. Dannenberg, S. Dapprich, A. D. Daniels, 
 O. Farkas, J. B. Foresman, J. V. Ortiz, J. Cioslowski, 
 and D. J. Fox, Gaussian, Inc., Wallingford CT, 2013.
 
 ******************************************
 Gaussian 09:  EM64L-G09RevD.01 24-Apr-2013
                11-Jun-2024 
 ******************************************
 %mem=400MW
 %chk=tmp
 %NProcShared= 32
 Will use up to   32 processors via shared memory.
 ----------------------------------------------------------------------
 # uwb97xd/6-311+g(d,p) opt=(noeig,intern,maxcyc=50) # int=ultrafine no
 sym guess(mix,always)
 ----------------------------------------------------------------------
 1/6=50,10=7,11=1,14=-1,18=40,26=4,38=1/1,3;
 2/12=2,15=1,17=6,18=5,29=3,40=1/2;
 3/5=4,6=6,7=111,11=2,16=1,25=1,30=1,71=1,74=-58,75=-5,116=2/1,2,3;
 4/13=-1/1;
 5/5=2,38=5/2;
 6/7=2,8=2,9=2,10=2,28=1/1;
 7/29=1,30=1/1,2,3,16;
 1/6=50,10=7,11=1,14=-1,18=40,26=4/3(2);
 2/15=1,29=3/2;
 99//99;
 2/15=1,29=3/2;
 3/5=4,6=6,7=111,11=2,16=1,25=1,30=1,71=1,74=-58,75=-5,116=2/1,2,3;
 4/13=-1/1;
 5/5=2,38=5/2;
 7/30=1/1,2,3,16;
 1/6=50,11=1,14=-1,18=40,26=4/3(-5);
 2/15=1,29=3/2;
 6/7=2,8=2,9=2,10=2,19=2,28=1/1;
 99/9=1/99;
 ------
 geom 1
 ------
 Symbolic Z-matrix:
 Charge =  0 Multiplicity = 1
 C1
 O2                   C1   R1
 H3                   C1   R2       O2   A2
 H4                   C1   R3       O2   A3       H3   D3       0
 H5                   O2   R4       C1   A4       H3   D4       0
 C21                  C1   BB       O2   ANG1     H3   DH1      0
 C22                  C21  R21      C1   ANG2     O2   DH2      0
 H23                  C21  R22      C22  A22      C1   DH3      0
 H24                  C21  R23      C22  A23      H23  D23      0
 H25                  C22  R24      C21  A24      H23  D24      0
 H26                  C22  R25      C21  A25      H25  D25      0
 H27                  C22  R26      C21  A26      H25  D26      0
       Variables:
  R1                    1.3838                   
  R2                    1.0869                   
  R3                    1.0934                   
  R4                    0.9574                   
  A2                  109.123                    
  A3                  114.4681                   
  A4                  109.0024                   
  D3                  233.4923                   
  R21                   1.5096                   
  R22                   1.0909                   
  R23                   1.0891                   
  R24                   1.0957                   
  R25                   1.0939                   
  R26                   1.0936                   
  A22                 113.9166                   
  A23                 114.505                    
  A24                 111.4007                   
  A25                 111.3997                   
  A26                 111.2824                   
  D23                 128.8458                   
  D25                 119.8203                   
  D26                 240.2103                   
  ANG2                109.1028                   
  DH2                 181.7147                   
  DH3                 115.9059                   
  D4                  178.2103                   
  D24                 296.2951                   
  DH1                 115.1496                   
  ANG1                112.1537                   
       Constants:
  BB                    2.                       
 

 GradGradGradGradGradGradGradGradGradGradGradGradGradGradGradGradGradGrad
 Berny optimization.
 Initialization pass.
                       ----------------------------
                       !    Initial Parameters    !
                       ! (Angstroms and Degrees)  !
 ----------------------                            ----------------------
 !      Name          Value   Derivative information (Atomic Units)     !
 ------------------------------------------------------------------------
 !       R1          1.3838   estimate D2E/DX2                          !
 !       R2          1.0869   estimate D2E/DX2                          !
 !       R3          1.0934   estimate D2E/DX2                          !
 !       R4          0.9574   estimate D2E/DX2                          !
 !       A2        109.123    estimate D2E/DX2                          !
 !       A3        114.4681   estimate D2E/DX2                          !
 !       A4        109.0024   estimate D2E/DX2                          !
 !       D3        233.4923   estimate D2E/DX2                          !
 !       R21         1.5096   estimate D2E/DX2                          !
 !       R22         1.0909   estimate D2E/DX2                          !
 !       R23         1.0891   estimate D2E/DX2                          !
 !       R24         1.0957   estimate D2E/DX2                          !
 !       R25         1.0939   estimate D2E/DX2                          !
 !       R26         1.0936   estimate D2E/DX2                          !
 !       A22       113.9166   estimate D2E/DX2                          !
 !       A23       114.505    estimate D2E/DX2                          !
 !       A24       111.4007   estimate D2E/DX2                          !
 !       A25       111.3997   estimate D2E/DX2                          !
 !       A26       111.2824   estimate D2E/DX2                          !
 !       D23       128.8458   estimate D2E/DX2                          !
 !       D25       119.8203   estimate D2E/DX2                          !
 !       D26       240.2103   estimate D2E/DX2                          !
 !      ANG2       109.1028   estimate D2E/DX2                          !
 !       DH2       181.7147   estimate D2E/DX2                          !
 !       DH3       115.9059   estimate D2E/DX2                          !
 !       D4        178.2103   estimate D2E/DX2                          !
 !       D24       296.2951   estimate D2E/DX2                          !
 !       DH1       115.1496   estimate D2E/DX2                          !
 !      ANG1       112.1537   estimate D2E/DX2                          !
 !       BB          2.0      Frozen                                    !
 ------------------------------------------------------------------------
 Trust Radius=3.00D-01 FncErr=1.00D-07 GrdErr=1.00D-06
 Number of steps in this run=     50 maximum allowed number of steps=    100.
 GradGradGradGradGradGradGradGradGradGradGradGradGradGradGradGradGradGrad

 ---------------------------------------------------------------------------------------------------
                            Z-MATRIX (ANGSTROMS AND DEGREES)
   CD    Cent   Atom    N1       Length/X        N2       Alpha/Y        N3        Beta/Z          J
 ---------------------------------------------------------------------------------------------------
      1      1  C 
      2      2  O        1   1.383800(     1)
      3      3  H        1   1.086900(     2)      2  109.123(    12)
      4      4  H        1   1.093400(     3)      2  114.468(    13)      3  233.492(    22)      0
      5      5  H        2   0.957400(     4)      1  109.002(    14)      3  178.210(    23)      0
      6      6  C        1   2.000000(     5)      2  112.154(    15)      3  115.150(    24)      0
      7      7  C        6   1.509600(     6)      1  109.103(    16)      2  181.715(    25)      0
      8      8  H        6   1.090900(     7)      7  113.917(    17)      1  115.906(    26)      0
      9      9  H        6   1.089100(     8)      7  114.505(    18)      8  128.846(    27)      0
     10     10  H        7   1.095700(     9)      6  111.401(    19)      8  296.295(    28)      0
     11     11  H        7   1.093900(    10)      6  111.400(    20)     10  119.820(    29)      0
     12     12  H        7   1.093600(    11)      6  111.282(    21)     10  240.210(    30)      0
 ---------------------------------------------------------------------------------------------------
                         Z-Matrix orientation:                         
 ---------------------------------------------------------------------
 Center     Atomic      Atomic             Coordinates (Angstroms)
 Number     Number       Type             X           Y           Z
 ---------------------------------------------------------------------
      1          6           0        0.000000    0.000000    0.000000
      2          8           0        0.000000    0.000000    1.383800
      3          1           0        1.026922    0.000000   -0.356065
      4          1           0       -0.592077    0.799922   -0.452872
      5          1           0       -0.904785    0.028271    1.695537
      6          6           0       -0.787218   -1.676751   -0.754185
      7          6           0       -0.714538   -1.622380   -2.261054
      8          1           0       -1.804580   -1.694457   -0.360835
      9          1           0       -0.185396   -2.463237   -0.300988
     10          1           0       -1.143467   -2.522783   -2.714763
     11          1           0       -1.265460   -0.764059   -2.656513
     12          1           0        0.320294   -1.544197   -2.605978
 ---------------------------------------------------------------------
                    Distance matrix (angstroms):
                    1          2          3          4          5
     1  C    0.000000
     2  O    1.383800   0.000000
     3  H    1.086900   2.020322   0.000000
     4  H    1.093400   2.088969   1.808426   0.000000
     5  H    1.922051   0.957400   2.818042   2.304103   0.000000
     6  C    2.000000   2.828813   2.502218   2.502554   2.986981
     7  C    2.873159   4.053102   3.048570   3.025238   4.291323
     8  H    2.501578   3.028439   3.299789   2.774988   2.829503
     9  H    2.488474   2.990053   2.745958   3.291909   3.272804
    10  H    3.878387   4.946733   4.079029   4.057160   5.100548
    11  H    3.040105   4.302244   3.336294   2.784873   4.438267
    12  H    3.046022   4.290158   2.818860   3.311069   4.740939
                    6          7          8          9         10
     6  C    0.000000
     7  C    1.509600   0.000000
     8  H    1.090900   2.191853   0.000000
     9  H    1.089100   2.197474   1.793422   0.000000
    10  H    2.164844   1.095700   2.581506   2.597645   0.000000
    11  H    2.163463   1.093900   2.535040   3.098749   1.763911
    12  H    2.161779   1.093600   3.094888   2.532457   1.764103
                   11         12
    11  H    0.000000
    12  H    1.767988   0.000000
 Symmetry turned off by external request.
 Stoichiometry    C3H8O
 Framework group  C1[X(C3H8O)]
 Deg. of freedom    30
 Full point group                 C1      NOp   1
 Rotational constants (GHZ):     22.0888023      3.1939149      2.9696071
 Standard basis: 6-311+G(d,p) (5D, 7F)
   136 basis functions,   208 primitive gaussians,   140 cartesian basis functions
    17 alpha electrons       17 beta electrons
       nuclear repulsion energy       123.1625029575 Hartrees.
 NAtoms=   12 NActive=   12 NUniq=   12 SFac= 1.00D+00 NAtFMM=   60 NAOKFM=F Big=F
 Integral buffers will be    131072 words long.
 Raffenetti 2 integral format.
 Two-electron integral symmetry is turned off.
 Nuclear repulsion after empirical dispersion term =      123.1578475638 Hartrees.
 One-electron integrals computed using PRISM.
 NBasis=   136 RedAO= T EigKep=  1.14D-04  NBF=   136
 NBsUse=   136 1.00D-06 EigRej= -1.00D+00 NBFU=   136
 ExpMin= 4.38D-02 ExpMax= 8.59D+03 ExpMxC= 1.30D+03 IAcc=3 IRadAn=         5 AccDes= 0.00D+00
 Harris functional with IExCor= 4639 and IRadAn=       5 diagonalized for initial guess.
 HarFok:  IExCor= 4639 AccDes= 0.00D+00 IRadAn=         5 IDoV= 1 UseB2=F ITyADJ=14
 ICtDFT=  3500011 ScaDFX=  1.000000  1.000000  1.000000  1.000000
 FoFCou: FMM=F IPFlag=           0 FMFlag=      100000 FMFlg1=           0
         NFxFlg=           0 DoJE=T BraDBF=F KetDBF=T FulRan=T
         wScrn=  0.000000 ICntrl=     500 IOpCl=  0 I1Cent=   200000004 NGrid=           0
         NMat0=    1 NMatS0=      1 NMatT0=    0 NMatD0=    1 NMtDS0=    0 NMtDT0=    0
 Symmetry not used in FoFCou.
 Mixing orbitals, IMix= 1 IMixAn=  0 NRI=1 NE=   17 Coef=  7.07106781D-01  7.07106781D-01
 Mixing orbitals, IMix= 1 IMixAn=  0 NRI=1 NE=   17 Coef= -7.07106781D-01  7.07106781D-01
 Initial guess <Sx>= 0.0000 <Sy>= 0.0000 <Sz>= 0.0000 <S**2>= 1.0000 S= 0.6180
 Keep R1 and R2 ints in memory in canonical form, NReq=175078578.
 Requested convergence on RMS density matrix=1.00D-08 within 128 cycles.
 Requested convergence on MAX density matrix=1.00D-06.
 Requested convergence on             energy=1.00D-06.
 No special actions if energy rises.
 SCF Done:  E(UwB97XD) =  -194.302364855     A.U. after   16 cycles
            NFock= 16  Conv=0.60D-08     -V/T= 2.0056
 <Sx>= 0.0000 <Sy>= 0.0000 <Sz>= 0.0000 <S**2>= 0.0000 S= 0.0000
 <L.S>=  0.00000000000    
 Annihilation of the first spin contaminant:
 S**2 before annihilation    -0.0000,   after     0.0000

 **********************************************************************

            Population analysis using the SCF density.

 **********************************************************************

 Alpha  occ. eigenvalues --  -19.26016 -10.34634 -10.29259 -10.27384  -1.14334
 Alpha  occ. eigenvalues --   -0.85259  -0.76326  -0.69330  -0.60412  -0.54089
 Alpha  occ. eigenvalues --   -0.51741  -0.49948  -0.47826  -0.45116  -0.42996
 Alpha  occ. eigenvalues --   -0.41313  -0.31526
 Alpha virt. eigenvalues --    0.06605   0.07470   0.08513   0.09766   0.11349
 Alpha virt. eigenvalues --    0.12084   0.12820   0.13630   0.13876   0.14741
 Alpha virt. eigenvalues --    0.17299   0.18403   0.19849   0.23229   0.23687
 Alpha virt. eigenvalues --    0.25077   0.26719   0.27197   0.27668   0.29470
 Alpha virt. eigenvalues --    0.30296   0.31921   0.33156   0.33625   0.34513
 Alpha virt. eigenvalues --    0.36443   0.40301   0.46262   0.49006   0.50679
 Alpha virt. eigenvalues --    0.53713   0.55185   0.59006   0.61805   0.63098
 Alpha virt. eigenvalues --    0.69010   0.70497   0.71174   0.72096   0.73341
 Alpha virt. eigenvalues --    0.74745   0.76947   0.80442   0.82888   0.92696
 Alpha virt. eigenvalues --    1.02509   1.03502   1.05188   1.06813   1.14912
 Alpha virt. eigenvalues --    1.17950   1.21373   1.27616   1.30963   1.34579
 Alpha virt. eigenvalues --    1.41628   1.47007   1.49647   1.54821   1.58047
 Alpha virt. eigenvalues --    1.58923   1.61719   1.64425   1.66947   1.68562
 Alpha virt. eigenvalues --    1.69285   1.72410   1.77370   1.80094   1.80558
 Alpha virt. eigenvalues --    1.85523   1.88571   1.97163   1.99255   2.00537
 Alpha virt. eigenvalues --    2.12146   2.14830   2.19708   2.20884   2.24328
 Alpha virt. eigenvalues --    2.26752   2.35807   2.42960   2.49538   2.51724
 Alpha virt. eigenvalues --    2.56442   2.57854   2.60162   2.62271   2.67354
 Alpha virt. eigenvalues --    2.67886   2.69725   2.70743   2.75850   2.78941
 Alpha virt. eigenvalues --    2.81771   2.85151   2.92019   2.98180   3.11367
 Alpha virt. eigenvalues --    3.17030   3.26309   3.33634   3.41059   3.52939
 Alpha virt. eigenvalues --    3.79682   3.87648   3.89747   3.92181   3.97029
 Alpha virt. eigenvalues --    4.07611   4.27048   5.13361   5.46262   5.75645
 Alpha virt. eigenvalues --   23.93113  23.99235  24.09014  50.03182
  Beta  occ. eigenvalues --  -19.26016 -10.34634 -10.29259 -10.27384  -1.14334
  Beta  occ. eigenvalues --   -0.85259  -0.76326  -0.69330  -0.60412  -0.54089
  Beta  occ. eigenvalues --   -0.51741  -0.49948  -0.47826  -0.45116  -0.42996
  Beta  occ. eigenvalues --   -0.41313  -0.31526
  Beta virt. eigenvalues --    0.06605   0.07470   0.08513   0.09766   0.11349
  Beta virt. eigenvalues --    0.12084   0.12820   0.13630   0.13876   0.14741
  Beta virt. eigenvalues --    0.17299   0.18403   0.19849   0.23229   0.23687
  Beta virt. eigenvalues --    0.25077   0.26719   0.27197   0.27668   0.29470
  Beta virt. eigenvalues --    0.30296   0.31921   0.33156   0.33625   0.34513
  Beta virt. eigenvalues --    0.36443   0.40301   0.46262   0.49006   0.50679
  Beta virt. eigenvalues --    0.53713   0.55185   0.59006   0.61805   0.63098
  Beta virt. eigenvalues --    0.69010   0.70497   0.71174   0.72096   0.73341
  Beta virt. eigenvalues --    0.74745   0.76947   0.80442   0.82888   0.92696
  Beta virt. eigenvalues --    1.02509   1.03502   1.05188   1.06813   1.14912
  Beta virt. eigenvalues --    1.17950   1.21373   1.27616   1.30963   1.34579
  Beta virt. eigenvalues --    1.41628   1.47007   1.49647   1.54821   1.58047
  Beta virt. eigenvalues --    1.58923   1.61719   1.64425   1.66947   1.68562
  Beta virt. eigenvalues --    1.69285   1.72410   1.77370   1.80094   1.80558
  Beta virt. eigenvalues --    1.85523   1.88571   1.97163   1.99255   2.00537
  Beta virt. eigenvalues --    2.12146   2.14830   2.19708   2.20884   2.24328
  Beta virt. eigenvalues --    2.26752   2.35807   2.42960   2.49538   2.51724
  Beta virt. eigenvalues --    2.56442   2.57854   2.60162   2.62271   2.67354
  Beta virt. eigenvalues --    2.67886   2.69725   2.70743   2.75850   2.78941
  Beta virt. eigenvalues --    2.81771   2.85151   2.92019   2.98180   3.11367
  Beta virt. eigenvalues --    3.17030   3.26309   3.33634   3.41059   3.52939
  Beta virt. eigenvalues --    3.79682   3.87648   3.89747   3.92181   3.97029
  Beta virt. eigenvalues --    4.07611   4.27048   5.13361   5.46262   5.75645
  Beta virt. eigenvalues --   23.93113  23.99235  24.09014  50.03182
          Condensed to atoms (all electrons):
               1          2          3          4          5          6
     1  C    5.133717   0.182028   0.432913   0.376390   0.000793   0.278059
     2  O    0.182028   7.968831  -0.056585  -0.037988   0.272954  -0.067123
     3  H    0.432913  -0.056585   0.527687  -0.039431   0.008573  -0.038873
     4  H    0.376390  -0.037988  -0.039431   0.591148  -0.010658  -0.032793
     5  H    0.000793   0.272954   0.008573  -0.010658   0.474417  -0.018093
     6  C    0.278059  -0.067123  -0.038873  -0.032793  -0.018093   5.294566
     7  C   -0.057794   0.019130  -0.000968   0.009239   0.005655   0.123182
     8  H   -0.027346  -0.000816   0.002896  -0.003496   0.003545   0.418476
     9  H   -0.038130   0.002953  -0.002396   0.003111  -0.000246   0.431132
    10  H    0.012781  -0.000413  -0.000359  -0.000536  -0.000048  -0.037295
    11  H   -0.016242  -0.000058   0.000030   0.003269   0.000078  -0.040677
    12  H   -0.010184   0.000036   0.002697  -0.000407   0.000050  -0.046095
               7          8          9         10         11         12
     1  C   -0.057794  -0.027346  -0.038130   0.012781  -0.016242  -0.010184
     2  O    0.019130  -0.000816   0.002953  -0.000413  -0.000058   0.000036
     3  H   -0.000968   0.002896  -0.002396  -0.000359   0.000030   0.002697
     4  H    0.009239  -0.003496   0.003111  -0.000536   0.003269  -0.000407
     5  H    0.005655   0.003545  -0.000246  -0.000048   0.000078   0.000050
     6  C    0.123182   0.418476   0.431132  -0.037295  -0.040677  -0.046095
     7  C    5.246517  -0.041146  -0.036934   0.391021   0.427762   0.427539
     8  H   -0.041146   0.545047  -0.033543  -0.004503  -0.007463   0.006901
     9  H   -0.036934  -0.033543   0.510376  -0.003916   0.006206  -0.007353
    10  H    0.391021  -0.004503  -0.003916   0.543397  -0.026226  -0.025459
    11  H    0.427762  -0.007463   0.006206  -0.026226   0.540318  -0.033842
    12  H    0.427539   0.006901  -0.007353  -0.025459  -0.033842   0.536046
          Atomic-Atomic Spin Densities.
               1          2          3          4          5          6
     1  C   -0.000000  -0.000000  -0.000000  -0.000000   0.000000   0.000000
     2  O   -0.000000   0.000000  -0.000000   0.000000   0.000000   0.000000
     3  H   -0.000000  -0.000000  -0.000000   0.000000   0.000000   0.000000
     4  H   -0.000000   0.000000   0.000000  -0.000000  -0.000000   0.000000
     5  H    0.000000   0.000000   0.000000  -0.000000  -0.000000   0.000000
     6  C    0.000000   0.000000   0.000000   0.000000   0.000000  -0.000000
     7  C    0.000000  -0.000000  -0.000000  -0.000000  -0.000000   0.000000
     8  H   -0.000000   0.000000   0.000000   0.000000  -0.000000   0.000000
     9  H   -0.000000   0.000000   0.000000   0.000000   0.000000   0.000000
    10  H    0.000000  -0.000000  -0.000000  -0.000000   0.000000  -0.000000
    11  H    0.000000   0.000000   0.000000   0.000000  -0.000000   0.000000
    12  H    0.000000   0.000000   0.000000   0.000000  -0.000000   0.000000
               7          8          9         10         11         12
     1  C    0.000000  -0.000000  -0.000000   0.000000   0.000000   0.000000
     2  O   -0.000000   0.000000   0.000000  -0.000000   0.000000   0.000000
     3  H   -0.000000   0.000000   0.000000  -0.000000   0.000000   0.000000
     4  H   -0.000000   0.000000   0.000000  -0.000000   0.000000   0.000000
     5  H   -0.000000  -0.000000   0.000000   0.000000  -0.000000  -0.000000
     6  C    0.000000   0.000000   0.000000  -0.000000   0.000000   0.000000
     7  C    0.000000  -0.000000  -0.000000   0.000000  -0.000000  -0.000000
     8  H   -0.000000   0.000000  -0.000000  -0.000000   0.000000  -0.000000
     9  H   -0.000000  -0.000000   0.000000  -0.000000  -0.000000   0.000000
    10  H    0.000000  -0.000000  -0.000000  -0.000000   0.000000   0.000000
    11  H   -0.000000   0.000000  -0.000000   0.000000  -0.000000   0.000000
    12  H   -0.000000  -0.000000   0.000000   0.000000   0.000000  -0.000000
 Mulliken charges and spin densities:
               1          2
     1  C   -0.266987  -0.000000
     2  O   -0.282949   0.000000
     3  H    0.163817  -0.000000
     4  H    0.142152  -0.000000
     5  H    0.262978  -0.000000
     6  C   -0.264465  -0.000000
     7  C   -0.513204   0.000000
     8  H    0.141448   0.000000
     9  H    0.168740   0.000000
    10  H    0.151555  -0.000000
    11  H    0.146846  -0.000000
    12  H    0.150071  -0.000000
 Sum of Mulliken charges =  -0.00000   0.00000
 Mulliken charges and spin densities with hydrogens summed into heavy atoms:
               1          2
     1  C    0.038981  -0.000000
     2  O   -0.019972   0.000000
     6  C    0.045723   0.000000
     7  C   -0.064732   0.000000
 Electronic spatial extent (au):  <R**2>=            562.5813
 Charge=              0.0000 electrons
 Dipole moment (field-independent basis, Debye):
    X=             -1.4027    Y=              0.1334    Z=             -0.7814  Tot=              1.6112
 Quadrupole moment (field-independent basis, Debye-Ang):
   XX=            -24.8040   YY=            -27.1096   ZZ=            -27.8454
   XY=             -0.4233   XZ=             -3.1689   YZ=              0.2311
 Traceless Quadrupole moment (field-independent basis, Debye-Ang):
   XX=              1.7823   YY=             -0.5232   ZZ=             -1.2591
   XY=             -0.4233   XZ=             -3.1689   YZ=              0.2311
 Octapole moment (field-independent basis, Debye-Ang**2):
  XXX=             32.1906  YYY=             69.3242  ZZZ=             44.3593  XYY=             10.9458
  XXY=             23.4821  XXZ=             16.5008  XZZ=              5.3272  YZZ=             23.5480
  YYZ=             12.7855  XYZ=             -0.1790
 Hexadecapole moment (field-independent basis, Debye-Ang**3):
 XXXX=            -96.8999 YYYY=           -283.5470 ZZZZ=           -385.9462 XXXY=            -53.8470
 XXXZ=            -51.1990 YYYX=            -54.7206 YYYZ=           -106.6345 ZZZX=            -57.9237
 ZZZY=           -109.8373 XXYY=            -64.2575 XXZZ=            -74.4870 YYZZ=           -110.7486
 XXYZ=            -36.0278 YYXZ=            -13.5071 ZZXY=            -17.9980
 N-N= 1.231578475638D+02 E-N=-6.995520510074D+02  KE= 1.932115020789D+02
                          Isotropic Fermi Contact Couplings
        Atom                 a.u.       MegaHertz       Gauss      10(-4) cm-1
     1  C(13)             -0.00000      -0.00001      -0.00000      -0.00000
     2  O(17)              0.00000      -0.00002      -0.00001      -0.00001
     3  H(1)              -0.00000      -0.00001      -0.00000      -0.00000
     4  H(1)              -0.00000      -0.00004      -0.00002      -0.00001
     5  H(1)              -0.00000      -0.00001      -0.00000      -0.00000
     6  C(13)             -0.00000      -0.00004      -0.00002      -0.00001
     7  C(13)              0.00000       0.00010       0.00004       0.00003
     8  H(1)               0.00000       0.00001       0.00000       0.00000
     9  H(1)               0.00000       0.00001       0.00000       0.00000
    10  H(1)              -0.00000      -0.00000      -0.00000      -0.00000
    11  H(1)              -0.00000      -0.00009      -0.00003      -0.00003
    12  H(1)              -0.00000      -0.00009      -0.00003      -0.00003
 --------------------------------------------------------
       Center         ----  Spin Dipole Couplings  ----
                      3XX-RR        3YY-RR        3ZZ-RR
 --------------------------------------------------------
     1   Atom        0.000000     -0.000000     -0.000000
     2   Atom       -0.000000      0.000000     -0.000000
     3   Atom       -0.000000      0.000000      0.000000
     4   Atom       -0.000000     -0.000000      0.000000
     5   Atom        0.000000     -0.000000     -0.000000
     6   Atom       -0.000000      0.000000     -0.000000
     7   Atom        0.000000     -0.000000     -0.000000
     8   Atom       -0.000000      0.000000      0.000000
     9   Atom        0.000000     -0.000000      0.000000
    10   Atom       -0.000000      0.000000     -0.000000
    11   Atom       -0.000000      0.000000     -0.000000
    12   Atom        0.000000     -0.000000     -0.000000
 --------------------------------------------------------
                        XY            XZ            YZ
 --------------------------------------------------------
     1   Atom       -0.000000     -0.000000     -0.000000
     2   Atom        0.000000      0.000000      0.000000
     3   Atom       -0.000000     -0.000000     -0.000000
     4   Atom        0.000000      0.000000     -0.000000
     5   Atom       -0.000000     -0.000000     -0.000000
     6   Atom        0.000000      0.000000      0.000000
     7   Atom       -0.000000     -0.000000     -0.000000
     8   Atom       -0.000000     -0.000000      0.000000
     9   Atom        0.000000      0.000000      0.000000
    10   Atom        0.000000      0.000000      0.000000
    11   Atom       -0.000000      0.000000     -0.000000
    12   Atom        0.000000     -0.000000     -0.000000
 --------------------------------------------------------


 ---------------------------------------------------------------------------------
              Anisotropic Spin Dipole Couplings in Principal Axis System
 ---------------------------------------------------------------------------------

       Atom             a.u.   MegaHertz   Gauss  10(-4) cm-1        Axes

              Baa    -0.0000    -0.000    -0.000    -0.000  0.5969  0.7885  0.1482
     1 C(13)  Bbb    -0.0000    -0.000    -0.000    -0.000 -0.1511 -0.0709  0.9860
              Bcc     0.0000     0.000     0.000     0.000  0.7880 -0.6109  0.0768
 
              Baa    -0.0000     0.000     0.000     0.000  0.7918 -0.5519  0.2617
     2 O(17)  Bbb    -0.0000     0.000     0.000     0.000 -0.2414  0.1108  0.9641
              Bcc     0.0000    -0.000    -0.000    -0.000  0.5611  0.8265  0.0455
 
              Baa    -0.0000    -0.000    -0.000    -0.000  0.9852  0.0199  0.1702
     3 H(1)   Bbb     0.0000     0.000     0.000     0.000 -0.0452  0.9883  0.1459
              Bcc     0.0000     0.000     0.000     0.000 -0.1653 -0.1515  0.9745
 
              Baa    -0.0000    -0.000    -0.000    -0.000 -0.3041  0.8859  0.3504
     4 H(1)   Bbb    -0.0000    -0.000    -0.000    -0.000  0.8660  0.4103 -0.2857
              Bcc     0.0000     0.000     0.000     0.000  0.3969 -0.2166  0.8919
 
              Baa    -0.0000    -0.000    -0.000    -0.000  0.2896  0.3233  0.9009
     5 H(1)   Bbb    -0.0000    -0.000    -0.000    -0.000 -0.0770  0.9461 -0.3147
              Bcc     0.0000     0.000     0.000     0.000  0.9540 -0.0218 -0.2989
 
              Baa    -0.0000    -0.000    -0.000    -0.000 -0.1664 -0.2733  0.9474
     6 C(13)  Bbb    -0.0000    -0.000    -0.000    -0.000  0.8725 -0.4885  0.0123
              Bcc     0.0000     0.000     0.000     0.000  0.4594  0.8286  0.3198
 
              Baa    -0.0000    -0.000    -0.000    -0.000  0.3753  0.8078  0.4546
     7 C(13)  Bbb    -0.0000    -0.000    -0.000    -0.000 -0.2132 -0.4021  0.8904
              Bcc     0.0000     0.000     0.000     0.000  0.9021 -0.4311  0.0213
 
              Baa    -0.0000    -0.000    -0.000    -0.000  0.9696  0.2409 -0.0434
     8 H(1)   Bbb     0.0000     0.000     0.000     0.000  0.2025 -0.6896  0.6953
              Bcc     0.0000     0.000     0.000     0.000 -0.1375  0.6829  0.7174
 
              Baa    -0.0000    -0.000    -0.000    -0.000 -0.5686  0.8217 -0.0383
     9 H(1)   Bbb     0.0000     0.000     0.000     0.000 -0.5967 -0.3801  0.7067
              Bcc     0.0000     0.000     0.000     0.000  0.5662  0.4247  0.7064
 
              Baa    -0.0000    -0.000    -0.000    -0.000 -0.1803 -0.3215  0.9296
    10 H(1)   Bbb    -0.0000    -0.000    -0.000    -0.000  0.8977 -0.4401  0.0220
              Bcc     0.0000     0.000     0.000     0.000  0.4020  0.8384  0.3680
 
              Baa    -0.0000    -0.000    -0.000    -0.000  0.5086  0.5650  0.6497
    11 H(1)   Bbb    -0.0000    -0.000    -0.000    -0.000  0.7278  0.1209 -0.6750
              Bcc     0.0000     0.000     0.000     0.000 -0.4599  0.8162 -0.3497
 
              Baa    -0.0000    -0.000    -0.000    -0.000  0.0810  0.8064  0.5858
    12 H(1)   Bbb    -0.0000    -0.000    -0.000    -0.000  0.3199 -0.5776  0.7510
              Bcc     0.0000     0.000     0.000     0.000  0.9440  0.1265 -0.3048
 

 ---------------------------------------------------------------------------------

 Calling FoFJK, ICntrl=      2127 FMM=F ISym2X=0 I1Cent= 0 IOpClX= 1 NMat=1 NMatS=1 NMatT=0.
 -------------------------------------------------------------------
 Center     Atomic                   Forces (Hartrees/Bohr)
 Number     Number              X              Y              Z
 -------------------------------------------------------------------
      1        6          -0.029726856   -0.063384933   -0.028498484
      2        8          -0.000056001    0.000001206    0.000019399
      3        1           0.000009073   -0.000007262   -0.000015788
      4        1          -0.000017606    0.000017998   -0.000010506
      5        1           0.000035476   -0.000008227   -0.000003827
      6        6           0.029756182    0.063389992    0.028470493
      7        6           0.000023622   -0.000007107    0.000023586
      8        1          -0.000013968    0.000003189   -0.000006930
      9        1           0.000020394   -0.000015313    0.000013027
     10        1           0.000002655    0.000002882    0.000000870
     11        1          -0.000003807    0.000011240   -0.000003536
     12        1          -0.000029163   -0.000003665    0.000011697
 -------------------------------------------------------------------
 Cartesian Forces:  Max     0.063389992 RMS     0.017816814
 -----------------------------------------------------------------------------------------------
                       Internal Coordinate Forces (Hartree/Bohr or radian)
  Cent   Atom   N1       Length/X         N2         Alpha/Y        N3         Beta/Z          J
 -----------------------------------------------------------------------------------------------
      1  C 
      2  O        1   0.000016(     1)
      3  H        1   0.000014(     2)      2   0.000025(    12)
      4  H        1   0.000027(     3)      2  -0.000002(    13)      3  -0.000006(    22)     0
      5  H        2  -0.000035(     4)      1   0.000014(    14)      3   0.000012(    23)     0
      6  C        1  -0.075600(     5)      2   0.000008(    15)      3   0.000002(    24)     0
      7  C        6  -0.000033(     6)      1  -0.000012(    16)      2   0.000007(    25)     0
      8  H        6   0.000010(     7)      7  -0.000024(    17)      1   0.000001(    26)     0
      9  H        6   0.000028(     8)      7   0.000002(    18)      8   0.000013(    27)     0
     10  H        7  -0.000004(     9)      6   0.000002(    19)      8   0.000006(    28)     0
     11  H        7   0.000012(    10)      6  -0.000001(    20)     10   0.000006(    29)     0
     12  H        7  -0.000032(    11)      6  -0.000004(    21)     10   0.000003(    30)     0
 -----------------------------------------------------------------------------------------------
 Internal  Forces:  Max     0.075600053 RMS     0.013802627

 GradGradGradGradGradGradGradGradGradGradGradGradGradGradGradGradGradGrad
 Berny optimization.
 Search for a local minimum.
 Step number   1 out of a maximum of   50
 All quantities printed in internal units (Hartrees-Bohrs-Radians)
 Second derivative matrix not updated -- first step.
 ITU=  0
     Eigenvalues ---    0.01860   0.03606   0.04398   0.07312   0.10495
     Eigenvalues ---    0.11384   0.13418   0.14134   0.15431   0.16000
     Eigenvalues ---    0.24304   0.27459   0.28796   0.31391   0.34162
     Eigenvalues ---    0.34366   0.34400   0.34423   0.34502   0.34709
     Eigenvalues ---    0.34917   0.35173   0.38248   0.39176   0.39355
     Eigenvalues ---    0.40297   0.40946   0.48414   0.560361000.00000
 RFO step:  Lambda=-2.84615361D-08 EMin= 1.86015950D-02
 Linear search not attempted -- first point.
 Variable       Old X    -DE/DX   Delta X   Delta X   Delta X     New X
                                 (Linear)    (Quad)   (Total)
    R1        2.61500   0.00002   0.00000   0.00003   0.00003   2.61504
    R2        2.05394   0.00001   0.00000   0.00004   0.00004   2.05398
    R3        2.06623   0.00003   0.00000   0.00008   0.00008   2.06631
    R4        1.80922  -0.00004   0.00000  -0.00006  -0.00006   1.80916
    A2        1.90456   0.00002   0.00000   0.00011   0.00011   1.90466
    A3        1.99785  -0.00000   0.00000  -0.00001  -0.00001   1.99783
    A4        1.90245   0.00001   0.00000   0.00009   0.00009   1.90254
    D3        4.07521  -0.00001   0.00000  -0.00011  -0.00011   4.07510
   R21        2.85273  -0.00003   0.00000  -0.00010  -0.00010   2.85263
   R22        2.06150   0.00001   0.00000   0.00003   0.00003   2.06153
   R23        2.05810   0.00003   0.00000   0.00008   0.00008   2.05818
   R24        2.07057  -0.00000   0.00000  -0.00001  -0.00001   2.07056
   R25        2.06717   0.00001   0.00000   0.00003   0.00003   2.06721
   R26        2.06660  -0.00003   0.00000  -0.00009  -0.00009   2.06651
   A22        1.98822  -0.00002   0.00000  -0.00007  -0.00007   1.98815
   A23        1.99849   0.00000   0.00000   0.00004   0.00004   1.99853
   A24        1.94431   0.00000   0.00000   0.00002   0.00002   1.94433
   A25        1.94429  -0.00000   0.00000   0.00000   0.00000   1.94429
   A26        1.94224  -0.00000   0.00000  -0.00003  -0.00003   1.94221
   D23        2.24878   0.00001   0.00000   0.00008   0.00008   2.24886
   D25        2.09126   0.00001   0.00000   0.00004   0.00004   2.09130
   D26        4.19246   0.00000   0.00000   0.00002   0.00002   4.19248
   ANG2       1.90420  -0.00001   0.00000  -0.00005  -0.00005   1.90416
   DH2        3.17152   0.00001   0.00000   0.00027   0.00027   3.17179
   DH3        2.02294   0.00000   0.00000  -0.00004  -0.00004   2.02289
    D4        3.11036   0.00001   0.00000   0.00026   0.00026   3.11062
   D24        5.17133   0.00001   0.00000   0.00005   0.00005   5.17137
   DH1        2.00974   0.00000   0.00000  -0.00004  -0.00004   2.00970
   ANG1       1.95745   0.00001   0.00000  -0.00001  -0.00001   1.95744
    BB        3.77945  -0.07560   0.00000   0.00000   0.00000   3.77945
         Item               Value     Threshold  Converged?
 Maximum Force            0.000035     0.000450     YES
 RMS     Force            0.000016     0.000300     YES
 Maximum Displacement     0.000274     0.001800     YES
 RMS     Displacement     0.000089     0.001200     YES
 Predicted change in Energy=-1.423077D-08
 Optimization completed.
    -- Stationary point found.
                       ----------------------------
                       !   Optimized Parameters   !
                       ! (Angstroms and Degrees)  !
 ----------------------                            ----------------------
 !      Name          Value   Derivative information (Atomic Units)     !
 ------------------------------------------------------------------------
 !       R1          1.3838   -DE/DX =    0.0                           !
 !       R2          1.0869   -DE/DX =    0.0                           !
 !       R3          1.0934   -DE/DX =    0.0                           !
 !       R4          0.9574   -DE/DX =    0.0                           !
 !       A2        109.123    -DE/DX =    0.0                           !
 !       A3        114.4681   -DE/DX =    0.0                           !
 !       A4        109.0024   -DE/DX =    0.0                           !
 !       D3        233.4923   -DE/DX =    0.0                           !
 !       R21         1.5096   -DE/DX =    0.0                           !
 !       R22         1.0909   -DE/DX =    0.0                           !
 !       R23         1.0891   -DE/DX =    0.0                           !
 !       R24         1.0957   -DE/DX =    0.0                           !
 !       R25         1.0939   -DE/DX =    0.0                           !
 !       R26         1.0936   -DE/DX =    0.0                           !
 !       A22       113.9166   -DE/DX =    0.0                           !
 !       A23       114.505    -DE/DX =    0.0                           !
 !       A24       111.4007   -DE/DX =    0.0                           !
 !       A25       111.3997   -DE/DX =    0.0                           !
 !       A26       111.2824   -DE/DX =    0.0                           !
 !       D23       128.8458   -DE/DX =    0.0                           !
 !       D25       119.8203   -DE/DX =    0.0                           !
 !       D26       240.2103   -DE/DX =    0.0                           !
 !      ANG2       109.1028   -DE/DX =    0.0                           !
 !       DH2       181.7147   -DE/DX =    0.0                           !
 !       DH3       115.9059   -DE/DX =    0.0                           !
 !       D4        178.2103   -DE/DX =    0.0                           !
 !       D24       296.2951   -DE/DX =    0.0                           !
 !       DH1       115.1496   -DE/DX =    0.0                           !
 !      ANG1       112.1537   -DE/DX =    0.0                           !
 !       BB          2.0      -DE/DX =   -0.0756                        !
 ------------------------------------------------------------------------
 GradGradGradGradGradGradGradGradGradGradGradGradGradGradGradGradGradGrad

 ---------------------------------------------------------------------------------------------------
                            Z-MATRIX (ANGSTROMS AND DEGREES)
   CD    Cent   Atom    N1       Length/X        N2       Alpha/Y        N3        Beta/Z          J
 ---------------------------------------------------------------------------------------------------
      1      1  C 
      2      2  O        1   1.383800(     1)
      3      3  H        1   1.086900(     2)      2  109.123(    12)
      4      4  H        1   1.093400(     3)      2  114.468(    13)      3  233.492(    22)      0
      5      5  H        2   0.957400(     4)      1  109.002(    14)      3  178.210(    23)      0
      6      6  C        1   2.000000(     5)      2  112.154(    15)      3  115.150(    24)      0
      7      7  C        6   1.509600(     6)      1  109.103(    16)      2  181.715(    25)      0
      8      8  H        6   1.090900(     7)      7  113.917(    17)      1  115.906(    26)      0
      9      9  H        6   1.089100(     8)      7  114.505(    18)      8  128.846(    27)      0
     10     10  H        7   1.095700(     9)      6  111.401(    19)      8  296.295(    28)      0
     11     11  H        7   1.093900(    10)      6  111.400(    20)     10  119.820(    29)      0
     12     12  H        7   1.093600(    11)      6  111.282(    21)     10  240.210(    30)      0
 ---------------------------------------------------------------------------------------------------
                         Z-Matrix orientation:                         
 ---------------------------------------------------------------------
 Center     Atomic      Atomic             Coordinates (Angstroms)
 Number     Number       Type             X           Y           Z
 ---------------------------------------------------------------------
      1          6           0        0.000000    0.000000    0.000000
      2          8           0        0.000000    0.000000    1.383800
      3          1           0        1.026922    0.000000   -0.356065
      4          1           0       -0.592077    0.799922   -0.452872
      5          1           0       -0.904785    0.028271    1.695537
      6          6           0       -0.787218   -1.676751   -0.754185
      7          6           0       -0.714538   -1.622380   -2.261054
      8          1           0       -1.804580   -1.694457   -0.360835
      9          1           0       -0.185396   -2.463237   -0.300988
     10          1           0       -1.143467   -2.522783   -2.714763
     11          1           0       -1.265460   -0.764059   -2.656513
     12          1           0        0.320294   -1.544197   -2.605978
 ---------------------------------------------------------------------
                    Distance matrix (angstroms):
                    1          2          3          4          5
     1  C    0.000000
     2  O    1.383800   0.000000
     3  H    1.086900   2.020322   0.000000
     4  H    1.093400   2.088969   1.808426   0.000000
     5  H    1.922051   0.957400   2.818042   2.304103   0.000000
     6  C    2.000000   2.828813   2.502218   2.502554   2.986981
     7  C    2.873159   4.053102   3.048570   3.025238   4.291323
     8  H    2.501578   3.028439   3.299789   2.774988   2.829503
     9  H    2.488474   2.990053   2.745958   3.291909   3.272804
    10  H    3.878387   4.946733   4.079029   4.057160   5.100548
    11  H    3.040105   4.302244   3.336294   2.784873   4.438267
    12  H    3.046022   4.290158   2.818860   3.311069   4.740939
                    6          7          8          9         10
     6  C    0.000000
     7  C    1.509600   0.000000
     8  H    1.090900   2.191853   0.000000
     9  H    1.089100   2.197474   1.793422   0.000000
    10  H    2.164844   1.095700   2.581506   2.597645   0.000000
    11  H    2.163463   1.093900   2.535040   3.098749   1.763911
    12  H    2.161779   1.093600   3.094888   2.532457   1.764103
                   11         12
    11  H    0.000000
    12  H    1.767988   0.000000
 Symmetry turned off by external request.
 Stoichiometry    C3H8O
 Framework group  C1[X(C3H8O)]
 Deg. of freedom    30
 Full point group                 C1      NOp   1
 Rotational constants (GHZ):     22.0888023      3.1939149      2.9696071
 1\1\GINC-NODE-5-15\POpt\UwB97XD\6-311+G(d,p)\C3H8O1\MDITEODORO\11-Jun-
 2024\1\\# uwb97xd/6-311+g(d,p) opt=(noeig,intern,maxcyc=50) # int=ultr
 afine nosym guess(mix,always)\\geom 1\\0,1\C\O,1,R1\H,1,R2,2,A2\H,1,R3
 ,2,A3,3,D3,0\H,2,R4,1,A4,3,D4,0\C,1,BB,2,ANG1,3,DH1,0\C,6,R21,1,ANG2,2
 ,DH2,0\H,6,R22,7,A22,1,DH3,0\H,6,R23,7,A23,8,D23,0\H,7,R24,6,A24,8,D24
 ,0\H,7,R25,6,A25,10,D25,0\H,7,R26,6,A26,10,D26,0\\R1=1.3838\R2=1.0869\
 R3=1.0934\R4=0.9574\A2=109.123\A3=114.4681\A4=109.0024\D3=233.4923\R21
 =1.5096\R22=1.0909\R23=1.0891\R24=1.0957\R25=1.0939\R26=1.0936\A22=113
 .9166\A23=114.505\A24=111.4007\A25=111.3997\A26=111.2824\D23=128.8458\
 D25=119.8203\D26=240.2103\ANG2=109.1028\DH2=181.7147\DH3=115.9059\D4=1
 78.2103\D24=296.2951\DH1=115.1496\ANG1=112.1537\BB=2.\\Version=EM64L-G
 09RevD.01\HF=-194.3023649\S2=0.\S2-1=0.\S2A=0.\RMSD=5.982e-09\RMSF=1.7
 82e-02\Dipole=-0.5518642,0.0524756,-0.3074455\Quadrupole=1.3251133,-0.
 3890199,-0.9360934,-0.3147328,-2.3559683,0.1718411\PG=C01 [X(C3H8O1)]\
 \@


 Everything starts as somebody's daydream.
                           -- Larry Niven
 Job cpu time:       0 days  0 hours  2 minutes  9.2 seconds.
 File lengths (MBytes):  RWF=     66 Int=      0 D2E=      0 Chk=      9 Scr=      1
 Normal termination of Gaussian 09 at Tue Jun 11 18:12:32 2024.
