 Entering Gaussian System, Link 0=g09
 Input=geom.com
 Output=geom.log
 Initial command:
 /software/cinetica/g09d1/g09d01/d01/build-node-6-2-59348/src/main/l1.exe "/scratch/mdt/200922/Gau-20152.inp" -scrdir="/scratch/mdt/200922/"
 Entering Link 1 = /software/cinetica/g09d1/g09d01/d01/build-node-6-2-59348/src/main/l1.exe PID=     20153.
  
 Copyright (c) 1988,1990,1992,1993,1995,1998,2003,2009,2013,
            Gaussian, Inc.  All Rights Reserved.
  
 This is part of the Gaussian(R) 09 program.  It is based on
 the Gaussian(R) 03 system (copyright 2003, Gaussian, Inc.),
 the Gaussian(R) 98 system (copyright 1998, Gaussian, Inc.),
 the Gaussian(R) 94 system (copyright 1995, Gaussian, Inc.),
 the Gaussian 92(TM) system (copyright 1992, Gaussian, Inc.),
 the Gaussian 90(TM) system (copyright 1990, Gaussian, Inc.),
 the Gaussian 88(TM) system (copyright 1988, Gaussian, Inc.),
 the Gaussian 86(TM) system (copyright 1986, Carnegie Mellon
 University), and the Gaussian 82(TM) system (copyright 1983,
 Carnegie Mellon University). Gaussian is a federally registered
 trademark of Gaussian, Inc.
  
 This software contains proprietary and confidential information,
 including trade secrets, belonging to Gaussian, Inc.
  
 This software is provided under written license and may be
 used, copied, transmitted, or stored only in accord with that
 written license.
  
 The following legend is applicable only to US Government
 contracts under FAR:
  
                    RESTRICTED RIGHTS LEGEND
  
 Use, reproduction and disclosure by the US Government is
 subject to restrictions as set forth in subparagraphs (a)
 and (c) of the Commercial Computer Software - Restricted
 Rights clause in FAR 52.227-19.
  
 Gaussian, Inc.
 340 Quinnipiac St., Bldg. 40, Wallingford CT 06492
  
  
 ---------------------------------------------------------------
 Warning -- This program may not be used in any manner that
 competes with the business of Gaussian, Inc. or will provide
 assistance to any competitor of Gaussian, Inc.  The licensee
 of this program is prohibited from giving any competitor of
 Gaussian, Inc. access to this program.  By using this program,
 the user acknowledges that Gaussian, Inc. is engaged in the
 business of creating and licensing software in the field of
 computational chemistry and represents and warrants to the
 licensee that it is not a competitor of Gaussian, Inc. and that
 it will not use this program in any manner prohibited above.
 ---------------------------------------------------------------
  

 Cite this work as:
 Gaussian 09, Revision D.01,
 M. J. Frisch, G. W. Trucks, H. B. Schlegel, G. E. Scuseria, 
 M. A. Robb, J. R. Cheeseman, G. Scalmani, V. Barone, B. Mennucci, 
 G. A. Petersson, H. Nakatsuji, M. Caricato, X. Li, H. P. Hratchian, 
 A. F. Izmaylov, J. Bloino, G. Zheng, J. L. Sonnenberg, M. Hada, 
 M. Ehara, K. Toyota, R. Fukuda, J. Hasegawa, M. Ishida, T. Nakajima, 
 Y. Honda, O. Kitao, H. Nakai, T. Vreven, J. A. Montgomery, Jr., 
 J. E. Peralta, F. Ogliaro, M. Bearpark, J. J. Heyd, E. Brothers, 
 K. N. Kudin, V. N. Staroverov, T. Keith, R. Kobayashi, J. Normand, 
 K. Raghavachari, A. Rendell, J. C. Burant, S. S. Iyengar, J. Tomasi, 
 M. Cossi, N. Rega, J. M. Millam, M. Klene, J. E. Knox, J. B. Cross, 
 V. Bakken, C. Adamo, J. Jaramillo, R. Gomperts, R. E. Stratmann, 
 O. Yazyev, A. J. Austin, R. Cammi, C. Pomelli, J. W. Ochterski, 
 R. L. Martin, K. Morokuma, V. G. Zakrzewski, G. A. Voth, 
 P. Salvador, J. J. Dannenberg, S. Dapprich, A. D. Daniels, 
 O. Farkas, J. B. Foresman, J. V. Ortiz, J. Cioslowski, 
 and D. J. Fox, Gaussian, Inc., Wallingford CT, 2013.
 
 ******************************************
 Gaussian 09:  EM64L-G09RevD.01 24-Apr-2013
                13-Jun-2024 
 ******************************************
 %mem=400MW
 %chk=tmp
 %NProcShared= 16
 Will use up to   16 processors via shared memory.
 ----------------------------------------------------------------------
 #UWB97XD/JUN-CC-PVTZ #freq=readfc iop(7/33=1) guess=read geom=check in
 t=ultra
 ----------------------------------------------------------------------
 1/29=2,38=1/1;
 2/12=2,40=1/2;
 7/8=1,25=11,33=1/16;
 99/5=2/99;
 ------
 geom 0
 ------
 Structure from the checkpoint file:  "tmp.chk"
 Charge =  0 Multiplicity = 2
 Z-Matrix found in file.
 C
 C,1,R21
 H,1,R22,2,A22
 H,1,R23,2,A23,3,D23,0
 H,2,R24,1,A24,3,D24,0
 H,2,R25,1,A25,5,D25,0
 H,2,R26,1,A26,5,D26,0
      Variables:
 R21=1.482
 R22=1.0803
 R23=1.0802
 R24=1.0986
 R25=1.0908
 R26=1.0909
 A22=120.8543
 A23=120.8568
 A24=111.6173
 A25=111.7516
 A26=111.7464
 D23=188.1754
 D25=119.2251
 D26=240.8127
 D24=85.6424
 Recover connectivity data from disk.
                          Input orientation:                          
 ---------------------------------------------------------------------
 Center     Atomic      Atomic             Coordinates (Angstroms)
 Number     Number       Type             X           Y           Z
 ---------------------------------------------------------------------
      1          6           0        0.000000    0.000000    0.000000
      2          6           0        0.000000    0.000000    1.482000
      3          1           0        0.927410    0.000000   -0.554039
      4          1           0       -0.917876    0.131866   -0.554028
      5          1           0        0.077602    1.018378    1.886730
      6          1           0       -0.919199   -0.426044    1.886232
      7          1           0        0.844508   -0.559920    1.886177
 ---------------------------------------------------------------------
                    Distance matrix (angstroms):
                    1          2          3          4          5
     1  C    0.000000
     2  C    1.482000   0.000000
     3  H    1.080300   2.237307   0.000000
     4  H    1.080200   2.237252   1.849991   0.000000
     5  H    2.145429   1.098600   2.777881   2.781040   0.000000
     6  H    2.141101   1.090800   3.089725   2.503225   1.754984
     7  H    2.141114   1.090900   2.505003   3.088554   1.754756
                    6          7
     6  H    0.000000
     7  H    1.768780   0.000000
 Stoichiometry    C2H5(2)
 Framework group  C1[X(C2H5)]
 Deg. of freedom    15
 Full point group                 C1      NOp   1
 Largest Abelian subgroup         C1      NOp   1
 Largest concise Abelian subgroup C1      NOp   1
                         Standard orientation:                         
 ---------------------------------------------------------------------
 Center     Atomic      Atomic             Coordinates (Angstroms)
 Number     Number       Type             X           Y           Z
 ---------------------------------------------------------------------
      1          6           0        0.790605    0.000009   -0.018795
      2          6           0       -0.691297    0.000070   -0.001732
      3          1           0        1.345330   -0.925068    0.040876
      4          1           0        1.345396    0.924923    0.040978
      5          1           0       -1.084241   -0.004785    1.024179
      6          1           0       -1.101112    0.886608   -0.487477
      7          1           0       -1.101222   -0.882155   -0.495394
 ---------------------------------------------------------------------
 Rotational constants (GHZ):    104.1600508     22.9179445     21.2325893
 Electric field and nuclear coordinate derivatives read from checkpoint file.
 FrcOut:
 IF    =    45 IFX   =    66 IFXYZ =    87
 IFFX  =   108 IFFFX =   339 IFLen =    21
 IFFLen=   231 IFFFLn=     0 IEDerv=   339
 LEDerv=  1061 IFroze=  1651 ICStrt= 45841
 Rotating derivatives to standard orientation.
 Rotating derivatives, DoTrsp=T IDiff=-2 LEDeriv=   1060 LFDPrp=       0 LDFDPr=       0.
 DipoleDeriv   = 1.26190751D-01-1.30116984D-04 1.50086571D-02
                 8.58402337D-05 1.15195879D-01 5.10743627D-05
                 3.97627953D-04-6.19795206D-05-3.95845380D-01
                -1.09316801D-02-5.45525824D-05 3.13420305D-03
                -5.02289420D-04 4.07873640D-02-1.64815827D-04
                 5.34397056D-02-4.39328800D-05 1.23353396D-01
                -4.06691521D-02 4.04896017D-02-1.34729059D-02
                 7.10449847D-02-5.91521679D-02 1.12763664D-02
                -1.50141448D-02 9.89332371D-03 1.46920163D-01
                -4.07272847D-02-4.02744120D-02-1.35192132D-02
                -7.11460697D-02-5.90438747D-02-1.11589926D-02
                -1.52457701D-02-9.71460969D-03 1.46923162D-01
                -2.20953506D-02-1.64800359D-04 5.70347859D-02
                -1.52885839D-04 8.81120213D-02 7.25703425D-04
                 9.70922573D-02 8.68454125D-04-1.01404368D-01
                -5.83274166D-03 4.72971946D-02-2.38704104D-02
                 7.39153267D-02-6.37022299D-02 7.46580897D-02
                -5.99195285D-02 7.67960932D-02 4.07214176D-02
                -5.93454139D-03-4.71629143D-02-2.43151165D-02
                -7.32449067D-02-6.21969920D-02-7.53874255D-02
                -6.07501473D-02-7.77373490D-02 3.93316093D-02
 VibFq2-Diag1:  N=     21 IV=           8 MDV=   419382707 NE2=    19970604
 Full mass-weighted force constant matrix:
 Low frequencies ---  -27.5885  -14.5562   -0.0001    0.0007    0.0010   26.2307
 Low frequencies ---  101.6041  482.0038  818.1545
 OrtVCM:  Ph=1 IPass= 1 DotMx1= 0.00D+00
 OrtVCM:  IS=    1 I=    1 IndO=    1 Dot= 1.00D+00 DotN= 1.00D+00 ElMax1= 6.43D-01 ElMax1N= 6.43D-01
 OrtVCM:  Ph=2 NNew=    0 IAdd=    2 IPass= 1 DotMx2= 0.00D+00
 OrtVCM:  IS=    1 I=    2 IndO=    2 Dot= 1.00D+00 DotN= 1.00D+00 ElMax1= 6.43D-01 ElMax1N= 6.43D-01
 OrtVCM:  Ph=2 NNew=    0 IAdd=    3 IPass= 1 DotMx2= 0.00D+00
 OrtVCM:  IS=    1 I=    3 IndO=    3 Dot= 1.00D+00 DotN= 1.00D+00 ElMax1= 6.43D-01 ElMax1N= 6.43D-01
 OrtVCM:  Ph=2 NNew=    0 IAdd=    4 IPass= 1 DotMx2= 2.78D-17
 OrtVCM:  IS=    1 I=    4 IndO=    4 Dot= 1.00D+00 DotN= 1.00D+00 ElMax1= 4.67D-01 ElMax1N= 4.67D-01
 OrtVCM:  Ph=2 NNew=    0 IAdd=    5 IPass= 1 DotMx2= 9.85D-16
 OrtVCM:  IS=    1 I=    5 IndO=    5 Dot= 1.00D+00 DotN= 1.00D+00 ElMax1= 5.68D-01 ElMax1N= 5.68D-01
 OrtVCM:  Ph=2 NNew=    0 IAdd=    6 IPass= 1 DotMx2= 9.71D-17
 OrtVCM:  IS=    1 I=    6 IndO=    6 Dot= 1.00D+00 DotN= 1.00D+00 ElMax1= 5.47D-01 ElMax1N= 5.47D-01
 OrtVCM:  Ph=1 IPass= 1 DotMx1= 6.43D-01
 OrtVCM:  Ph=1 IPass= 2 DotMx1= 1.92D-16
 OrtVCM:  IS=    1 I=    1 IndO=    7 Dot= 5.87D-01 DotN= 5.87D-01 ElMax1= 5.87D-01 ElMax1N= 5.87D-01
 OrtVCM:  Ph=2 NNew=    0 IAdd=    2 IPass= 1 DotMx2= 3.63D-06
 OrtVCM:  Ph=2 NNew=    0 IAdd=    2 IPass= 2 DotMx2= 0.00D+00
 OrtVCM:  IS=    1 I=    2 IndO=    8 Dot= 2.87D-01 DotN= 2.87D-01 ElMax1= 2.87D-01 ElMax1N= 2.87D-01
 OrtVCM:  Ph=2 NNew=    0 IAdd=    3 IPass= 1 DotMx2= 7.98D-03
 OrtVCM:  Ph=2 NNew=    0 IAdd=    3 IPass= 2 DotMx2= 3.47D-18
 OrtVCM:  IS=    1 I=    3 IndO=    9 Dot= 2.64D-01 DotN= 2.64D-01 ElMax1= 2.81D-01 ElMax1N= 2.81D-01
 OrtVCM:  Ph=2 NNew=    0 IAdd=    4 IPass= 1 DotMx2= 5.39D-01
 OrtVCM:  Ph=2 NNew=    0 IAdd=    4 IPass= 2 DotMx2= 2.50D-16
 OrtVCM:  IS=    1 I=    4 IndO=   10 Dot= 2.96D-01 DotN= 2.96D-01 ElMax1= 2.96D-01 ElMax1N= 2.96D-01
 OrtVCM:  Ph=2 NNew=    0 IAdd=    5 IPass= 1 DotMx2= 2.55D-01
 OrtVCM:  Ph=2 NNew=    0 IAdd=    5 IPass= 2 DotMx2= 6.94D-18
 OrtVCM:  IS=    1 I=    5 IndO=   11 Dot= 2.66D-01 DotN= 2.66D-01 ElMax1= 2.66D-01 ElMax1N= 2.66D-01
 OrtVCM:  Ph=2 NNew=    0 IAdd=    6 IPass= 1 DotMx2= 2.24D-01
 OrtVCM:  Ph=2 NNew=    0 IAdd=    6 IPass= 2 DotMx2= 6.94D-17
 OrtVCM:  IS=    1 I=    6 IndO=   12 Dot= 2.61D-01 DotN= 2.61D-01 ElMax1= 2.61D-01 ElMax1N= 2.61D-01
 OrtVCM:  Ph=2 NNew=    0 IAdd=    7 IPass= 1 DotMx2= 3.75D-01
 OrtVCM:  Ph=2 NNew=    0 IAdd=    7 IPass= 2 DotMx2= 2.78D-16
 OrtVCM:  IS=    1 I=    7 IndO=   13 Dot= 7.18D-01 DotN= 7.18D-01 ElMax1= 7.18D-01 ElMax1N= 7.18D-01
 OrtVCM:  Ph=2 NNew=    0 IAdd=    8 IPass= 1 DotMx2= 5.01D-01
 OrtVCM:  Ph=2 NNew=    0 IAdd=    8 IPass= 2 DotMx2= 7.98D-17
 OrtVCM:  IS=    1 I=    8 IndO=   14 Dot= 5.71D-01 DotN= 5.71D-01 ElMax1= 5.71D-01 ElMax1N= 5.71D-01
 OrtVCM:  Ph=2 NNew=    0 IAdd=    9 IPass= 1 DotMx2= 5.47D-01
 OrtVCM:  Ph=2 NNew=    0 IAdd=    9 IPass= 2 DotMx2= 1.39D-16
 OrtVCM:  IS=    1 I=    9 IndO=   15 Dot= 3.75D-01 DotN= 3.75D-01 ElMax1= 3.75D-01 ElMax1N= 3.75D-01
 OrtVCM:  Ph=2 NNew=    0 IAdd=   10 IPass= 1 DotMx2= 3.75D-01
 OrtVCM:  Ph=2 NNew=    0 IAdd=   10 IPass= 2 DotMx2= 1.25D-16
 OrtVCM:  IS=    1 I=   10 IndO=   16 Dot= 6.78D-01 DotN= 6.78D-01 ElMax1= 6.78D-01 ElMax1N= 6.78D-01
 OrtVCM:  Ph=2 NNew=    0 IAdd=   11 IPass= 1 DotMx2= 5.68D-01
 OrtVCM:  Ph=2 NNew=    0 IAdd=   11 IPass= 2 DotMx2= 4.08D-16
 OrtVCM:  IS=    1 I=   11 IndO=   17 Dot= 1.94D-01 DotN= 1.94D-01 ElMax1= 2.69D-01 ElMax1N= 2.69D-01
 OrtVCM:  Ph=2 NNew=    0 IAdd=   12 IPass= 1 DotMx2= 5.47D-01
 OrtVCM:  Ph=2 NNew=    0 IAdd=   12 IPass= 2 DotMx2= 1.67D-16
 OrtVCM:  IS=    1 I=   12 IndO=   18 Dot= 1.82D-01 DotN= 1.82D-01 ElMax1= 2.93D-01 ElMax1N= 2.93D-01
 OrtVCM:  Ph=2 NNew=    0 IAdd=   13 IPass= 1 DotMx2= 6.87D-01
 OrtVCM:  Ph=2 NNew=    0 IAdd=   13 IPass= 2 DotMx2= 1.99D-16
 OrtVCM:  IS=    1 I=   13 IndO=    0 Dot= 8.31D-05 DotN= 8.31D-05 ElMax1= 7.44D-03 ElMax1N= 7.44D-03
 OrtVCM:  Ph=2 NNew=    0 IAdd=   14 IPass= 1 DotMx2= 4.43D-01
 OrtVCM:  Ph=2 NNew=    0 IAdd=   14 IPass= 2 DotMx2= 6.94D-17
 OrtVCM:  IS=    1 I=   14 IndO=   19 Dot= 3.37D-01 DotN= 3.37D-01 ElMax1= 3.37D-01 ElMax1N= 3.37D-01
 OrtVCM:  Ph=2 NNew=    0 IAdd=   15 IPass= 1 DotMx2= 4.65D-01
 OrtVCM:  Ph=2 NNew=    0 IAdd=   15 IPass= 2 DotMx2= 5.55D-17
 OrtVCM:  IS=    1 I=   15 IndO=   20 Dot= 6.67D-01 DotN= 6.67D-01 ElMax1= 6.67D-01 ElMax1N= 6.67D-01
 SchOr2:  IPass= 1 Test2A= 1.00D-01 IOff=     0 NDo=    15 NNew=    14
 OrtVCM:  Ph=1 IPass= 1 DotMx1= 6.10D-01
 OrtVCM:  Ph=1 IPass= 2 DotMx1= 1.84D-16
 OrtVCM:  IS=    1 I=    1 IndO=    0 Dot= 1.91D-09 DotN= 1.91D-09 ElMax1= 3.09D-05 ElMax1N= 3.09D-05
 SchOr2:  IPass= 1 Test2A= 1.00D-01 IOff=    15 NDo=     1 NNew=     0
 OrtVCM:  Ph=1 IPass= 1 DotMx1= 4.56D-01
 OrtVCM:  Ph=1 IPass= 2 DotMx1= 1.94D-16
 OrtVCM:  IS=    1 I=    1 IndO=   21 Dot= 5.00D-01 DotN= 5.00D-01 ElMax1= 5.00D-01 ElMax1N= 5.00D-01
 SchOr2:  IPass= 1 Test2A= 1.00D-01 IOff=    16 NDo=     1 NNew=     1
 VibFq2-Diag2:  N=     15 IV=           8 MDV=   419382707 NE2=    27958846
 Dipole derivatives wrt mode   1:  8.59692D-03 -3.45039D-02 -8.02946D-02
 Vibrational polarizability contributions from mode   1       0.0001933       0.0031137       0.0168621
 Vibrational hyperpolarizability contributions from mode   1       0.0000000      -0.0000000      -0.0000000
 Dipole derivatives wrt mode   2:  5.17247D-01 -2.49213D-03 -7.57883D+00
 Vibrational polarizability contributions from mode   2       0.0309911       0.0000007       6.6534235
 Vibrational hyperpolarizability contributions from mode   2       0.0000000      -0.0000000      -0.0000000
 Dipole derivatives wrt mode   3:  3.39013D-03  1.32397D+00  6.72983D-03
 Vibrational polarizability contributions from mode   3       0.0000005       0.0704719       0.0000018
 Vibrational hyperpolarizability contributions from mode   3       0.0000000       0.0000000       0.0000000
 Dipole derivatives wrt mode   4:  7.81161D-01  1.14628D-03 -7.91678D-02
 Vibrational polarizability contributions from mode   4       0.0169934       0.0000000       0.0001745
 Vibrational hyperpolarizability contributions from mode   4       0.0000000       0.0000000      -0.0000000
 Dipole derivatives wrt mode   5:  2.80330D-01  2.91460D-03  6.44200D-02
 Vibrational polarizability contributions from mode   5       0.0018260       0.0000002       0.0000964
 Vibrational hyperpolarizability contributions from mode   5       0.0000000       0.0000000       0.0000000
 Dipole derivatives wrt mode   6:  8.02873D-03  1.50982D+00 -5.59526D-04
 Vibrational polarizability contributions from mode   6       0.0000012       0.0426992       0.0000000
 Vibrational hyperpolarizability contributions from mode   6       0.0000000       0.0000000      -0.0000000
 Dipole derivatives wrt mode   7: -1.49831D+00 -2.48796D-02  5.78437D-01
 Vibrational polarizability contributions from mode   7       0.0306055       0.0000084       0.0045615
 Vibrational hyperpolarizability contributions from mode   7      -0.0000000      -0.0000000       0.0000000
 Dipole derivatives wrt mode   8: -4.93003D-01 -3.60490D-02  1.68902D+00
 Vibrational polarizability contributions from mode   8       0.0030224       0.0000162       0.0354748
 Vibrational hyperpolarizability contributions from mode   8      -0.0000000      -0.0000000       0.0000000
 Dipole derivatives wrt mode   9: -2.60190D-03  2.53652D+00  1.06417D-01
 Vibrational polarizability contributions from mode   9       0.0000001       0.0782950       0.0001378
 Vibrational hyperpolarizability contributions from mode   9      -0.0000000       0.0000000       0.0000000
 Dipole derivatives wrt mode  10:  1.97658D-01 -1.11823D-01  1.84722D+00
 Vibrational polarizability contributions from mode  10       0.0004739       0.0001517       0.0413887
 Vibrational hyperpolarizability contributions from mode  10       0.0000000      -0.0000000       0.0000000
 Dipole derivatives wrt mode  11:  3.95865D+00  1.33985D-02 -2.91166D+00
 Vibrational polarizability contributions from mode  11       0.0473511       0.0000005       0.0256164
 Vibrational hyperpolarizability contributions from mode  11       0.0000000       0.0000000      -0.0000000
 Dipole derivatives wrt mode  12:  2.91540D+00  3.53979D-02  3.42341D+00
 Vibrational polarizability contributions from mode  12       0.0242715       0.0000036       0.0334671
 Vibrational hyperpolarizability contributions from mode  12       0.0000000       0.0000000       0.0000000
 Dipole derivatives wrt mode  13: -3.64631D-02  4.28500D+00 -1.96008D-02
 Vibrational polarizability contributions from mode  13       0.0000037       0.0508844       0.0000011
 Vibrational hyperpolarizability contributions from mode  13      -0.0000000       0.0000000      -0.0000000
 Dipole derivatives wrt mode  14:  3.80113D+00 -1.15114D-02  3.38760D-01
 Vibrational polarizability contributions from mode  14       0.0388432       0.0000004       0.0003085
 Vibrational hyperpolarizability contributions from mode  14       0.0000000      -0.0000000       0.0000000
 Dipole derivatives wrt mode  15:  8.99130D-03  3.63513D+00 -1.28507D-03
 Vibrational polarizability contributions from mode  15       0.0000002       0.0333176       0.0000000
 Vibrational hyperpolarizability contributions from mode  15       0.0000000       0.0000000      -0.0000000
 Diagonal vibrational polarizability:
        0.1945770       0.2789635       6.8115143
 NorSel:  MapVib=      1      2      3      4      5      6      7      8      9     10
 NorSel:  MapVib=     11     12     13     14     15
 Harmonic frequencies (cm**-1), IR intensities (KM/Mole), Raman scattering
 activities (A**4/AMU), depolarization ratios for plane and unpolarized
 incident light, reduced masses (AMU), force constants (mDyne/A),
 and normal coordinates:
                      1                      2                      3
                      A                      A                      A
 Frequencies --    101.4372               481.9989               818.1543
 Red. masses --      1.0082                 1.2144                 1.0504
 Frc consts  --      0.0061                 0.1662                 0.4143
 IR Inten    --  0.7712E-02              57.71                  1.753    
  Atom  AN      X      Y      Z        X      Y      Z        X      Y      Z
     1   6     0.00  -0.00   0.00    -0.00  -0.00   0.14     0.00  -0.05   0.00
     2   6    -0.00   0.00   0.00    -0.00  -0.00  -0.00     0.00  -0.04  -0.00
     3   1    -0.02   0.02   0.56     0.06  -0.01  -0.68     0.46   0.24   0.01
     4   1     0.02   0.02  -0.57     0.05   0.01  -0.67    -0.46   0.24  -0.01
     5   1    -0.00  -0.38  -0.00    -0.18   0.00  -0.08    -0.00   0.21   0.00
     6   1     0.00   0.16   0.29     0.07  -0.00  -0.08     0.41   0.18   0.04
     7   1    -0.00   0.16  -0.29     0.07   0.00  -0.07    -0.41   0.18  -0.04
                      4                      5                      6
                      A                      A                      A
 Frequencies --    983.0289              1076.1800              1198.6171
 Red. masses --      1.3309                 3.2045                 1.4722
 Frc consts  --      0.7577                 2.1867                 1.2462
 IR Inten    --  0.6165                 0.8274E-01              2.280    
  Atom  AN      X      Y      Z        X      Y      Z        X      Y      Z
     1   6     0.02  -0.00  -0.09     0.32   0.00   0.01    -0.00   0.13  -0.00
     2   6    -0.02   0.00   0.14    -0.31  -0.00  -0.02     0.00  -0.16   0.00
     3   1     0.05   0.02   0.06     0.43   0.04   0.03    -0.44  -0.13   0.01
     4   1     0.04  -0.02   0.06     0.43  -0.04   0.03     0.44  -0.13  -0.01
     5   1    -0.75   0.00  -0.16    -0.17   0.00   0.02    -0.00   0.30   0.00
     6   1     0.32  -0.06  -0.28    -0.44  -0.03   0.03     0.44   0.11   0.10
     7   1     0.32   0.07  -0.28    -0.44   0.03   0.03    -0.44   0.12  -0.10
                      7                      8                      9
                      A                      A                      A
 Frequencies --   1404.9716              1471.0980              1487.0925
 Red. masses --      1.1926                 1.1073                 1.0340
 Frc consts  --      1.3871                 1.4119                 1.3472
 IR Inten    --   2.580                  3.097                  6.445    
  Atom  AN      X      Y      Z        X      Y      Z        X      Y      Z
     1   6     0.02   0.00  -0.00    -0.08   0.00  -0.01     0.00  -0.02  -0.00
     2   6     0.13   0.00  -0.02     0.01   0.00  -0.04    -0.00  -0.04  -0.00
     3   1    -0.13  -0.08   0.00     0.44   0.31   0.03     0.04   0.00   0.02
     4   1    -0.13   0.08   0.00     0.44  -0.31   0.03    -0.06   0.01  -0.02
     5   1    -0.57  -0.01  -0.25    -0.21  -0.01  -0.10    -0.01   0.68  -0.00
     6   1    -0.45  -0.11   0.24     0.11   0.24   0.32    -0.32   0.06   0.41
     7   1    -0.45   0.11   0.25     0.11  -0.24   0.33     0.34   0.03  -0.37
                     10                     11                     12
                      A                      A                      A
 Frequencies --   1489.5128              2984.3387              3069.8424
 Red. masses --      1.1322                 1.0560                 1.0742
 Frc consts  --      1.4800                 5.5415                 5.9643
 IR Inten    --   3.464                  24.15                  20.22    
  Atom  AN      X      Y      Z        X      Y      Z        X      Y      Z
     1   6     0.08   0.00  -0.01     0.00  -0.00  -0.00    -0.00  -0.00   0.00
     2   6    -0.06   0.00  -0.04     0.04   0.00  -0.05     0.03   0.00   0.07
     3   1    -0.33  -0.24  -0.02     0.00  -0.00  -0.00    -0.00   0.00   0.00
     4   1    -0.32   0.24  -0.02     0.00   0.00  -0.00    -0.00  -0.00   0.00
     5   1    -0.15  -0.03  -0.06    -0.33  -0.00   0.89     0.11   0.00  -0.26
     6   1     0.29   0.35   0.33    -0.07   0.17  -0.12    -0.24   0.55  -0.29
     7   1     0.26  -0.36   0.36    -0.07  -0.17  -0.12    -0.25  -0.56  -0.30
                     13                     14                     15
                      A                      A                      A
 Frequencies --   3116.1984              3163.8890              3267.0016
 Red. masses --      1.1025                 1.0510                 1.1190
 Frc consts  --      6.3078                 6.1989                 7.0368
 IR Inten    --   18.36                  14.56                  13.21    
  Atom  AN      X      Y      Z        X      Y      Z        X      Y      Z
     1   6     0.00  -0.01  -0.00     0.06  -0.00   0.01     0.00   0.10   0.00
     2   6    -0.00   0.09  -0.00    -0.00  -0.00  -0.00    -0.00   0.01  -0.00
     3   1    -0.02   0.04  -0.01    -0.35   0.61  -0.03     0.36  -0.60   0.04
     4   1     0.02   0.04   0.01    -0.35  -0.61  -0.03    -0.36  -0.60  -0.04
     5   1    -0.00   0.03   0.00    -0.00  -0.00   0.01    -0.00   0.00   0.00
     6   1     0.26  -0.57   0.32     0.00  -0.00  -0.00     0.02  -0.04   0.02
     7   1    -0.26  -0.56  -0.32     0.00   0.00  -0.00    -0.02  -0.04  -0.02

 -------------------
 - Thermochemistry -
 -------------------
 Temperature   298.150 Kelvin.  Pressure   1.00000 Atm.
 Atom     1 has atomic number  6 and mass  12.00000
 Atom     2 has atomic number  6 and mass  12.00000
 Atom     3 has atomic number  1 and mass   1.00783
 Atom     4 has atomic number  1 and mass   1.00783
 Atom     5 has atomic number  1 and mass   1.00783
 Atom     6 has atomic number  1 and mass   1.00783
 Atom     7 has atomic number  1 and mass   1.00783
 Molecular mass:    29.03913 amu.
 Principal axes and moments of inertia in atomic units:
                           1         2         3
     Eigenvalues --    17.32662  78.74795  84.99864
           X            0.99999   0.00001   0.00416
           Y           -0.00001   1.00000   0.00000
           Z           -0.00416  -0.00000   0.99999
 This molecule is an asymmetric top.
 Rotational symmetry number  1.
 Rotational temperatures (Kelvin)      4.99889     1.09989     1.01900
 Rotational constants (GHZ):         104.16005    22.91794    21.23259
 Zero-point vibrational energy     156192.6 (Joules/Mol)
                                   37.33092 (Kcal/Mol)
 Warning -- explicit consideration of   2 degrees of freedom as
           vibrations may cause significant error
 Vibrational temperatures:    145.95   693.49  1177.14  1414.36  1548.38
          (Kelvin)           1724.54  2021.44  2116.58  2139.59  2143.07
                             4293.79  4416.81  4483.51  4552.12  4700.48
 
 Zero-point correction=                           0.059491 (Hartree/Particle)
 Thermal correction to Energy=                    0.063473
 Thermal correction to Enthalpy=                  0.064417
 Thermal correction to Gibbs Free Energy=         0.035249
 Sum of electronic and zero-point Energies=            -79.099494
 Sum of electronic and thermal Energies=               -79.095512
 Sum of electronic and thermal Enthalpies=             -79.094568
 Sum of electronic and thermal Free Energies=          -79.123736
 
                     E (Thermal)             CV                S
                      KCal/Mol        Cal/Mol-Kelvin    Cal/Mol-Kelvin
 Total                   39.830             11.067             61.389
 Electronic               0.000              0.000              1.377
 Translational            0.889              2.981             36.032
 Rotational               0.889              2.981             19.389
 Vibrational             38.052              5.106              4.590
 Vibration     1          0.604              1.948              3.427
 Vibration     2          0.838              1.290              0.705
                       Q            Log10(Q)             Ln(Q)
 Total Bot       0.611853D-16        -16.213353        -37.332625
 Total V=0       0.141375D+12         11.150372         25.674680
 Vib (Bot)       0.129020D-26        -26.889342        -61.914999
 Vib (Bot)    1  0.202263D+01          0.305917          0.704401
 Vib (Bot)    2  0.346390D+00         -0.460435         -1.060190
 Vib (V=0)       0.298114D+01          0.474383          1.092306
 Vib (V=0)    1  0.258352D+01          0.412212          0.949152
 Vib (V=0)    2  0.110826D+01          0.044644          0.102796
 Electronic      0.200000D+01          0.301030          0.693147
 Translational   0.615078D+07          6.788931         15.632090
 Rotational      0.385504D+04          3.586029          8.257137
 Forces in standard orientation:
 -------------------------------------------------------------------
 Center     Atomic                   Forces (Hartrees/Bohr)
 Number     Number              X              Y              Z
 -------------------------------------------------------------------
      1        6           0.000046292    0.000039783   -0.000059797
      2        6          -0.000148408    0.000035427    0.000047946
      3        1          -0.000040683    0.000010776    0.000020226
      4        1          -0.000069174   -0.000063514    0.000014420
      5        1           0.000064656   -0.000003839   -0.000005509
      6        1           0.000076741   -0.000038439   -0.000008171
      7        1           0.000070575    0.000019806   -0.000009115
 -------------------------------------------------------------------
 ***** Axes restored to original set *****
 Rotating derivatives, DoTrsp=F IDiff=-2 LEDeriv=   1060 LFDPrp=       0 LDFDPr=       0.
 -------------------------------------------------------------------
 Center     Atomic                   Forces (Hartrees/Bohr)
 Number     Number              X              Y              Z
 -------------------------------------------------------------------
      1        6           0.000043905    0.000056276    0.000046976
      2        6           0.000032037   -0.000048639   -0.000148952
      3        1           0.000009340   -0.000020473   -0.000040913
      4        1          -0.000064326   -0.000009064   -0.000069333
      5        1          -0.000003487    0.000005025    0.000064715
      6        1          -0.000037820    0.000010006    0.000076832
      7        1           0.000020350    0.000006870    0.000070674
 -------------------------------------------------------------------
 Cartesian Forces:  Max     0.000148952 RMS     0.000053985
 From PutF, contents of force:
   1    0.6326971825D-04
   2    0.2900095476D-04
   3    0.8911303881D-04
   4    0.2825350676D-04
   5    0.5643457010D-04
   6    0.3841206524D-04
   7    0.6192345937D-04
   8    0.5618179909D-04
   9    0.1212727150D-03
  10    0.1241013749D-03
  11    0.1252722135D-03
  12   -0.3175151412D-04
  13   -0.4782883341D-04
  14    0.3249607382D-04
  15   -0.7884687311D-05
 -----------------------------------------------------------------------------------------------
                       Internal Coordinate Forces (Hartree/Bohr or radian)
  Cent   Atom   N1       Length/X         N2         Alpha/Y        N3         Beta/Z          J
 -----------------------------------------------------------------------------------------------
      1  C 
      2  C        1   0.000063(     1)
      3  H        1   0.000029(     2)      2   0.000062(     7)
      4  H        1   0.000089(     3)      2   0.000056(     8)      3  -0.000032(    12)     0
      5  H        2   0.000028(     4)      1   0.000121(     9)      3  -0.000008(    13)     0
      6  H        2   0.000056(     5)      1   0.000124(    10)      5  -0.000048(    14)     0
      7  H        2   0.000038(     6)      1   0.000125(    11)      5   0.000032(    15)     0
 -----------------------------------------------------------------------------------------------
 Internal  Forces:  Max     0.000125272 RMS     0.000070923
 Force constants in Cartesian coordinates: 
                1             2             3             4             5 
      1  0.632098D+00
      2 -0.410690D-01  0.597940D-01
      3 -0.132730D-02 -0.194827D-01  0.554573D+00
      4 -0.879949D-01  0.325067D-02  0.662289D-03  0.569560D+00
      5  0.329526D-02 -0.422823D-01  0.761602D-02 -0.544815D-02  0.493158D+00
      6  0.524033D-04  0.832976D-03 -0.244796D+00 -0.178822D-02 -0.210679D-01
      7 -0.275846D+00  0.480205D-02  0.128025D+00  0.479641D-02 -0.524149D-03
      8  0.774626D-03 -0.101852D-01  0.264145D-02  0.303498D-02  0.278923D-02
      9  0.126154D+00  0.129323D-02 -0.129687D+00  0.253074D-01  0.187656D-02
     10 -0.271369D+00  0.327295D-01 -0.126400D+00  0.440615D-02  0.301871D-03
     11  0.367252D-01 -0.145912D-01  0.208008D-01 -0.323589D-02  0.327137D-02
     12 -0.124735D+00  0.191998D-01 -0.129631D+00 -0.247329D-01  0.546276D-02
     13  0.149935D-03  0.358872D-03 -0.525619D-03 -0.433949D-01 -0.163379D-01
     14  0.359478D-03  0.513843D-02 -0.669880D-02 -0.163246D-01 -0.255931D+00
     15 -0.195652D-02 -0.252224D-01 -0.207480D-01 -0.657115D-02 -0.871647D-01
     16  0.176576D-02  0.145477D-02  0.133223D-02 -0.238521D+00 -0.868078D-01
     17  0.224658D-02  0.757915D-03 -0.255442D-02 -0.876696D-01 -0.858328D-01
     18  0.306995D-01  0.947620D-02 -0.148306D-01  0.785038D-01  0.408926D-01
     19  0.119594D-02 -0.152687D-02 -0.176744D-02 -0.208851D+00  0.105521D+00
     20 -0.233213D-02  0.136830D-02 -0.232235D-02  0.106393D+00 -0.115173D+00
     21 -0.288872D-01  0.139029D-01 -0.148798D-01 -0.713813D-01  0.523847D-01
                6             7             8             9            10 
      6  0.488783D+00
      7 -0.377326D-02  0.283360D+00
      8  0.293488D-03 -0.361672D-02  0.409565D-02
      9 -0.839808D-02 -0.137442D+00 -0.231271D-02  0.132852D+00
     10  0.378906D-02 -0.142360D-01  0.324396D-02 -0.135733D-01  0.278839D+00
     11 -0.210986D-03 -0.749747D-03  0.322981D-02  0.206049D-03 -0.358494D-01
     12 -0.839969D-02  0.134728D-01 -0.170630D-02  0.977156D-02  0.135737D+00
     13 -0.553829D-02 -0.131802D-03 -0.108355D-02  0.171862D-03  0.555407D-04
     14 -0.734342D-01 -0.304182D-03 -0.498079D-03 -0.470975D-03  0.230063D-03
     15 -0.689430D-01 -0.116242D-04  0.593589D-03 -0.741867D-03  0.106993D-03
     16  0.776289D-01  0.118531D-02 -0.132967D-02 -0.274609D-03  0.100715D-02
     17  0.411416D-01  0.362226D-03  0.443188D-03 -0.898499D-03 -0.158985D-03
     18 -0.792257D-01 -0.914534D-03  0.933864D-03 -0.531871D-02 -0.694477D-03
     19 -0.703706D-01  0.871893D-03 -0.102363D-02 -0.343806D-03  0.129687D-02
     20  0.524450D-01  0.305209D-04  0.125382D-03  0.306340D-03 -0.497057D-03
     21 -0.790206D-01  0.643281D-03 -0.443381D-03  0.152256D-02  0.103434D-02
               11            12            13            14            15 
     11  0.854266D-02
     12 -0.218269D-01  0.132808D+00
     13  0.100587D-02 -0.244598D-03  0.441708D-01
     14 -0.719184D-03 -0.438240D-03  0.182604D-01  0.281862D+00
     15  0.568222D-03 -0.780387D-03  0.686644D-02  0.905600D-01  0.827570D-01
     16  0.894245D-03  0.380184D-03 -0.236250D-02 -0.802931D-03  0.575029D-03
     17 -0.125405D-04  0.247338D-03 -0.269345D-01 -0.129458D-01  0.103575D-01
     18 -0.347451D-03  0.153103D-02 -0.973733D-02 -0.404205D-02  0.422472D-02
     19  0.120969D-02  0.122951D-03  0.151294D-02 -0.141822D-02  0.990828D-03
     20  0.279120D-03 -0.938545D-03  0.247308D-01 -0.169066D-01  0.103079D-01
     21  0.810252D-03 -0.529977D-02  0.900753D-02 -0.547566D-02  0.423157D-02
               16            17            18            19            20 
     16  0.255694D+00
     17  0.973745D-01  0.901865D-01
     18 -0.882221D-01 -0.406422D-01  0.900430D-01
     19 -0.187683D-01  0.147798D-01 -0.963496D-02  0.222742D+00
     20 -0.107831D-01  0.740349D-02 -0.627095D-02 -0.117542D+00  0.122903D+00
     21  0.858030D-02 -0.765137D-02  0.357628D-02  0.810031D-01 -0.535274D-01
               21 
     21  0.898698D-01
 FCInt: Cartesian first derivatives: 
                 1             2             3             4             5 
      1   0.439050D-04  0.320375D-04  0.934021D-05 -0.643257D-04 -0.348728D-05
      2   0.562757D-04 -0.486394D-04 -0.204733D-04 -0.906422D-05  0.502539D-05
      3   0.469761D-04 -0.148952D-03 -0.409132D-04 -0.693326D-04  0.647152D-04
                 6             7 
      1  -0.378195D-04  0.203497D-04
      2   0.100056D-04  0.687024D-05
      3   0.768321D-04  0.706744D-04
 FCInt: Cartesian force constants: 
                1             2             3             4             5 
      1  0.632098D+00
      2 -0.410690D-01  0.597940D-01
      3 -0.132730D-02 -0.194827D-01  0.554573D+00
      4 -0.879949D-01  0.325067D-02  0.662289D-03  0.569560D+00
      5  0.329526D-02 -0.422823D-01  0.761602D-02 -0.544815D-02  0.493158D+00
      6  0.524033D-04  0.832976D-03 -0.244796D+00 -0.178822D-02 -0.210679D-01
      7 -0.275846D+00  0.480205D-02  0.128025D+00  0.479641D-02 -0.524149D-03
      8  0.774626D-03 -0.101852D-01  0.264145D-02  0.303498D-02  0.278923D-02
      9  0.126154D+00  0.129323D-02 -0.129687D+00  0.253074D-01  0.187656D-02
     10 -0.271369D+00  0.327295D-01 -0.126400D+00  0.440615D-02  0.301871D-03
     11  0.367252D-01 -0.145912D-01  0.208008D-01 -0.323589D-02  0.327137D-02
     12 -0.124735D+00  0.191998D-01 -0.129631D+00 -0.247329D-01  0.546276D-02
     13  0.149935D-03  0.358872D-03 -0.525619D-03 -0.433949D-01 -0.163379D-01
     14  0.359478D-03  0.513843D-02 -0.669880D-02 -0.163246D-01 -0.255931D+00
     15 -0.195652D-02 -0.252224D-01 -0.207480D-01 -0.657115D-02 -0.871647D-01
     16  0.176576D-02  0.145477D-02  0.133223D-02 -0.238521D+00 -0.868078D-01
     17  0.224658D-02  0.757915D-03 -0.255442D-02 -0.876696D-01 -0.858328D-01
     18  0.306995D-01  0.947620D-02 -0.148306D-01  0.785038D-01  0.408926D-01
     19  0.119594D-02 -0.152687D-02 -0.176744D-02 -0.208851D+00  0.105521D+00
     20 -0.233213D-02  0.136830D-02 -0.232235D-02  0.106393D+00 -0.115173D+00
     21 -0.288872D-01  0.139029D-01 -0.148798D-01 -0.713813D-01  0.523847D-01
                6             7             8             9            10 
      6  0.488783D+00
      7 -0.377326D-02  0.283360D+00
      8  0.293488D-03 -0.361672D-02  0.409565D-02
      9 -0.839808D-02 -0.137442D+00 -0.231271D-02  0.132852D+00
     10  0.378906D-02 -0.142360D-01  0.324396D-02 -0.135733D-01  0.278839D+00
     11 -0.210986D-03 -0.749747D-03  0.322981D-02  0.206049D-03 -0.358494D-01
     12 -0.839969D-02  0.134728D-01 -0.170630D-02  0.977156D-02  0.135737D+00
     13 -0.553829D-02 -0.131802D-03 -0.108355D-02  0.171862D-03  0.555407D-04
     14 -0.734342D-01 -0.304182D-03 -0.498079D-03 -0.470975D-03  0.230063D-03
     15 -0.689430D-01 -0.116242D-04  0.593589D-03 -0.741867D-03  0.106993D-03
     16  0.776289D-01  0.118531D-02 -0.132967D-02 -0.274609D-03  0.100715D-02
     17  0.411416D-01  0.362226D-03  0.443188D-03 -0.898499D-03 -0.158985D-03
     18 -0.792257D-01 -0.914534D-03  0.933864D-03 -0.531871D-02 -0.694477D-03
     19 -0.703706D-01  0.871893D-03 -0.102363D-02 -0.343806D-03  0.129687D-02
     20  0.524450D-01  0.305209D-04  0.125382D-03  0.306340D-03 -0.497057D-03
     21 -0.790206D-01  0.643281D-03 -0.443381D-03  0.152256D-02  0.103434D-02
               11            12            13            14            15 
     11  0.854266D-02
     12 -0.218269D-01  0.132808D+00
     13  0.100587D-02 -0.244598D-03  0.441708D-01
     14 -0.719184D-03 -0.438240D-03  0.182604D-01  0.281862D+00
     15  0.568222D-03 -0.780387D-03  0.686644D-02  0.905600D-01  0.827570D-01
     16  0.894245D-03  0.380184D-03 -0.236250D-02 -0.802931D-03  0.575029D-03
     17 -0.125405D-04  0.247338D-03 -0.269345D-01 -0.129458D-01  0.103575D-01
     18 -0.347451D-03  0.153103D-02 -0.973733D-02 -0.404205D-02  0.422472D-02
     19  0.120969D-02  0.122951D-03  0.151294D-02 -0.141822D-02  0.990828D-03
     20  0.279120D-03 -0.938545D-03  0.247308D-01 -0.169066D-01  0.103079D-01
     21  0.810252D-03 -0.529977D-02  0.900753D-02 -0.547566D-02  0.423157D-02
               16            17            18            19            20 
     16  0.255694D+00
     17  0.973745D-01  0.901865D-01
     18 -0.882221D-01 -0.406422D-01  0.900430D-01
     19 -0.187683D-01  0.147798D-01 -0.963496D-02  0.222742D+00
     20 -0.107831D-01  0.740349D-02 -0.627095D-02 -0.117542D+00  0.122903D+00
     21  0.858030D-02 -0.765137D-02  0.357628D-02  0.810031D-01 -0.535274D-01
               21 
     21  0.898698D-01
 Internal force constants: 
                1             2             3             4             5 
      1  0.321139D+00
      2  0.315227D-02  0.364798D+00
      3  0.314211D-02  0.101635D-02  0.364880D+00
      4  0.152992D-01  0.104114D-03  0.994776D-04  0.318255D+00
      5  0.685921D-02 -0.557686D-03  0.702845D-03  0.346255D-02  0.338661D+00
      6  0.693517D-02  0.698428D-03 -0.550822D-03  0.347848D-02  0.194303D-02
      7  0.269179D-01 -0.232380D-02 -0.168083D-01  0.153229D-02  0.398246D-02
      8  0.269584D-01 -0.168255D-01 -0.246371D-02  0.156938D-02 -0.121480D-02
      9  0.371456D-01  0.741700D-03  0.763858D-03 -0.525381D-02 -0.946845D-02
     10  0.356788D-01  0.477001D-02 -0.110526D-02 -0.923567D-02 -0.431315D-02
     11  0.357056D-01 -0.108172D-02  0.475475D-02 -0.925377D-02 -0.807124D-02
     12  0.247793D-02 -0.261047D-02 -0.340118D-02 -0.606072D-03 -0.178208D-02
     13  0.573358D-04  0.746185D-03 -0.745089D-03 -0.149476D-03 -0.399609D-02
     14 -0.672579D-02 -0.407949D-03 -0.769760D-03  0.169589D-01 -0.511350D-03
     15  0.681894D-02  0.769635D-03  0.420163D-03 -0.170543D-01  0.130266D-01
                6             7             8             9            10 
      6  0.338433D+00
      7 -0.118643D-02  0.214335D+00
      8  0.396906D-02  0.947622D-01  0.214328D+00
      9 -0.946247D-02  0.166998D-02  0.182138D-02  0.205899D+00
     10 -0.806768D-02  0.195367D-01 -0.643756D-02  0.339804D-01  0.221536D+00
     11 -0.430227D-02 -0.644151D-02  0.194596D-01  0.340138D-01  0.295739D-01
     12  0.230579D-02  0.103770D-01  0.137431D-01  0.275911D-02 -0.255924D-03
     13  0.402187D-02 -0.344247D-02  0.348825D-02  0.204228D-03 -0.223395D-02
     14 -0.130319D-01 -0.268815D-02  0.123257D-02 -0.530949D-01 -0.536698D-03
     15  0.488168D-03 -0.123614D-02  0.273982D-02  0.531070D-01 -0.555496D-01
               11            12            13            14            15 
     11  0.220908D+00
     12  0.179524D-02  0.121353D-01
     13  0.190046D-02  0.113573D-02  0.253299D-02
     14  0.555464D-01  0.155746D-02  0.485439D-02  0.165560D+00
     15  0.231525D-03  0.313705D-02  0.471270D-02 -0.775310D-01  0.165455D+00
 Frcnst in PutFF: 
                1             2             3             4             5 
      1  0.321139D+00
      2  0.315227D-02  0.364798D+00
      3  0.314211D-02  0.101635D-02  0.364880D+00
      4  0.152992D-01  0.104114D-03  0.994776D-04  0.318255D+00
      5  0.685921D-02 -0.557686D-03  0.702845D-03  0.346255D-02  0.338661D+00
      6  0.693517D-02  0.698428D-03 -0.550822D-03  0.347848D-02  0.194303D-02
      7  0.269179D-01 -0.232380D-02 -0.168083D-01  0.153229D-02  0.398246D-02
      8  0.269584D-01 -0.168255D-01 -0.246371D-02  0.156938D-02 -0.121480D-02
      9  0.371456D-01  0.741700D-03  0.763858D-03 -0.525381D-02 -0.946845D-02
     10  0.356788D-01  0.477001D-02 -0.110526D-02 -0.923567D-02 -0.431315D-02
     11  0.357056D-01 -0.108172D-02  0.475475D-02 -0.925377D-02 -0.807124D-02
     12  0.247793D-02 -0.261047D-02 -0.340118D-02 -0.606072D-03 -0.178208D-02
     13 -0.672579D-02 -0.407949D-03 -0.769760D-03  0.169589D-01 -0.511350D-03
     14  0.681894D-02  0.769635D-03  0.420163D-03 -0.170543D-01  0.130266D-01
     15  0.573358D-04  0.746185D-03 -0.745089D-03 -0.149476D-03 -0.399609D-02
                6             7             8             9            10 
      6  0.338433D+00
      7 -0.118643D-02  0.214335D+00
      8  0.396906D-02  0.947622D-01  0.214328D+00
      9 -0.946247D-02  0.166998D-02  0.182138D-02  0.205899D+00
     10 -0.806768D-02  0.195367D-01 -0.643756D-02  0.339804D-01  0.221536D+00
     11 -0.430227D-02 -0.644151D-02  0.194596D-01  0.340138D-01  0.295739D-01
     12  0.230579D-02  0.103770D-01  0.137431D-01  0.275911D-02 -0.255924D-03
     13 -0.130319D-01 -0.268815D-02  0.123257D-02 -0.530949D-01 -0.536698D-03
     14  0.488168D-03 -0.123614D-02  0.273982D-02  0.531070D-01 -0.555496D-01
     15  0.402187D-02 -0.344247D-02  0.348825D-02  0.204228D-03 -0.223395D-02
               11            12            13            14            15 
     11  0.220908D+00
     12  0.179524D-02  0.121353D-01
     13  0.555464D-01  0.155746D-02  0.165560D+00
     14  0.231525D-03  0.313705D-02 -0.775310D-01  0.165455D+00
     15  0.190046D-02  0.113573D-02  0.485439D-02  0.471270D-02  0.253299D-02
 Force constants in internal coordinates: 
                1             2             3             4             5 
      1  0.321139D+00
      2  0.315227D-02  0.364798D+00
      3  0.314211D-02  0.101635D-02  0.364880D+00
      4  0.152992D-01  0.104114D-03  0.994776D-04  0.318255D+00
      5  0.685921D-02 -0.557686D-03  0.702845D-03  0.346255D-02  0.338661D+00
      6  0.693517D-02  0.698428D-03 -0.550822D-03  0.347848D-02  0.194303D-02
      7  0.269179D-01 -0.232380D-02 -0.168083D-01  0.153229D-02  0.398246D-02
      8  0.269584D-01 -0.168255D-01 -0.246371D-02  0.156938D-02 -0.121480D-02
      9  0.371456D-01  0.741700D-03  0.763858D-03 -0.525381D-02 -0.946845D-02
     10  0.356788D-01  0.477001D-02 -0.110526D-02 -0.923567D-02 -0.431315D-02
     11  0.357056D-01 -0.108172D-02  0.475475D-02 -0.925377D-02 -0.807124D-02
     12  0.247793D-02 -0.261047D-02 -0.340118D-02 -0.606072D-03 -0.178208D-02
     13  0.573358D-04  0.746185D-03 -0.745089D-03 -0.149476D-03 -0.399609D-02
     14 -0.672579D-02 -0.407949D-03 -0.769760D-03  0.169589D-01 -0.511350D-03
     15  0.681894D-02  0.769635D-03  0.420163D-03 -0.170543D-01  0.130266D-01
                6             7             8             9            10 
      6  0.338433D+00
      7 -0.118643D-02  0.214335D+00
      8  0.396906D-02  0.947622D-01  0.214328D+00
      9 -0.946247D-02  0.166998D-02  0.182138D-02  0.205899D+00
     10 -0.806768D-02  0.195367D-01 -0.643756D-02  0.339804D-01  0.221536D+00
     11 -0.430227D-02 -0.644151D-02  0.194596D-01  0.340138D-01  0.295739D-01
     12  0.230579D-02  0.103770D-01  0.137431D-01  0.275911D-02 -0.255924D-03
     13  0.402187D-02 -0.344247D-02  0.348825D-02  0.204228D-03 -0.223395D-02
     14 -0.130319D-01 -0.268815D-02  0.123257D-02 -0.530949D-01 -0.536698D-03
     15  0.488168D-03 -0.123614D-02  0.273982D-02  0.531070D-01 -0.555496D-01
               11            12            13            14            15 
     11  0.220908D+00
     12  0.179524D-02  0.121353D-01
     13  0.190046D-02  0.113573D-02  0.253299D-02
     14  0.555464D-01  0.155746D-02  0.485439D-02  0.165560D+00
     15  0.231525D-03  0.313705D-02  0.471270D-02 -0.775310D-01  0.165455D+00
 Final forces over variables, Energy=-7.91589849D+01:
  6.32697182D-05 2.90009548D-05 8.91130388D-05 2.82535068D-05
  5.64345701D-05 3.84120652D-05 6.19234594D-05 5.61817991D-05
  1.21272715D-04 1.24101375D-04 1.25272214D-04-3.17515141D-05
 -4.78288334D-05 3.24960738D-05-7.88468731D-06

 This type of calculation cannot be archived.


 BE CAREFUL NOT TO BECOME TOO GOOD OF A SONGBIRD OR 
 THEY'LL THROW YOU INTO A CAGE.

                                    -- SNOOPY TO WOODSTOCK
 Job cpu time:       0 days  0 hours  0 minutes  0.8 seconds.
 File lengths (MBytes):  RWF=     19 Int=      0 D2E=      0 Chk=     10 Scr=      1
 Normal termination of Gaussian 09 at Thu Jun 13 12:42:34 2024.
